
#######################################################################
#
#                 Cambridge Crystallographic Data Centre
#                                CCDC
#
#######################################################################
#
# If this CIF has been generated from an entry in the Cambridge
# Structural Database, then it will include bibliographic, chemical,
# crystal, experimental, refinement or atomic coordinate data resulting
# from the CCDC's data processing and validation procedures.
#
#######################################################################

data_CSD_CIF_ABILUT
_audit_creation_date 2005-02-04
_audit_creation_method CSD-ConQuest-V1
_database_code_CSD ABILUT
_database_code_depnum_ccdc_archive 'CCDC 195378'
_chemical_formula_sum 'C10 H24 Cl3 Cr1 N4'
_chemical_formula_moiety
;
C10 H24 Cl2 Cr1 N4 1+,Cl1 1-
;
_journal_coden_Cambridge 222
_journal_year 2004
_journal_page_first 2444
_journal_name_full 'Dalton Trans. '
loop_
_publ_author_name
"A.Solano-Peralta"
"M.E.Sosa-Torres"
"M.Flores-Alamo"
"H.El-Mkami"
"G.M.Smith"
"R.A.Toscano"
"T.Nakamura"
_chemical_name_systematic
;
trans-Dichloro-(R,S,S,R-1,4,8,11-tetra-azacyclotetradecane)-chromium(iii) 
chloride
;
_cell_volume    791.946
_exptl_crystal_colour 'red-purple'
_exptl_crystal_density_diffrn 1.504
_exptl_crystal_description 'hexagonal prism'
_diffrn_ambient_temperature 293
#These two values have been output from a single CSD field.
_refine_ls_R_factor_gt 0.0311
_refine_ls_wR_factor_gt 0.0311
loop_
_citation_database_id_CSD
_citation_special_details
DOHBEH "is a stereoisomer of this entry"
_symmetry_cell_setting tetragonal
_symmetry_space_group_name_H-M 'P 42/m'
_symmetry_Int_Tables_number 84
loop_
_symmetry_equiv_pos_site_id
_symmetry_equiv_pos_as_xyz
1 x,y,z
2 -y,x,1/2+z
3 y,-x,1/2+z
4 x,y,-z
5 -x,-y,-z
6 y,-x,-1/2-z
7 -y,x,-1/2-z
8 -x,-y,z
_cell_length_a 7.6245(7)
_cell_length_b 7.6245(7)
_cell_length_c 13.623(1)
_cell_angle_alpha 90
_cell_angle_beta 90
_cell_angle_gamma 90
_cell_formula_units_Z 2
loop_
_atom_type_symbol
_atom_type_radius_bond
C 0.68
H 0.23
Cl 0.99
Cr 1.35
N 0.68
loop_
_atom_site_label
_atom_site_type_symbol
_atom_site_fract_x
_atom_site_fract_y
_atom_site_fract_z
Cr1 Cr 0.50000 0.00000 0.00000
Cl1 Cl 0.32145(9) 0.24793(8) 0.00000
Cl2 Cl 0.00000 0.00000 0.25000
N1 N 0.6529(2) 0.1002(2) -0.11139(14)
H1 H 0.736(3) 0.031(3) -0.1193(19)
C1 C 0.5463(3) 0.0878(4) -0.20255(17)
H2 H 0.456(4) 0.185(4) -0.197(2)
H3 H 0.621(4) 0.108(4) -0.257(3)
C2 C 0.7284(3) 0.2773(3) -0.0947(2)
H4 H 0.633(3) 0.354(3) -0.096(2)
H5 H 0.809(4) 0.307(4) -0.147(3)
C3 C 0.8315(5) 0.2855(5) 0.00000
H6 H 0.924(6) 0.200(6) 0.00000
H7 H 0.883(8) 0.383(9) 0.00000
Cl1D Cl 0.67855(9) -0.24793(8) 0.00000
C1G C 0.4537(3) -0.0878(4) -0.20255(17)
N1G N 0.3471(2) -0.1002(2) -0.11139(14)
N1C N 0.6529(2) 0.1002(2) 0.11139(14)
H1C H 0.736(3) 0.031(3) 0.1193(19)
C1C C 0.5463(3) 0.0878(4) 0.20255(17)
C1D C 0.4537(3) -0.0878(4) 0.20255(17)
H2C H 0.456(4) 0.185(4) 0.197(2)
H3C H 0.621(4) 0.108(4) 0.257(3)
C2C C 0.7284(3) 0.2773(3) 0.0947(2)
H4C H 0.633(3) 0.354(3) 0.096(2)
H5C H 0.809(4) 0.307(4) 0.147(3)
N1D N 0.3471(2) -0.1002(2) 0.11139(14)
H1D H 0.264(3) -0.031(3) 0.1193(19)
H2D H 0.544(4) -0.185(4) 0.197(2)
H3D H 0.379(4) -0.108(4) 0.257(3)
C2D C 0.2716(3) -0.2773(3) 0.0947(2)
H4D H 0.367(3) -0.354(3) 0.096(2)
H5D H 0.191(4) -0.307(4) 0.147(3)
C3D C 0.1685(5) -0.2855(5) 0.00000
C2G C 0.2716(3) -0.2773(3) -0.0947(2)
H1G H 0.264(3) -0.031(3) -0.1193(19)
H4G H 0.367(3) -0.354(3) -0.096(2)
H5G H 0.191(4) -0.307(4) -0.147(3)
H6D H 0.076(6) -0.200(6) 0.00000
H7D H 0.117(8) -0.383(9) 0.00000
H2G H 0.544(4) -0.185(4) -0.197(2)
H3G H 0.379(4) -0.108(4) -0.257(3)
#END
