
#######################################################################
#
#                 Cambridge Crystallographic Data Centre
#                                CCDC
#
#######################################################################
#
# If this CIF has been generated from an entry in the Cambridge
# Structural Database, then it will include bibliographic, chemical,
# crystal, experimental, refinement or atomic coordinate data resulting
# from the CCDC's data processing and validation procedures.
#
#######################################################################

data_CSD_CIF_ACEYOW
_audit_creation_date 2002-02-27
_audit_creation_method CSD-ConQuest-V1
_database_code_CSD ACEYOW
_database_code_depnum_ccdc_archive 'CCDC 175987'
_chemical_formula_sum 'C12 H18 F12 Fe1 N6 Sb2'
_chemical_formula_moiety
;
C12 H18 Fe1 N6 2+,2(F6 Sb1 1-)
;
_journal_coeditor_code "IUCr YA6066"
_journal_coden_Cambridge 1370
_journal_volume 57
_journal_year 2001
_journal_page_first m545
_journal_name_full 'Acta Crystallogr.,Sect.E:Struct.Rep.Online '
loop_
_publ_author_name
"W.W.Brennessel"
"N.R.Brooks"
"M.P.Mehn"
"L.Que Junior"
"V.G.Young Junior"
_chemical_name_systematic
;
hexakis(Acetonitrile)-iron(ii) hexafluoroantimonate
;
_cell_volume   1933.086
_exptl_crystal_colour 'colorless'
_exptl_crystal_density_diffrn 1.994
_exptl_special_details
;
isostructural with the Ni complex

;
_exptl_crystal_description 'block cut from hexagonal prism'
_exptl_crystal_preparation 'diethyl ether/acetonitrile'
_diffrn_ambient_temperature 173
#These two values have been output from a single CSD field.
_refine_ls_R_factor_gt 0.024
_refine_ls_wR_factor_gt 0.024
_symmetry_cell_setting rhombohedral
_symmetry_space_group_name_H-M 'R -3'
_symmetry_Int_Tables_number 148
loop_
_symmetry_equiv_pos_site_id
_symmetry_equiv_pos_as_xyz
1 x,y,z
2 -y,x-y,z
3 -x+y,-x,z
4 -1/3+x,1/3+y,1/3+z
5 -1/3-y,1/3+x-y,1/3+z
6 -1/3-x+y,1/3-x,1/3+z
7 1/3+x,-1/3+y,-1/3+z
8 -1/3+y,1/3-x+y,1/3-z
9 -1/3+x-y,1/3+x,1/3-z
10 -x,-y,-z
11 y,-x+y,-z
12 x-y,x,-z
13 1/3-x,-1/3-y,-1/3-z
14 1/3+y,-1/3-x+y,-1/3-z
15 1/3+x-y,-1/3+x,-1/3-z
16 -1/3-x,1/3-y,1/3-z
17 1/3-y,-1/3+x-y,-1/3+z
18 1/3-x+y,-1/3-x,-1/3+z
_cell_length_a 11.3398(6)
_cell_length_b 11.3398(6)
_cell_length_c 17.3584(11)
_cell_angle_alpha 90
_cell_angle_beta 90
_cell_angle_gamma 120
_cell_formula_units_Z 3
loop_
_atom_type_symbol
_atom_type_radius_bond
C 0.68
H 0.23
F 0.64
Fe 1.34
N 0.68
Sb 1.46
loop_
_atom_site_label
_atom_site_type_symbol
_atom_site_fract_x
_atom_site_fract_y
_atom_site_fract_z
Fe1 Fe 0.66670 0.33330 0.33330
N1 N 0.6659(2) 0.4906(2) 0.40253(12)
C1 C 0.6658(2) 0.5774(2) 0.43437(14)
C2 C 0.6651(3) 0.6881(3) 0.4763(2)
H1 H 0.67230 0.67600 0.53160
H2 H 0.58000 0.68780 0.46570
H3 H 0.74250 0.77510 0.45970
Sb1 Sb 0.66670 0.33330 0.661838(14)
F1 F 0.6682(3) 0.1981(3) 0.7195(2)
F2 F 0.5350(3) 0.1968(3) 0.60083(19)
N1A N 0.5094(2) 0.1753(2) 0.40253(12)
C1A C 0.4226(2) 0.0884(2) 0.43437(14)
C2A C 0.3119(3) -0.0230(3) 0.4763(2)
H1A H 0.32400 -0.00370 0.53160
H2A H 0.31220 -0.10780 0.46570
H3A H 0.22490 -0.03260 0.45970
N1B N 0.8247(2) 0.3341(2) 0.40253(12)
C1B C 0.9116(2) 0.3342(2) 0.43437(14)
C2B C 1.0230(3) 0.3349(3) 0.4763(2)
H1B H 1.00370 0.32770 0.53160
H2B H 1.10780 0.42000 0.46570
H3B H 1.03260 0.25750 0.45970
N1L N 0.667433(200) 0.176067(200) 0.264137(120)
C1L C 0.667533(200) 0.089267(200) 0.232297(140)
C2L C 0.668233(300) -0.021433(300) 0.190367(200)
H1L H 0.66103 -0.00933 0.13507
H2L H 0.75333 -0.02113 0.20097
H3L H 0.59083 -0.10843 0.20697
N1M N 0.823933(200) 0.491367(200) 0.264137(120)
C1M C 0.910733(200) 0.578267(200) 0.232297(140)
C2M C 1.021433(300) 0.689667(300) 0.190367(200)
H1M H 1.00933 0.67037 0.13507
H2M H 1.02113 0.77447 0.20097
H3M H 1.10843 0.69927 0.20697
N1N N 0.508633(200) 0.332567(200) 0.264137(120)
C1N C 0.421733(200) 0.332467(200) 0.232297(140)
C2N C 0.310333(300) 0.331767(300) 0.190367(200)
H1N H 0.32963 0.33897 0.13507
H2N H 0.22553 0.24667 0.20097
H3N H 0.30073 0.40917 0.20697
F1A F 0.8019(3) 0.4701(3) 0.7195(2)
F1B F 0.5299(3) 0.3318(3) 0.7195(2)
F2A F 0.8032(3) 0.3382(3) 0.60083(19)
F2B F 0.6618(3) 0.4650(3) 0.60083(19)
#END
