
#######################################################################
#
#                 Cambridge Crystallographic Data Centre
#                                CCDC
#
#######################################################################
#
# If this CIF has been generated from an entry in the Cambridge
# Structural Database, then it will include bibliographic, chemical,
# crystal, experimental, refinement or atomic coordinate data resulting
# from the CCDC's data processing and validation procedures.
#
#######################################################################

data_CSD_CIF_ACEYOW01
_audit_creation_date 2004-09-28
_audit_creation_method CSD-ConQuest-V1
_database_code_CSD ACEYOW01
_database_code_depnum_ccdc_archive 'CCDC 235737'
_chemical_formula_sum 'C12 H18 F12 Fe1 N6 Sb2'
_chemical_formula_moiety
;
C12 H18 Fe1 N6 2+,2(F6 Sb1 1-)
;
_journal_coden_Cambridge 1078
_journal_year 2004
_journal_name_full 'CSD Communication(Private Communication) '
loop_
_publ_author_name
"M.Lutz"
"A.L.Spek"
"S.Gosiewska"
"R.J.M.Klein Gebbink"
"G.van Koten"
_chemical_name_systematic
;
hexakis(Acetonitrile)-iron(ii) bis(hexafluoro-antimonate)
;
_cell_volume   1932.452
_exptl_crystal_colour 'brown'
_exptl_crystal_density_diffrn 1.994
_exptl_special_details
;
contribution from Bijvoet Center for Biomolecular Research, Dept. Crystal and 
Structural Chemistry, Utrecht University, Padualaan 8, 3584 CH Utrecht, The 
Netherlands
;
_exptl_crystal_description 'triangular plate'
_diffrn_ambient_temperature 150
#These two values have been output from a single CSD field.
_refine_ls_R_factor_gt 0.023
_refine_ls_wR_factor_gt 0.023
_symmetry_cell_setting rhombohedral
_symmetry_space_group_name_H-M 'R -3'
_symmetry_Int_Tables_number 148
loop_
_symmetry_equiv_pos_site_id
_symmetry_equiv_pos_as_xyz
1 x,y,z
2 -y,x-y,z
3 -x+y,-x,z
4 -1/3+x,1/3+y,1/3+z
5 -1/3-y,1/3+x-y,1/3+z
6 -1/3-x+y,1/3-x,1/3+z
7 1/3+x,-1/3+y,-1/3+z
8 -1/3+y,1/3-x+y,1/3-z
9 -1/3+x-y,1/3+x,1/3-z
10 -x,-y,-z
11 y,-x+y,-z
12 x-y,x,-z
13 1/3-x,-1/3-y,-1/3-z
14 1/3+y,-1/3-x+y,-1/3-z
15 1/3+x-y,-1/3+x,-1/3-z
16 -1/3-x,1/3-y,1/3-z
17 1/3-y,-1/3+x-y,-1/3+z
18 1/3-x+y,-1/3-x,-1/3+z
_cell_length_a 11.3277(1)
_cell_length_b 11.3277(1)
_cell_length_c 17.3898(3)
_cell_angle_alpha 90
_cell_angle_beta 90
_cell_angle_gamma 120
_cell_formula_units_Z 3
loop_
_atom_type_symbol
_atom_type_radius_bond
C 0.68
H 0.23
F 0.64
Fe 1.34
N 0.68
Sb 1.46
loop_
_atom_site_label
_atom_site_type_symbol
_atom_site_fract_x
_atom_site_fract_y
_atom_site_fract_z
Fe1 Fe 0.66670 0.33330 0.33330
N1 N 0.6656(2) 0.4905(2) 0.40247(12)
C1 C 0.6656(3) 0.5778(3) 0.43426(14)
C2 C 0.6647(3) 0.6886(3) 0.4761(2)
H1 H 0.67080 0.67600 0.53140
H2 H 0.58000 0.68890 0.46510
H3 H 0.74270 0.77570 0.46000
Sb1 Sb 0.66670 0.33330 0.66163(2)
F1 F 0.6689(4) 0.1982(3) 0.71991(17)
F2 F 0.5347(3) 0.1960(3) 0.60036(17)
N1A N 0.5095(2) 0.1751(2) 0.40247(12)
C1A C 0.4222(3) 0.0878(3) 0.43426(14)
C2A C 0.3114(3) -0.0239(3) 0.4761(2)
H1A H 0.32400 -0.00520 0.53140
H2A H 0.31110 -0.10890 0.46510
H3A H 0.22430 -0.03300 0.46000
N1B N 0.8249(2) 0.3344(2) 0.40247(12)
C1B C 0.9122(3) 0.3344(3) 0.43426(14)
C2B C 1.0239(3) 0.3353(3) 0.4761(2)
H1B H 1.00520 0.32920 0.53140
H2B H 1.10890 0.42000 0.46510
H3B H 1.03300 0.25730 0.46000
N1L N 0.667733(200) 0.176167(200) 0.264197(120)
C1L C 0.667733(300) 0.088867(300) 0.232407(140)
C2L C 0.668633(300) -0.021933(300) 0.190567(200)
H1L H 0.66253 -0.00933 0.13527
H2L H 0.75333 -0.02223 0.20157
H3L H 0.59063 -0.10903 0.20667
N1M N 0.823833(200) 0.491567(200) 0.264197(120)
C1M C 0.911133(300) 0.578867(300) 0.232407(140)
C2M C 1.021933(300) 0.690567(300) 0.190567(200)
H1M H 1.00933 0.67187 0.13527
H2M H 1.02223 0.77557 0.20157
H3M H 1.10903 0.69967 0.20667
N1N N 0.508433(200) 0.332267(200) 0.264197(120)
C1N C 0.421133(300) 0.332267(300) 0.232407(140)
C2N C 0.309433(300) 0.331367(300) 0.190567(200)
H1N H 0.32813 0.33747 0.13527
H2N H 0.22443 0.24667 0.20157
H3N H 0.30033 0.40937 0.20667
F1A F 0.8018(4) 0.4707(3) 0.71991(17)
F1B F 0.5293(4) 0.3311(3) 0.71991(17)
F2A F 0.8040(3) 0.3387(3) 0.60036(17)
F2B F 0.6613(3) 0.4653(3) 0.60036(17)
#END
