
#######################################################################
#
#                 Cambridge Crystallographic Data Centre
#                                CCDC
#
#######################################################################
#
# If this CIF has been generated from an entry in the Cambridge
# Structural Database, then it will include bibliographic, chemical,
# crystal, experimental, refinement or atomic coordinate data resulting
# from the CCDC's data processing and validation procedures.
#
#######################################################################

data_CSD_CIF_ADEQOS
_audit_creation_date 2017-10-03
_audit_creation_method CSD-ConQuest-V1
_database_code_CSD ADEQOS
_database_code_depnum_ccdc_archive 'CCDC 1577785'
_chemical_formula_sum 'C12 H20 Co1 N2 O2'
_chemical_formula_moiety
;
C12 H20 Co1 N2 O2
;
_journal_coden_Cambridge 1078
_journal_year 2017
_journal_name_full 'CSD Communication(Private Communication) '
loop_
_publ_author_name
"D.Piryazev"
_chemical_name_systematic
;
bis[4-(methylimino)pent-2-en-2-olato]-cobalt(ii)
;
_cell_volume   1372.340
_exptl_crystal_density_diffrn 1.366
_diffrn_ambient_temperature 293
#These two values have been output from a single CSD field.
_refine_ls_R_factor_gt 0.025
_refine_ls_wR_factor_gt 0.025
_symmetry_cell_setting monoclinic
_symmetry_space_group_name_H-M 'C c'
_symmetry_Int_Tables_number 9
loop_
_symmetry_equiv_pos_site_id
_symmetry_equiv_pos_as_xyz
1 x,y,z
2 x,-y,1/2+z
3 1/2+x,1/2+y,z
4 1/2+x,1/2-y,1/2+z
_cell_length_a 13.7304(9)
_cell_length_b 5.5516(4)
_cell_length_c 18.4034(12)
_cell_angle_alpha 90
_cell_angle_beta 101.964(2)
_cell_angle_gamma 90
_cell_formula_units_Z 4
loop_
_atom_type_symbol
_atom_type_radius_bond
C 0.68
H 0.23
Co 1.26
N 0.68
O 0.68
loop_
_atom_site_label
_atom_site_type_symbol
_atom_site_fract_x
_atom_site_fract_y
_atom_site_fract_z
Co1 Co 0.36917(7) 0.43239(3) 0.40078(6)
O1 O 0.3642(2) 0.6200(6) 0.31159(17)
O2 O 0.37635(19) 0.6172(6) 0.48994(18)
C1 C 0.2086(3) 0.4495(7) 0.2484(2)
N1 N 0.2479(2) 0.2401(6) 0.36490(17)
C2 C 0.5295(3) 0.4547(5) 0.5555(2)
H1 H 0.57670 0.46970 0.59950
N2 N 0.4899(2) 0.2440(5) 0.43788(16)
C3 C 0.1900(2) 0.2768(6) 0.2972(2)
C4 C 0.2234(4) 0.0508(7) 0.4129(3)
H2 H 0.26760 0.06030 0.46060
H3 H 0.23040 -0.10350 0.39100
H4 H 0.15600 0.07080 0.41870
C5 C 0.4475(3) 0.6047(6) 0.5453(2)
C6 C 0.5134(4) 0.0464(7) 0.3901(3)
H5 H 0.52620 -0.09890 0.41870
H6 H 0.57120 0.08850 0.37110
H7 H 0.45800 0.02170 0.34940
C7 C 0.0984(3) 0.1169(7) 0.2728(3)
H8 H 0.06600 0.15770 0.22290
H9 H 0.05310 0.14150 0.30540
H10 H 0.11850 -0.04900 0.27460
C8 C 0.6381(3) 0.1179(8) 0.5273(2)
H11 H 0.67610 0.10980 0.48900
H12 H 0.61770 -0.04130 0.53800
H13 H 0.67830 0.18660 0.57130
C9 C 0.2891(3) 0.6084(7) 0.2532(2)
C10 C 0.5476(2) 0.2724(5) 0.5014(2)
C11 C 0.4414(3) 0.7740(7) 0.6078(2)
H14 H 0.42770 0.93390 0.58850
H15 H 0.50350 0.77310 0.64320
H16 H 0.38900 0.72330 0.63170
C12 C 0.2991(3) 0.7810(7) 0.1917(2)
H17 H 0.29310 0.94340 0.20810
H18 H 0.24760 0.74940 0.14880
H19 H 0.36300 0.75980 0.17910
#END
