
#######################################################################
#
#                 Cambridge Crystallographic Data Centre
#                                CCDC
#
#######################################################################
#
# If this CIF has been generated from an entry in the Cambridge
# Structural Database, then it will include bibliographic, chemical,
# crystal, experimental, refinement or atomic coordinate data resulting
# from the CCDC's data processing and validation procedures.
#
#######################################################################

data_CSD_CIF_ADITIT
_audit_creation_date 2017-10-03
_audit_creation_method CSD-ConQuest-V1
_database_code_CSD ADITIT
_database_code_depnum_ccdc_archive 'CCDC 1577872'
_chemical_formula_sum 'C24 H16 Co1 N10 Se2'
_chemical_formula_moiety
;
C24 H16 Co1 N10 Se2
;
_journal_coden_Cambridge 4
_journal_volume 139
_journal_year 2017
_journal_page_first 5768
_journal_name_full 'J.Am.Chem.Soc. '
loop_
_publ_author_name
"A.C.Aragones"
"D.Aravena"
"F.J.Valverde-Munoz"
"J.A.Real"
"F.Sanz"
"I.Diez-Perez"
"E.Ruiz"
_chemical_name_systematic
;
bis[3-(pyridin-2-yl)[1,2,3]triazolo[1,5-a]pyridine]-bis(selenocyanato)-cobalt(
ii)
;
_cell_volume    604.361
_exptl_crystal_colour 'yellow'
_exptl_crystal_density_diffrn 1.817
_exptl_crystal_description 'prismatic'
_diffrn_ambient_temperature 120
#These two values have been output from a single CSD field.
_refine_ls_R_factor_gt 0.0401
_refine_ls_wR_factor_gt 0.0401
_symmetry_cell_setting triclinic
_symmetry_space_group_name_H-M 'P -1'
_symmetry_Int_Tables_number 2
loop_
_symmetry_equiv_pos_site_id
_symmetry_equiv_pos_as_xyz
1 x,y,z
2 -x,-y,-z
_cell_length_a 8.0891(5)
_cell_length_b 8.6468(8)
_cell_length_c 9.3489(6)
_cell_angle_alpha 81.292(7)
_cell_angle_beta 72.583(6)
_cell_angle_gamma 76.509(7)
_cell_formula_units_Z 1
loop_
_atom_type_symbol
_atom_type_radius_bond
C 0.68
H 0.23
Co 1.26
N 0.68
Se 1.22
loop_
_atom_site_label
_atom_site_type_symbol
_atom_site_fract_x
_atom_site_fract_y
_atom_site_fract_z
Co1 Co 0.00000 0.50000 0.00000
Se1 Se 0.02124(4) 0.20125(5) -0.42647(4)
N1 N 0.2428(3) 0.5447(3) -0.1555(3)
N2 N 0.1931(3) 0.3199(3) 0.0722(3)
N3 N 0.1846(3) 0.2069(3) 0.1838(3)
N4 N 0.3556(3) 0.1349(3) 0.1759(3)
N5 N -0.0088(3) 0.3538(3) -0.1562(3)
C1 C 0.2579(4) 0.6551(4) -0.2719(4)
H1 H 0.15560 0.72310 -0.28660
C2 C 0.4184(4) 0.6734(4) -0.3722(4)
H2 H 0.42370 0.75350 -0.45100
C3 C 0.5714(4) 0.5704(4) -0.3532(4)
H3 H 0.68100 0.58000 -0.41910
C4 C 0.5576(4) 0.4530(4) -0.2340(4)
H4 H 0.65790 0.38160 -0.21940
C5 C 0.3918(4) 0.4431(4) -0.1364(4)
C6 C 0.3610(4) 0.3233(4) -0.0082(4)
C7 C 0.4720(4) 0.2026(4) 0.0559(4)
C8 C 0.6547(4) 0.1392(4) 0.0331(4)
H5 H 0.73780 0.18130 -0.04590
C9 C 0.7068(4) 0.0148(4) 0.1294(4)
H6 H 0.82660 -0.02780 0.11570
C10 C 0.5814(4) -0.0502(4) 0.2497(4)
H7 H 0.62000 -0.13480 0.31380
C11 C 0.4058(4) 0.0093(4) 0.2729(4)
H8 H 0.32260 -0.03340 0.35130
C12 C 0.0047(4) 0.2953(4) -0.2632(4)
Se1A Se -0.02124(4) 0.79875(5) 0.42647(4)
N1A N -0.2428(3) 0.4553(3) 0.1555(3)
N2A N -0.1931(3) 0.6801(3) -0.0722(3)
N3A N -0.1846(3) 0.7931(3) -0.1838(3)
N4A N -0.3556(3) 0.8651(3) -0.1759(3)
N5A N 0.0088(3) 0.6462(3) 0.1562(3)
C1A C -0.2579(4) 0.3449(4) 0.2719(4)
H1A H -0.15560 0.27690 0.28660
C2A C -0.4184(4) 0.3266(4) 0.3722(4)
H2A H -0.42370 0.24650 0.45100
C3A C -0.5714(4) 0.4296(4) 0.3532(4)
H3A H -0.68100 0.42000 0.41910
C4A C -0.5576(4) 0.5470(4) 0.2340(4)
H4A H -0.65790 0.61840 0.21940
C5A C -0.3918(4) 0.5569(4) 0.1364(4)
C6A C -0.3610(4) 0.6767(4) 0.0082(4)
C7A C -0.4720(4) 0.7974(4) -0.0559(4)
C8A C -0.6547(4) 0.8608(4) -0.0331(4)
H5A H -0.73780 0.81870 0.04590
C9A C -0.7068(4) 0.9852(4) -0.1294(4)
H6A H -0.82660 1.02780 -0.11570
C10A C -0.5814(4) 1.0502(4) -0.2497(4)
H7A H -0.62000 1.13480 -0.31380
C11A C -0.4058(4) 0.9907(4) -0.2729(4)
H8A H -0.32260 1.03340 -0.35130
C12A C -0.0047(4) 0.7047(4) 0.2632(4)
#END
