
#######################################################################
#
#                 Cambridge Crystallographic Data Centre
#                                CCDC
#
#######################################################################
#
# If this CIF has been generated from an entry in the Cambridge
# Structural Database, then it will include bibliographic, chemical,
# crystal, experimental, refinement or atomic coordinate data resulting
# from the CCDC's data processing and validation procedures.
#
#######################################################################

data_CSD_CIF_ALETAN
_audit_creation_date 2011-03-21
_audit_creation_method CSD-ConQuest-V1
_database_code_CSD ALETAN
_database_code_depnum_ccdc_archive 'CCDC 770491'
_chemical_formula_sum 'C26 H50 Cr1 N4'
_chemical_formula_moiety
;
C26 H50 Cr1 N4
;
_journal_coden_Cambridge 155
_journal_volume 365
_journal_year 2011
_journal_page_first 49
_journal_name_full 'Inorg.Chim.Acta '
loop_
_publ_author_name
"S.Latreche"
"F.Schaper"
_chemical_name_systematic
;
bis(N,N'-bis(2-methylpropyl)pentane-2,4-diiminato)-chromium(ii)
;
_cell_volume    710.576
_exptl_crystal_colour 'red'
_exptl_crystal_density_diffrn 1.1
_exptl_crystal_description 'cube'
_diffrn_ambient_temperature 150
#These two values have been output from a single CSD field.
_refine_ls_R_factor_gt 0.0346
_refine_ls_wR_factor_gt 0.0346
_symmetry_cell_setting triclinic
_symmetry_space_group_name_H-M 'P -1'
_symmetry_Int_Tables_number 2
loop_
_symmetry_equiv_pos_site_id
_symmetry_equiv_pos_as_xyz
1 x,y,z
2 -x,-y,-z
_cell_length_a 7.8129(5)
_cell_length_b 9.6859(6)
_cell_length_c 10.7842(6)
_cell_angle_alpha 108.941(3)
_cell_angle_beta 111.229(3)
_cell_angle_gamma 91.208(4)
_cell_formula_units_Z 1
loop_
_atom_type_symbol
_atom_type_radius_bond
C 0.68
H 0.23
Cr 1.39
N 0.68
loop_
_atom_site_label
_atom_site_type_symbol
_atom_site_fract_x
_atom_site_fract_y
_atom_site_fract_z
Cr1 Cr 0.50000 0.00000 0.50000
N1 N 0.45533(19) 0.14972(14) 0.39830(14)
N2 N 0.60646(19) 0.17887(14) 0.68863(14)
C1 C 0.2770(3) 0.3488(2) 0.3519(2)
H1 H 0.18760 0.27990 0.26040
H2 H 0.36870 0.40350 0.33560
H3 H 0.21130 0.41840 0.39930
C2 C 0.3747(2) 0.26370(17) 0.44484(17)
C3 C 0.3810(2) 0.31569(18) 0.58472(18)
H4 H 0.28930 0.37340 0.60120
C4 C 0.5108(2) 0.28999(17) 0.70238(17)
C5 C 0.5405(3) 0.4025(2) 0.84647(19)
H5 H 0.54140 0.35140 0.91160
H6 H 0.43960 0.46180 0.83660
H7 H 0.65970 0.46730 0.88460
C6 C 0.4922(2) 0.13035(19) 0.27016(17)
H8 H 0.38830 0.15870 0.20230
H9 H 0.49620 0.02450 0.22420
C7 C 0.6737(3) 0.2214(2) 0.3005(2)
H10 H 0.67500 0.32650 0.35680
C8 C 0.6853(3) 0.2149(3) 0.1601(2)
H11 H 0.57740 0.25080 0.10600
H12 H 0.68640 0.11260 0.10440
H13 H 0.79960 0.27710 0.18010
C9 C 0.8398(3) 0.1662(3) 0.3869(2)
H14 H 0.95490 0.22610 0.40500
H15 H 0.83920 0.06270 0.33360
H16 H 0.83230 0.17440 0.47770
C10 C 0.7752(2) 0.18073(19) 0.80762(18)
H17 H 0.77060 0.08370 0.81940
H18 H 0.77850 0.25680 0.89610
C11 C 0.9526(3) 0.2128(2) 0.78700(19)
H19 H 0.94510 0.13730 0.69550
C12 C 1.1195(3) 0.1964(3) 0.9077(2)
H20 H 1.10210 0.09710 0.91060
H21 H 1.13060 0.27030 0.99850
H22 H 1.23290 0.21110 0.89140
C13 C 0.9752(3) 0.3648(2) 0.7773(2)
H23 H 0.86660 0.37220 0.69910
H24 H 1.08760 0.37940 0.75960
H25 H 0.98610 0.44080 0.86700
N1A N 0.54467(19) -0.14972(14) 0.60170(14)
N2A N 0.39354(19) -0.17887(14) 0.31137(14)
C1A C 0.7230(3) -0.3488(2) 0.6481(2)
H1A H 0.81240 -0.27990 0.73960
H2A H 0.63130 -0.40350 0.66440
H3A H 0.78870 -0.41840 0.60070
C2A C 0.6253(2) -0.26370(17) 0.55516(17)
C3A C 0.6190(2) -0.31569(18) 0.41528(18)
H4A H 0.71070 -0.37340 0.39880
C4A C 0.4892(2) -0.28999(17) 0.29762(17)
C5A C 0.4595(3) -0.4025(2) 0.15353(19)
H5A H 0.45860 -0.35140 0.08840
H6A H 0.56040 -0.46180 0.16340
H7A H 0.34030 -0.46730 0.11540
C6A C 0.5078(2) -0.13035(19) 0.72984(17)
H8A H 0.61170 -0.15870 0.79770
H9A H 0.50380 -0.02450 0.77580
C7A C 0.3263(3) -0.2214(2) 0.6995(2)
H10A H 0.32500 -0.32650 0.64320
C8A C 0.3147(3) -0.2149(3) 0.8399(2)
H11A H 0.42260 -0.25080 0.89400
H12A H 0.31360 -0.11260 0.89560
H13A H 0.20040 -0.27710 0.81990
C9A C 0.1602(3) -0.1662(3) 0.6131(2)
H14A H 0.04510 -0.22610 0.59500
H15A H 0.16080 -0.06270 0.66640
H16A H 0.16770 -0.17440 0.52230
C10A C 0.2248(2) -0.18073(19) 0.19238(18)
H17A H 0.22940 -0.08370 0.18060
H18A H 0.22150 -0.25680 0.10390
C11A C 0.0474(3) -0.2128(2) 0.21300(19)
H19A H 0.05490 -0.13730 0.30450
C12A C -0.1195(3) -0.1964(3) 0.0923(2)
H20A H -0.10210 -0.09710 0.08940
H21A H -0.13060 -0.27030 0.00150
H22A H -0.23290 -0.21110 0.10860
C13A C 0.0248(3) -0.3648(2) 0.2227(2)
H23A H 0.13340 -0.37220 0.30090
H24A H -0.08760 -0.37940 0.24040
H25A H 0.01390 -0.44080 0.13300
#END
