
#######################################################################
#
#                 Cambridge Crystallographic Data Centre
#                                CCDC
#
#######################################################################
#
# If this CIF has been generated from an entry in the Cambridge
# Structural Database, then it will include bibliographic, chemical,
# crystal, experimental, refinement or atomic coordinate data resulting
# from the CCDC's data processing and validation procedures.
#
#######################################################################

data_CSD_CIF_ALUVIN
_audit_creation_date 2011-05-25
_audit_creation_method CSD-ConQuest-V1
_database_code_CSD ALUVIN
_database_code_depnum_ccdc_archive 'CCDC 155135'
_chemical_formula_sum 'C12 H4 Cl8 Cr1 N2'
_chemical_formula_moiety
;
C12 H4 Cl8 Cr1 N2
;
_journal_coden_Cambridge 222
_journal_volume 40
_journal_year 2011
_journal_page_first 1990
_journal_name_full 'Dalton Trans. '
loop_
_publ_author_name
"K.A.Rufanov"
"J.Kipke"
"J.Sundermeyer"
_chemical_name_systematic
;
Dichloro-bis((2,4,6-trichlorophenyl)imino)-chromium(vi)
;
_cell_volume   1771.001
_exptl_crystal_colour 'dark red'
_exptl_crystal_density_diffrn 1.919
_exptl_crystal_description 'parallelepiped'
_diffrn_ambient_temperature 198
#These two values have been output from a single CSD field.
_refine_ls_R_factor_gt 0.0258
_refine_ls_wR_factor_gt 0.0258
_symmetry_cell_setting monoclinic
_symmetry_space_group_name_H-M 'C 2/c'
_symmetry_Int_Tables_number 15
loop_
_symmetry_equiv_pos_site_id
_symmetry_equiv_pos_as_xyz
1 x,y,z
2 -x,y,1/2-z
3 1/2+x,1/2+y,z
4 1/2-x,1/2+y,1/2-z
5 -x,-y,-z
6 x,-y,-1/2+z
7 -1/2-x,-1/2-y,-z
8 -1/2+x,-1/2-y,-1/2+z
_cell_length_a 14.2157(6)
_cell_length_b 8.5808(5)
_cell_length_c 14.6107(8)
_cell_angle_alpha 90
_cell_angle_beta 96.439(5)
_cell_angle_gamma 90
_cell_formula_units_Z 4
loop_
_atom_type_symbol
_atom_type_radius_bond
C 0.68
H 0.23
Cl 0.99
Cr 1.33
N 0.68
loop_
_atom_site_label
_atom_site_type_symbol
_atom_site_fract_x
_atom_site_fract_y
_atom_site_fract_z
Cr1 Cr 0.50000 0.19792(5) 0.25000
N1 N 0.48566(12) 0.3117(2) 0.33821(12)
Cl1 Cl 0.30198(4) 0.32999(7) 0.40836(4)
Cl2 Cl 0.38226(4) 0.93564(7) 0.45641(4)
Cl3 Cl 0.64036(4) 0.55119(7) 0.33600(4)
Cl4 Cl 0.63002(5) 0.06879(8) 0.28412(4)
C1 C 0.46707(15) 0.4560(2) 0.37196(13)
C2 C 0.37929(15) 0.4830(3) 0.40492(14)
C3 C 0.35328(15) 0.6300(3) 0.43132(14)
H1 H 0.29330 0.64740 0.45230
C4 C 0.41662(16) 0.7512(2) 0.42656(14)
C5 C 0.50530(15) 0.7297(3) 0.39780(14)
H2 H 0.54810 0.81450 0.39630
C6 C 0.52999(15) 0.5822(3) 0.37137(13)
N1A N 0.51434(12) 0.3117(2) 0.16179(12)
Cl1A Cl 0.69802(4) 0.32999(7) 0.09164(4)
Cl2A Cl 0.61774(4) 0.93564(7) 0.04359(4)
Cl3A Cl 0.35964(4) 0.55119(7) 0.16400(4)
Cl4A Cl 0.36998(5) 0.06879(8) 0.21588(4)
C1A C 0.53293(15) 0.4560(2) 0.12804(13)
C2A C 0.62071(15) 0.4830(3) 0.09508(14)
C3A C 0.64672(15) 0.6300(3) 0.06868(14)
H1A H 0.70670 0.64740 0.04770
C4A C 0.58338(16) 0.7512(2) 0.07344(14)
C5A C 0.49470(15) 0.7297(3) 0.10220(14)
H2A H 0.45190 0.81450 0.10370
C6A C 0.47001(15) 0.5822(3) 0.12863(13)
#END
