
#######################################################################
#
#                 Cambridge Crystallographic Data Centre
#                                CCDC
#
#######################################################################
#
# If this CIF has been generated from an entry in the Cambridge
# Structural Database, then it will include bibliographic, chemical,
# crystal, experimental, refinement or atomic coordinate data resulting
# from the CCDC's data processing and validation procedures.
#
#######################################################################

data_CSD_CIF_AMAVAN
_audit_creation_date 2016-05-18
_audit_creation_method CSD-ConQuest-V1
_database_code_CSD AMAVAN
_database_code_depnum_ccdc_archive 'CCDC 1420003'
_chemical_formula_sum 'C10 H26 Mn1 N4 O14 S2'
_chemical_formula_moiety
;
H12 Mn1 O6 2+,2(C5 H7 N2 1+),2(O4 S1 2-)
;
_journal_coden_Cambridge 119
_journal_volume 1120
_journal_year 2016
_journal_page_first 138
_journal_name_full 'J.Mol.Struct. '
loop_
_publ_author_name
"T.J.Bednarchuk"
"V.Kinzhybalo"
"O.Bednarchuk"
"A.Pietraszko"
_chemical_name_systematic
;
hexakis(aqua)-manganese(ii) bis(4-aminopyridinium) bis(sulfate)
;
_cell_volume    533.911
_exptl_crystal_colour 'colorless'
_exptl_crystal_density_diffrn 1.696
_exptl_crystal_description 'block'
_diffrn_ambient_temperature 297.1
#These two values have been output from a single CSD field.
_refine_ls_R_factor_gt 0.0231
_refine_ls_wR_factor_gt 0.0231
_symmetry_cell_setting triclinic
_symmetry_space_group_name_H-M 'P -1'
_symmetry_Int_Tables_number 2
loop_
_symmetry_equiv_pos_site_id
_symmetry_equiv_pos_as_xyz
1 x,y,z
2 -x,-y,-z
_cell_length_a 6.247(3)
_cell_length_b 7.066(3)
_cell_length_c 12.716(5)
_cell_angle_alpha 99.78(3)
_cell_angle_beta 99.61(3)
_cell_angle_gamma 99.78(3)
_cell_formula_units_Z 1
loop_
_atom_type_symbol
_atom_type_radius_bond
C 0.68
H 0.23
Mn 1.61
N 0.68
O 0.68
S 1.02
loop_
_atom_site_label
_atom_site_type_symbol
_atom_site_fract_x
_atom_site_fract_y
_atom_site_fract_z
Mn1 Mn 0.00000 0.00000 0.00000
O1 O -0.10906(16) -0.17151(15) 0.11396(9)
H1 H -0.245(3) -0.208(3) 0.1125(15)
H2 H -0.057(3) -0.267(2) 0.1214(16)
O2 O -0.16589(17) 0.22449(14) 0.06959(9)
H3 H -0.080(3) 0.329(2) 0.0939(16)
H4 H -0.260(3) 0.246(3) 0.0237(15)
O3 O 0.29677(16) 0.11869(15) 0.12778(9)
H5 H 0.377(3) 0.226(2) 0.1439(16)
H6 H 0.382(3) 0.045(3) 0.1348(17)
S1 S 0.37623(5) 0.64822(4) 0.19716(3)
O4 O 0.46358(16) 0.77867(15) 0.12720(9)
O5 O 0.3886(2) 0.76562(18) 0.30489(9)
O6 O 0.50819(17) 0.49570(14) 0.20454(10)
O7 O 0.14185(15) 0.55758(14) 0.14695(10)
N1 N 0.0617(2) 0.3576(2) 0.64318(10)
H7 H -0.05670 0.34070 0.67050
H8 H 0.18600 0.41970 0.68550
N2 N 0.0332(3) 0.1386(2) 0.32212(11)
H9 H 0.02860 0.09160 0.25310
C1 C -0.1524(3) 0.1149(2) 0.36177(14)
H10 H -0.28500 0.04690 0.31590
C2 C -0.1507(2) 0.1883(2) 0.46792(13)
H11 H -0.28180 0.17300 0.49410
C3 C 0.0516(2) 0.28816(18) 0.53849(11)
C4 C 0.2430(2) 0.3096(2) 0.49280(12)
H12 H 0.37930 0.37510 0.53600
C5 C 0.2277(3) 0.2345(3) 0.38576(13)
H13 H 0.35430 0.24980 0.35600
O1A O 0.10906(16) 0.17151(15) -0.11396(9)
H1A H 0.245(3) 0.208(3) -0.1125(15)
H2A H 0.057(3) 0.267(2) -0.1214(16)
O2A O 0.16589(17) -0.22449(14) -0.06959(9)
H3A H 0.080(3) -0.329(2) -0.0939(16)
H4A H 0.260(3) -0.246(3) -0.0237(15)
O3A O -0.29677(16) -0.11869(15) -0.12778(9)
H5A H -0.377(3) -0.226(2) -0.1439(16)
H6A H -0.382(3) -0.045(3) -0.1348(17)
#END
