
#######################################################################
#
#                 Cambridge Crystallographic Data Centre
#                                CCDC
#
#######################################################################
#
# If this CIF has been generated from an entry in the Cambridge
# Structural Database, then it will include bibliographic, chemical,
# crystal, experimental, refinement or atomic coordinate data resulting
# from the CCDC's data processing and validation procedures.
#
#######################################################################

data_CSD_CIF_AMECOA01
_audit_creation_date 2012-12-31
_audit_creation_method CSD-ConQuest-V1
_database_code_CSD AMECOA01
_database_code_depnum_ccdc_archive 'CCDC 866269'
_chemical_formula_sum 'C11 H29 Cl2 Co1 N4 O4'
_chemical_formula_moiety
;
C11 H25 Co1 N4 O2 2+,2(H2 O1),2(Cl1 1-)
;
_journal_coden_Cambridge 222
_journal_volume 41
_journal_year 2012
_journal_page_first 11293
_journal_name_full 'Dalton Trans. '
loop_
_publ_author_name
"P.D.Bonnitcha"
"B.J.Kim"
"R.K.Hocking"
"J.K.Clegg"
"P.Turner"
"S.M.Neville"
"T.W.Hambley"
_chemical_name_systematic
;
(4-oxopent-2-en-2-olato)-(N,N-bis(2-aminoethyl)ethane-1,2-diamine)-cobalt(iii)
 dichloride dihydrate
;
_cell_volume    444.520
_exptl_crystal_colour 'red'
_exptl_crystal_density_diffrn 1.521
_exptl_crystal_description 'plate'
_diffrn_ambient_temperature 150
#These two values have been output from a single CSD field.
_refine_ls_R_factor_gt 0.0557
_refine_ls_wR_factor_gt 0.0557
_symmetry_cell_setting triclinic
_symmetry_space_group_name_H-M 'P 1'
_symmetry_Int_Tables_number 1
loop_
_symmetry_equiv_pos_site_id
_symmetry_equiv_pos_as_xyz
1 x,y,z
_cell_length_a 7.779(3)
_cell_length_b 7.864(3)
_cell_length_c 8.045(3)
_cell_angle_alpha 100.627(6)
_cell_angle_beta 106.855(6)
_cell_angle_gamma 102.071(6)
_cell_formula_units_Z 1
loop_
_atom_type_symbol
_atom_type_radius_bond
C 0.68
H 0.23
Cl 0.99
Co 1.26
N 0.68
O 0.68
loop_
_atom_site_label
_atom_site_type_symbol
_atom_site_fract_x
_atom_site_fract_y
_atom_site_fract_z
Co1 Co 0.78996(8) 0.66743(9) 0.32979(9)
O1 O 0.8058(8) 0.4879(12) 0.1458(13)
O2 O 0.5240(7) 0.5987(9) 0.2518(10)
N1 N 0.7998(10) 0.8553(14) 0.5266(13)
N2 N 1.0608(9) 0.7441(12) 0.4142(13)
H1 H 1.10640 0.66930 0.47570
H2 H 1.10100 0.74050 0.31980
N3 N 0.7800(18) 0.5094(16) 0.4909(16)
H3 H 0.67670 0.41540 0.43840
H4 H 0.88020 0.46580 0.50950
N4 N 0.7706(17) 0.8402(16) 0.1803(17)
H5 H 0.86940 0.85910 0.14250
H6 H 0.66580 0.79500 0.08290
C1 C 0.7127(11) 0.2290(17) -0.0956(17)
H7 H 0.81880 0.29020 -0.12100
H8 H 0.60760 0.17910 -0.20530
H9 H 0.74170 0.13400 -0.04290
C2 C 0.6649(11) 0.3626(13) 0.0356(13)
C3 C 0.4826(12) 0.3415(14) 0.0244(14)
H10 H 0.39330 0.24000 -0.05810
C4 C 0.4206(11) 0.4626(12) 0.1288(12)
C5 C 0.215(1) 0.4256(15) 0.0961(16)
H11 H 0.18020 0.53600 0.09820
H12 H 0.18620 0.37570 0.18830
H13 H 0.14670 0.34140 -0.01930
C6 C 0.9991(11) 0.9578(16) 0.6404(16)
H14 H 1.03630 0.91470 0.74710
H15 H 1.00820 1.08480 0.67860
C7 C 1.1298(12) 0.9337(12) 0.5346(12)
H16 H 1.13210 1.01980 0.46240
H17 H 1.25580 0.95480 0.61660
C8 C 0.705(2) 0.7652(18) 0.6388(17)
H18 H 0.73280 0.84870 0.75440
H19 H 0.57060 0.72630 0.57830
C9 C 0.778(2) 0.606(2) 0.665(2)
H20 H 0.90280 0.64560 0.75310
H21 H 0.69750 0.52630 0.70800
C10 C 0.695(2) 0.975(2) 0.4417(19)
H22 H 0.71890 1.08760 0.52970
H23 H 0.56170 0.91680 0.39510
C11 C 0.766(2) 1.012(2) 0.2871(19)
H24 H 0.68280 1.06460 0.21110
H25 H 0.88980 1.09550 0.33620
Cl1 Cl 1.1651(5) 0.9144(4) 0.0996(4)
Cl2 Cl 1.1799(4) 0.4241(4) 0.5944(4)
O3 O 0.4389(15) 0.2407(14) 0.4288(16)
O4 O 0.4281(14) 0.7876(14) -0.1074(14)
#END
