
#######################################################################
#
#                 Cambridge Crystallographic Data Centre
#                                CCDC
#
#######################################################################
#
# If this CIF has been generated from an entry in the Cambridge
# Structural Database, then it will include bibliographic, chemical,
# crystal, experimental, refinement or atomic coordinate data resulting
# from the CCDC's data processing and validation procedures.
#
#######################################################################

data_CSD_CIF_AMIPAP
_audit_creation_date 2016-05-18
_audit_creation_method CSD-ConQuest-V1
_database_code_CSD AMIPAP
_database_code_depnum_ccdc_archive 'CCDC 1007519'
_chemical_formula_sum 'C12 H18 Mn1 O14 S2'
_chemical_formula_moiety
;
H12 Mn1 O6 2+,2(C6 H3 O4 S1 1-)
;
_journal_coden_Cambridge 1267
_journal_volume 231
_journal_year 2016
_journal_page_first 165
_journal_name_full 'Z.Kristallogr.-New Cryst.Struct. '
loop_
_publ_author_name
"Yan Zhao"
"Shi-Hui Li"
"Li Zhang"
_chemical_name_systematic
;
Hexa-aqua-manganese(ii) bis(3-carboxythiophene-2-carboxylate)
;
_cell_volume    493.020
_exptl_crystal_colour 'colorless'
_exptl_crystal_density_diffrn 1.702
_exptl_crystal_description 'block'
_diffrn_ambient_temperature 296
#These two values have been output from a single CSD field.
_refine_ls_R_factor_gt 0.0569
_refine_ls_wR_factor_gt 0.0569
_symmetry_cell_setting triclinic
_symmetry_space_group_name_H-M 'P -1'
_symmetry_Int_Tables_number 2
loop_
_symmetry_equiv_pos_site_id
_symmetry_equiv_pos_as_xyz
1 x,y,z
2 -x,-y,-z
_cell_length_a 6.5076(10)
_cell_length_b 8.4923(13)
_cell_length_c 9.8092(15)
_cell_angle_alpha 66.618(1)
_cell_angle_beta 86.903(2)
_cell_angle_gamma 82.235(2)
_cell_formula_units_Z 1
loop_
_atom_type_symbol
_atom_type_radius_bond
C 0.68
H 0.23
Mn 1.61
O 0.68
S 1.02
loop_
_atom_site_label
_atom_site_type_symbol
_atom_site_fract_x
_atom_site_fract_y
_atom_site_fract_z
Mn1 Mn 0.50000 0.50000 0.00000
O1 O 0.2876(5) 0.7516(4) -0.1000(3)
H1 H 0.21860 0.75020 -0.17060
H2 H 0.18490 0.74960 -0.04230
O2 O 0.2370(5) 0.3669(5) 0.0524(3)
H3 H 0.22070 0.32790 -0.01330
H4 H 0.14270 0.35290 0.11810
O3 O 0.4834(5) 0.5175(5) 0.2143(3)
H5 H 0.57100 0.58160 0.21770
H6 H 0.37290 0.49390 0.26470
O4 O 0.0157(5) 0.7050(5) 0.7085(3)
O5 O -0.1912(5) 0.6398(4) 0.5719(3)
O6 O -0.2154(5) 0.6664(4) 0.3165(3)
H7 H -0.21200 0.66370 0.40390
O7 O -0.0386(5) 0.7614(5) 0.1084(4)
S1 S 0.2979(2) 0.88225(17) 0.48070(14)
C1 C 0.3676(8) 0.9526(6) 0.3054(6)
H8 H 0.47960 1.01560 0.27180
C2 C 0.2509(5) 0.9139(4) 0.2066(3)
H9 H 0.27070 0.94380 0.10520
C3 C 0.0828(6) 0.8102(5) 0.3077(4)
C4 C 0.0962(6) 0.7892(5) 0.4547(4)
C5 C -0.0326(6) 0.7059(5) 0.5877(4)
C6 C -0.0646(7) 0.7438(6) 0.2373(5)
O1A O 0.7124(5) 0.2484(4) 0.1000(3)
H1A H 0.78140 0.24980 0.17060
H2A H 0.81510 0.25040 0.04230
O2A O 0.7630(5) 0.6331(5) -0.0524(3)
H3A H 0.77930 0.67210 0.01330
H4A H 0.85730 0.64710 -0.11810
O3A O 0.5166(5) 0.4825(5) -0.2143(3)
H5A H 0.42900 0.41840 -0.21770
H6A H 0.62710 0.50610 -0.26470
#END
