
#######################################################################
#
#                 Cambridge Crystallographic Data Centre
#                                CCDC
#
#######################################################################
#
# If this CIF has been generated from an entry in the Cambridge
# Structural Database, then it will include bibliographic, chemical,
# crystal, experimental, refinement or atomic coordinate data resulting
# from the CCDC's data processing and validation procedures.
#
#######################################################################

data_CSD_CIF_AMZDCO
_audit_creation_date 1973-08-20
_audit_creation_method CSD-ConQuest-V1
_database_code_CSD AMZDCO
_chemical_formula_sum 'C8 H22 Cl2 Co1 N5 O3'
_chemical_formula_moiety
;
C8 H22 Cl2 Co1 N4 1+,N1 O3 1-
;
_journal_coden_Cambridge 9
_journal_volume 12
_journal_year 1973
_journal_page_first 1151
_journal_name_full 'Inorg.Chem. '
loop_
_publ_author_name
"N.C.Payne"
_chemical_name_systematic
;
(-)~589~-trans-Dichloro-(1,5,8,12-tetra-azadodecane)-cobalt(iii) nitrate
;
_cell_volume    739.410
_exptl_crystal_density_diffrn 1.63
_exptl_special_details
;
Absolute configuration

;
_diffrn_ambient_temperature ?
_diffrn_special_details
;
The study was carried out at room temperature,in the range 283-303K

;
#These two values have been output from a single CSD field.
_refine_ls_R_factor_gt 0.026
_refine_ls_wR_factor_gt 0.026
_symmetry_cell_setting monoclinic
_symmetry_space_group_name_H-M 'P 21'
_symmetry_Int_Tables_number 4
loop_
_symmetry_equiv_pos_site_id
_symmetry_equiv_pos_as_xyz
1 x,y,z
2 -x,1/2+y,-z
_cell_length_a 13.18(2)
_cell_length_b 8.88(2)
_cell_length_c 6.40(1)
_cell_angle_alpha 90
_cell_angle_beta 99.2(1)
_cell_angle_gamma 90
_cell_formula_units_Z 2
loop_
_atom_type_symbol
_atom_type_radius_bond
C 0.68
H 0.20
Cl 0.99
Co 1.26
N 0.68
O 0.68
loop_
_atom_site_label
_atom_site_type_symbol
_atom_site_fract_x
_atom_site_fract_y
_atom_site_fract_z
Cl1 Cl 0.36812 0.27802 -0.21598
Cl2 Cl 0.14830 0.22194 0.25005
Co1 Co 0.25828 0.25000 0.01556
C1 C 0.46600 0.26120 0.29680
C2 C 0.46120 0.09330 0.33180
C3 C 0.41490 0.00610 0.13610
C4 C 0.26090 -0.05150 -0.11550
C5 C 0.15160 0.00120 -0.18560
C6 C 0.05030 0.23210 -0.25270
C7 C 0.05020 0.39920 -0.29970
C8 C 0.10010 0.49090 -0.11250
H1? H 0.32900 0.23920 -0.47250
H2 H 0.26110 -0.17210 -0.07040
H3 H 0.30650 -0.03820 -0.24050
H4 H 0.10420 -0.02210 -0.06250
H5 H 0.11730 -0.05270 -0.33160
H6 H 0.19180 0.18990 -0.34890
H7 H 0.01390 0.21290 -0.11700
H8 H 0.00580 0.17590 -0.39240
H9 H -0.02830 0.43850 -0.34500
H10 H 0.09310 0.42030 -0.43040
H11 H 0.06260 0.46330 0.02190
H12? H 0.37120 0.24620 -0.50600
H13 H 0.08920 0.61020 -0.15050
H14 H 0.23920 0.52750 0.07540
H15 H 0.24620 0.49400 -0.18550
H16 H 0.50710 0.31570 0.44180
H17 H 0.50670 0.28650 0.16670
H18 H 0.41500 0.07010 0.45490
H19 H 0.53960 0.05140 0.38440
H20 H 0.42540 -0.11500 0.16610
H21 H 0.45640 0.03650 0.00560
H22 H 0.26450 0.01480 0.19910
N1 N 0.36140 0.32860 0.25210
N2 N 0.30400 0.03970 0.07160
N3 N 0.15510 0.16790 -0.21650
N4 N 0.21140 0.45870 -0.05650
N5 N 0.25890 -0.29120 0.39710
O1 O 0.22630 -0.16160 0.38990
O2 O 0.31510 -0.33140 0.26680
O3 O 0.23950 -0.37570 0.52910
#END
