
#######################################################################
#
#                 Cambridge Crystallographic Data Centre
#                                CCDC
#
#######################################################################
#
# If this CIF has been generated from an entry in the Cambridge
# Structural Database, then it will include bibliographic, chemical,
# crystal, experimental, refinement or atomic coordinate data resulting
# from the CCDC's data processing and validation procedures.
#
#######################################################################

data_CSD_CIF_AMZOFE
_audit_creation_date 1976-08-18
_audit_creation_method CSD-ConQuest-V1
_database_code_CSD AMZOFE
_chemical_formula_sum 'C15 H27 Cl2 Fe1 N5 O6'
_chemical_formula_moiety
;
C15 H27 Fe1 N5 O2 2+,Cl1 1-,Cl1 O4 1-
;
_journal_coeditor_code "IUCr A13271"
_journal_coden_Cambridge 107
_journal_volume 32
_journal_year 1976
_journal_page_first 1029
_journal_name_full 'Acta Crystallogr.,Sect.B:Struct.Crystallogr.Cryst.Chem. '
loop_
_publ_author_name
"M.G.B.Drew"
"A.H.bin Othman"
"P.McIlroy"
"S.M.Nelson"
_chemical_name_systematic
;
Diaqua-(2,13-dimethyl-3,6,9,12,18-penta-azabicyclo(12.3.1)octadeca-1(18),2,12,
14,16-pentaene)-iron(ii) chloride perchlorate
;
_cell_volume   2186.806
_exptl_crystal_density_diffrn 1.52
_diffrn_ambient_temperature ?
_diffrn_special_details
;
The study was carried out at room temperature,in the range 283-303K

;
_refine_special_details
;
THE PERCHLORATE ANION IS DISORDERED.

;
#These two values have been output from a single CSD field.
_refine_ls_R_factor_gt 0.073
_refine_ls_wR_factor_gt 0.073
_symmetry_cell_setting monoclinic
_symmetry_space_group_name_H-M 'I 2/c'
_symmetry_Int_Tables_number 15
loop_
_symmetry_equiv_pos_site_id
_symmetry_equiv_pos_as_xyz
1 x,y,z
2 1/2+x,1/2+y,1/2+z
3 1/2-x,1/2+y,-z
4 -x,y,1/2-z
5 -x,-y,-z
6 -1/2-x,-1/2-y,-1/2-z
7 -1/2+x,-1/2-y,z
8 x,-y,-1/2+z
_cell_length_a 7.872(8)
_cell_length_b 27.761(15)
_cell_length_c 10.920(9)
_cell_angle_alpha 90
_cell_angle_beta 113.6(1)
_cell_angle_gamma 90
_cell_formula_units_Z 4
loop_
_atom_type_symbol
_atom_type_radius_bond
C 0.68
H 0.23
Cl 0.99
Fe 1.34
N 0.68
O 0.68
loop_
_atom_site_label
_atom_site_type_symbol
_atom_site_fract_x
_atom_site_fract_y
_atom_site_fract_z
Cl1 Cl 0.50000 0.04670 0.25000
C1 C -0.05230 0.00680 0.17630
C2 C -0.41250 0.21030 -0.07890
C3 C -0.13080 0.26920 0.14620
C4 C 0.00000 0.29370 0.25000
C5 C -0.25240 0.06060 -0.00610
C6 C -0.35460 0.10690 -0.02600
C7 C -0.25980 0.18800 0.04370
C8 C -0.12690 0.21880 0.14870
Fe1 Fe 0.00000 0.11500 0.25000
H1 H 0.29170 0.10000 0.15000
H2 H 0.08880 0.10140 0.04550
H3 H 0.03790 0.00510 0.12140
H4 H -0.14730 -0.02460 0.14130
H5 H -0.23970 0.28890 0.06360
H6 H 0.00000 0.33220 0.25000
H7 H -0.25470 0.04840 0.17490
H8 H -0.14390 0.06510 -0.03880
H9 H -0.33170 0.02930 -0.05070
H10 H -0.42260 0.11510 -0.12840
H11 H -0.47860 0.09940 0.00770
N1 N -0.16570 0.05060 0.13980
N2 N -0.23350 0.14360 0.06490
N3 N 0.00000 0.19500 0.25000
O1 O 0.16820 0.11530 0.12860
C1C C 0.05230 0.00680 0.32370
N1C N 0.16570 0.05060 0.36020
N2C N 0.23350 0.14360 0.43510
O1C O -0.16820 0.11530 0.37140
C3C C 0.13080 0.26920 0.35380
C8C C 0.12690 0.21880 0.35130
H3C H -0.03790 0.00510 0.37860
H4C H 0.14730 -0.02460 0.35870
C5C C 0.25240 0.06060 0.50610
H7C H 0.25470 0.04840 0.32510
C6C C 0.35460 0.10690 0.52600
C7C C 0.25980 0.18800 0.45630
H1C H -0.29170 0.10000 0.35000
H2C H -0.08880 0.10140 0.45450
H5C H 0.23970 0.28890 0.43640
H8C H 0.14390 0.06510 0.53880
H9C H 0.33170 0.02930 0.55070
H10C H 0.42260 0.11510 0.62840
H11C H 0.47860 0.09940 0.49230
C2C C 0.41250 0.21030 0.57890
#END
