
#######################################################################
#
#                 Cambridge Crystallographic Data Centre
#                                CCDC
#
#######################################################################
#
# If this CIF has been generated from an entry in the Cambridge
# Structural Database, then it will include bibliographic, chemical,
# crystal, experimental, refinement or atomic coordinate data resulting
# from the CCDC's data processing and validation procedures.
#
#######################################################################

data_CSD_CIF_APICCO02
_audit_creation_date 2006-06-20
_audit_creation_method CSD-ConQuest-V1
_database_code_CSD APICCO02
_database_code_depnum_ccdc_archive 'CCDC 286124'
_chemical_formula_sum 'C12 H16 Co1 N2 O8'
_chemical_formula_moiety
;
C12 H12 Co1 N2 O6,2(H2 O1)
;
_journal_coeditor_code "IUCr DN2006"
_journal_coden_Cambridge 1370
_journal_volume 62
_journal_year 2006
_journal_page_first m796
_journal_name_full 'Acta Crystallogr.,Sect.E:Struct.Rep.Online '
loop_
_publ_author_name
"Z.Heren"
"C.C.Ersanli"
"C.Keser"
"N.O.Iskeleli"
_chemical_name_systematic
;
trans-Diaqua-bis(picolinato-N,O)-cobalt(ii) dihydrate
;
_cell_volume    740.736
_exptl_crystal_colour 'orange'
_exptl_crystal_density_diffrn 1.682
_exptl_crystal_description 'plate'
_diffrn_ambient_temperature 296
#These two values have been output from a single CSD field.
_refine_ls_R_factor_gt 0.0239
_refine_ls_wR_factor_gt 0.0239
_symmetry_cell_setting monoclinic
_symmetry_space_group_name_H-M 'P 21/c'
_symmetry_Int_Tables_number 14
loop_
_symmetry_equiv_pos_site_id
_symmetry_equiv_pos_as_xyz
1 x,y,z
2 -x,1/2+y,1/2-z
3 -x,-y,-z
4 x,-1/2-y,-1/2+z
_cell_length_a 9.8093(9)
_cell_length_b 5.1846(3)
_cell_length_c 17.5233(16)
_cell_angle_alpha 90
_cell_angle_beta 123.780(6)
_cell_angle_gamma 90
_cell_formula_units_Z 2
loop_
_atom_type_symbol
_atom_type_radius_bond
C 0.68
H 0.23
Co 1.33
N 0.68
O 0.68
loop_
_atom_site_label
_atom_site_type_symbol
_atom_site_fract_x
_atom_site_fract_y
_atom_site_fract_z
Co1 Co 0.50000 0.50000 0.50000
O1 O 0.42241(14) 0.7409(2) 0.38364(8)
H1 H 0.473(2) 0.884(3) 0.3993(15)
H2 H 0.435(3) 0.663(4) 0.3457(12)
O2 O 0.43782(12) 0.7832(2) 0.55832(7)
C1 C 0.28721(18) 0.7910(3) 0.53122(10)
N1 N 0.24581(15) 0.4280(2) 0.43453(9)
O3 O 0.23001(15) 0.9384(3) 0.56192(9)
C2 C 0.17365(17) 0.6054(3) 0.45624(10)
C3 C 0.00540(19) 0.6215(4) 0.41267(12)
H3 H -0.04130 0.74680 0.42930
C4 C -0.0916(2) 0.4463(4) 0.34374(13)
H4 H -0.20520 0.45330 0.31250
C5 C -0.0181(2) 0.2613(4) 0.32182(12)
H5 H -0.08130 0.14070 0.27610
C6 C 0.15083(19) 0.2576(3) 0.36890(11)
H6 H 0.20030 0.13160 0.35430
O4 O 0.4257(2) 0.4866(3) 0.24435(9)
H7 H 0.461(3) 0.337(3) 0.2598(18)
H8 H 0.361(3) 0.498(5) 0.1870(7)
O1B O 0.57759(14) 0.2591(2) 0.61636(8)
H1B H 0.527(2) 0.116(3) 0.6007(15)
H2B H 0.565(3) 0.337(4) 0.6543(12)
O2B O 0.56218(12) 0.2168(2) 0.44168(7)
C1B C 0.71279(18) 0.2090(3) 0.46878(10)
N1B N 0.75419(15) 0.5720(2) 0.56547(9)
O3B O 0.76999(15) 0.0616(3) 0.43808(9)
C2B C 0.82635(17) 0.3946(3) 0.54376(10)
C3B C 0.99460(19) 0.3785(4) 0.58733(12)
H3B H 1.04130 0.25320 0.57070
C4B C 1.0916(2) 0.5537(4) 0.65626(13)
H4B H 1.20520 0.54670 0.68750
C5B C 1.0181(2) 0.7387(4) 0.67818(12)
H5B H 1.08130 0.85930 0.72390
C6B C 0.84917(19) 0.7424(3) 0.63110(11)
H6B H 0.79970 0.86840 0.64570
#END
