
#######################################################################
#
#                 Cambridge Crystallographic Data Centre
#                                CCDC
#
#######################################################################
#
# If this CIF has been generated from an entry in the Cambridge
# Structural Database, then it will include bibliographic, chemical,
# crystal, experimental, refinement or atomic coordinate data resulting
# from the CCDC's data processing and validation procedures.
#
#######################################################################

data_CSD_CIF_ARISAW
_audit_creation_date 2011-06-24
_audit_creation_method CSD-ConQuest-V1
_database_code_CSD ARISAW
_database_code_depnum_ccdc_archive 'CCDC 802930'
_chemical_formula_sum 'C13 H11 Fe1 N3 O2'
_chemical_formula_moiety
;
C13 H11 Fe1 N3 O2
;
_journal_coden_Cambridge 119
_journal_volume 990
_journal_year 2011
_journal_page_first 209
_journal_name_full 'J.Mol.Struct. '
loop_
_publ_author_name
"J.Lapic"
"A.Pezerovic"
"M.Cetina"
"S.Djakovic"
"V.Rapic"
_chemical_name_systematic
;
1'-Acetylferrocene-1-carboxazide
;
_chemical_melting_point 357.15
_cell_volume    603.709
_exptl_crystal_colour 'orange'
_exptl_crystal_density_diffrn 1.634
_exptl_special_details
;
Melting point range 357.15-359.15K

;
_exptl_crystal_description 'prism'
_exptl_crystal_preparation 'dichloromethane'
_diffrn_ambient_temperature 295
#These two values have been output from a single CSD field.
_refine_ls_R_factor_gt 0.03
_refine_ls_wR_factor_gt 0.03
_symmetry_cell_setting triclinic
_symmetry_space_group_name_H-M 'P -1'
_symmetry_Int_Tables_number 2
loop_
_symmetry_equiv_pos_site_id
_symmetry_equiv_pos_as_xyz
1 x,y,z
2 -x,-y,-z
_cell_length_a 5.8625(2)
_cell_length_b 6.8115(2)
_cell_length_c 15.8357(5)
_cell_angle_alpha 78.500(3)
_cell_angle_beta 79.997(2)
_cell_angle_gamma 79.894(2)
_cell_formula_units_Z 2
loop_
_atom_type_symbol
_atom_type_radius_bond
C 0.68
H 0.23
Fe 1.52
N 0.68
O 0.68
loop_
_atom_site_label
_atom_site_type_symbol
_atom_site_fract_x
_atom_site_fract_y
_atom_site_fract_z
Fe1 Fe 0.33616(4) 0.09206(3) 0.256321(15)
N1 N 0.7480(3) -0.2146(3) 0.11332(11)
N2 N 0.8540(3) -0.2271(3) 0.03852(12)
N3 N 0.9671(4) -0.2393(4) -0.02500(15)
O1 O 0.4001(3) -0.1868(2) 0.05803(9)
O2 O 0.6589(3) 0.2524(3) 0.41602(12)
C1 C 0.3863(3) -0.1684(2) 0.20707(12)
C2 C 0.4951(3) -0.2004(3) 0.28406(12)
H1 H 0.65350 -0.24170 0.28780
C3 C 0.3165(4) -0.1574(3) 0.35343(13)
H2 H 0.33770 -0.16670 0.41100
C4 C 0.1003(4) -0.0978(3) 0.32041(13)
H3 H -0.04400 -0.06050 0.35250
C5 C 0.1417(3) -0.1049(3) 0.23003(13)
H4 H 0.02980 -0.07370 0.19250
C6 C 0.4686(4) 0.3141(3) 0.16159(13)
H5 H 0.53860 0.30010 0.10530
C7 C 0.5855(3) 0.2793(3) 0.23552(13)
H6 H 0.74520 0.23910 0.23630
C8 C 0.4131(3) 0.3174(3) 0.30889(12)
C9 C 0.1903(3) 0.3745(3) 0.27862(14)
H7 H 0.04720 0.40640 0.31250
C10 C 0.2267(4) 0.3737(3) 0.18805(14)
H8 H 0.11140 0.40680 0.15190
C11 C 0.5001(3) -0.1888(3) 0.11872(12)
C12 C 0.4602(3) 0.2873(3) 0.39913(13)
C13 C 0.2557(4) 0.3037(5) 0.46965(16)
H9 H 0.28160 0.19740 0.51830
H10 H 0.11630 0.29170 0.44820
H11 H 0.23800 0.43260 0.48770
#END
