
#######################################################################
#
#                 Cambridge Crystallographic Data Centre
#                                CCDC
#
#######################################################################
#
# If this CIF has been generated from an entry in the Cambridge
# Structural Database, then it will include bibliographic, chemical,
# crystal, experimental, refinement or atomic coordinate data resulting
# from the CCDC's data processing and validation procedures.
#
#######################################################################

data_CSD_CIF_ASUCUM
_audit_creation_date 2004-06-10
_audit_creation_method CSD-ConQuest-V1
_database_code_CSD ASUCUM
_database_code_depnum_ccdc_archive 'CCDC 238659'
_chemical_formula_sum 'C11 H10 Cr1 O3'
_chemical_formula_moiety
;
C11 H10 Cr1 O3
;
_journal_coeditor_code "IUCr OM6224"
_journal_coden_Cambridge 1370
_journal_volume 60
_journal_year 2004
_journal_page_first m432
_journal_name_full 'Acta Crystallogr.,Sect.E:Struct.Rep.Online '
loop_
_publ_author_name
"M.Zeller"
"A.D.Hunter"
"C.Meta"
_chemical_name_systematic
;
Tricarbonyl-(\h^6^-1,3-dimethylbenzene)-chromium
;
_cell_volume    520.968
_exptl_crystal_colour 'yellow'
_exptl_crystal_density_diffrn 1.544
_exptl_crystal_description 'block'
_exptl_crystal_preparation 'hexane/methylene chloride'
_diffrn_ambient_temperature 100
#These two values have been output from a single CSD field.
_refine_ls_R_factor_gt 0.032
_refine_ls_wR_factor_gt 0.032
_symmetry_cell_setting monoclinic
_symmetry_space_group_name_H-M 'P 21/m'
_symmetry_Int_Tables_number 11
loop_
_symmetry_equiv_pos_site_id
_symmetry_equiv_pos_as_xyz
1 x,y,z
2 x,1/2-y,z
3 -x,-y,-z
4 -x,-1/2+y,-z
_cell_length_a 6.0907(5)
_cell_length_b 12.8263(10)
_cell_length_c 6.7722(6)
_cell_angle_alpha 90
_cell_angle_beta 100.029(1)
_cell_angle_gamma 90
_cell_formula_units_Z 2
loop_
_atom_type_symbol
_atom_type_radius_bond
C 0.68
H 0.23
Cr 1.35
O 0.68
loop_
_atom_site_label
_atom_site_type_symbol
_atom_site_fract_x
_atom_site_fract_y
_atom_site_fract_z
Cr1 Cr 0.07260(6) 0.75000 0.00637(6)
O1 O -0.2511(4) 0.75000 -0.3793(3)
O2 O 0.3510(3) 0.59120(13) -0.1576(2)
C1 C 0.2319(5) 0.5517(2) 0.3321(4)
H1 H 0.211(5) 0.529(2) 0.459(5)
H2 H 0.388(6) 0.565(3) 0.326(5)
C2 C -0.2237(4) 0.75000 0.1512(4)
H3 H -0.370(6) 0.75000 0.093(6)
C3 C -0.1144(3) 0.65476(16) 0.1960(3)
H4 H -0.190(4) 0.5921(19) 0.159(4)
H5 H 0.175(5) 0.497(2) 0.234(5)
C4 C 0.1122(3) 0.65386(17) 0.2853(3)
C5 C 0.2215(5) 0.75000 0.3308(4)
H6 H 0.365(6) 0.75000 0.387(6)
C6 C -0.1259(5) 0.75000 -0.2328(4)
C7 C 0.2407(3) 0.65171(16) -0.0952(3)
C3A C -0.1144(3) 0.84524(16) 0.1960(3)
H4A H -0.190(4) 0.9079(19) 0.159(4)
C4A C 0.1122(3) 0.84614(17) 0.2853(3)
C7A C 0.2407(3) 0.84829(16) -0.0952(3)
O2A O 0.3510(3) 0.90880(13) -0.1576(2)
C1A C 0.2319(5) 0.9483(2) 0.3321(4)
H1A H 0.211(5) 0.971(2) 0.459(5)
H2A H 0.388(6) 0.935(3) 0.326(5)
H5A H 0.175(5) 1.003(2) 0.234(5)
#END
