
#######################################################################
#
#                 Cambridge Crystallographic Data Centre
#                                CCDC
#
#######################################################################
#
# If this CIF has been generated from an entry in the Cambridge
# Structural Database, then it will include bibliographic, chemical,
# crystal, experimental, refinement or atomic coordinate data resulting
# from the CCDC's data processing and validation procedures.
#
#######################################################################

data_CSD_CIF_ATEVUS
_audit_creation_date 2016-08-24
_audit_creation_method CSD-ConQuest-V1
_database_code_CSD ATEVUS
_database_code_depnum_ccdc_archive 'CCDC 904986'
_chemical_formula_sum 'C12 H12 Co1 N10 O6'
_chemical_formula_moiety
;
C12 H12 Co1 N10 O6
;
_journal_coden_Cambridge 702
_journal_volume 32
_journal_year 2016
_journal_page_first 1275
_journal_name_full 'Wuji Huaxue Xuebao(Chin.)(Chin.J.Inorg.Chem.) '
loop_
_publ_author_name
"Fei-Jian Chen"
"Qing-Fang Lin"
"Tian-Yan Wang"
"Fu-Zhi Shen"
"Zheng-You Wei"
"Li-Li Liang"
_chemical_name_systematic
;
diaqua-bis(2,4-dioxo-6-(1H-pyrazol-1-yl)-3,4-dihydro-1,3,5-triazin-1(2H)-yl)-c
obalt(ii)
;
_cell_volume    405.715
_exptl_crystal_colour 'purple'
_exptl_crystal_density_diffrn 1.839
_exptl_crystal_description 'block'
_diffrn_ambient_temperature 293
#These two values have been output from a single CSD field.
_refine_ls_R_factor_gt 0.039
_refine_ls_wR_factor_gt 0.039
_symmetry_cell_setting triclinic
_symmetry_space_group_name_H-M 'P -1'
_symmetry_Int_Tables_number 2
loop_
_symmetry_equiv_pos_site_id
_symmetry_equiv_pos_as_xyz
1 x,y,z
2 -x,-y,-z
_cell_length_a 7.215(6)
_cell_length_b 7.389(6)
_cell_length_c 8.301(7)
_cell_angle_alpha 104.474(8)
_cell_angle_beta 97.988(9)
_cell_angle_gamma 104.253(8)
_cell_formula_units_Z 1
loop_
_atom_type_symbol
_atom_type_radius_bond
C 0.68
H 0.23
Co 1.26
N 0.68
O 0.68
loop_
_atom_site_label
_atom_site_type_symbol
_atom_site_fract_x
_atom_site_fract_y
_atom_site_fract_z
C1 C 0.1736(6) 0.6204(5) 0.2402(5)
C2 C 0.0556(5) 0.3177(5) 0.3129(5)
C3 C 0.2877(5) 0.5859(5) 0.4983(4)
C4 C 0.4311(6) 0.5987(5) 0.7932(5)
H1 H 0.36410 0.47490 0.79570
C5 C 0.5663(7) 0.7397(6) 0.9225(5)
H2 H 0.61050 0.73250 1.03070
C6 C 0.6257(6) 0.8989(5) 0.8589(5)
H3 H 0.71900 1.01650 0.92090
Co1 Co 0.50000 1.00000 0.50000
N1 N 0.2961(4) 0.7029(4) 0.3977(4)
N2 N 0.0555(5) 0.4302(4) 0.2022(4)
N3 N 0.1819(5) 0.4041(4) 0.4698(4)
N4 N 0.4119(4) 0.6722(4) 0.6597(4)
N5 N 0.5321(4) 0.8605(4) 0.6995(4)
O1 O 0.1665(6) 0.7074(4) 0.1328(4)
O2 O -0.0539(4) 0.1504(3) 0.2700(3)
O3 O 0.7177(4) 0.8989(4) 0.4007(3)
H4 H 0.768(6) 0.821(6) 0.439(6)
H5 H 0.805(5) 0.959(6) 0.358(6)
C1A C 0.8264(6) 1.3796(5) 0.7598(5)
C2A C 0.9444(5) 1.6823(5) 0.6871(5)
C3A C 0.7123(5) 1.4141(5) 0.5017(4)
C4A C 0.5689(6) 1.4013(5) 0.2068(5)
H1A H 0.63590 1.52510 0.20430
C5A C 0.4337(7) 1.2603(6) 0.0775(5)
H2A H 0.38950 1.26750 -0.03070
C6A C 0.3743(6) 1.1011(5) 0.1411(5)
H3A H 0.28100 0.98350 0.07910
N1A N 0.7039(4) 1.2971(4) 0.6023(4)
N2A N 0.9445(5) 1.5698(4) 0.7978(4)
N3A N 0.8181(5) 1.5959(4) 0.5302(4)
N4A N 0.5881(4) 1.3278(4) 0.3403(4)
N5A N 0.4679(4) 1.1395(4) 0.3005(4)
O1A O 0.8335(6) 1.2926(4) 0.8672(4)
O2A O 1.0539(4) 1.8496(3) 0.7300(3)
O3A O 0.2823(4) 1.1011(4) 0.5993(3)
H4A H 0.232(6) 1.179(6) 0.561(6)
H5A H 0.195(5) 1.041(6) 0.642(6)
#END
