
#######################################################################
#
#                 Cambridge Crystallographic Data Centre
#                                CCDC
#
#######################################################################
#
# If this CIF has been generated from an entry in the Cambridge
# Structural Database, then it will include bibliographic, chemical,
# crystal, experimental, refinement or atomic coordinate data resulting
# from the CCDC's data processing and validation procedures.
#
#######################################################################

data_CSD_CIF_ATEWAZ
_audit_creation_date 2016-08-24
_audit_creation_method CSD-ConQuest-V1
_database_code_CSD ATEWAZ
_database_code_depnum_ccdc_archive 'CCDC 904987'
_chemical_formula_sum 'C12 H12 Mn1 N10 O6'
_chemical_formula_moiety
;
C12 H12 Mn1 N10 O6
;
_journal_coden_Cambridge 702
_journal_volume 32
_journal_year 2016
_journal_page_first 1275
_journal_name_full 'Wuji Huaxue Xuebao(Chin.)(Chin.J.Inorg.Chem.) '
loop_
_publ_author_name
"Fei-Jian Chen"
"Qing-Fang Lin"
"Tian-Yan Wang"
"Fu-Zhi Shen"
"Zheng-You Wei"
"Li-Li Liang"
_chemical_name_systematic
;
diaqua-bis(2,4-dioxo-6-(1H-pyrazol-1-yl)-3,4-dihydro-1,3,5-triazin-1(2H)-yl)-m
anganese(ii)
;
_cell_volume    412.037
_exptl_crystal_colour 'colorless'
_exptl_crystal_density_diffrn 1.794
_exptl_crystal_description 'block'
_diffrn_ambient_temperature 293
#These two values have been output from a single CSD field.
_refine_ls_R_factor_gt 0.0369
_refine_ls_wR_factor_gt 0.0369
_symmetry_cell_setting triclinic
_symmetry_space_group_name_H-M 'P -1'
_symmetry_Int_Tables_number 2
loop_
_symmetry_equiv_pos_site_id
_symmetry_equiv_pos_as_xyz
1 x,y,z
2 -x,-y,-z
_cell_length_a 7.2428(10)
_cell_length_b 7.5182(10)
_cell_length_c 8.3076(11)
_cell_angle_alpha 105.172(1)
_cell_angle_beta 98.313(2)
_cell_angle_gamma 104.432(2)
_cell_formula_units_Z 1
loop_
_atom_type_symbol
_atom_type_radius_bond
C 0.68
H 0.23
Mn 1.61
N 0.68
O 0.68
loop_
_atom_site_label
_atom_site_type_symbol
_atom_site_fract_x
_atom_site_fract_y
_atom_site_fract_z
C1 C 0.1736(4) 0.6153(4) 0.2420(3)
C2 C 0.0548(4) 0.3170(4) 0.3097(3)
C3 C 0.2859(3) 0.5810(3) 0.5000(3)
C4 C 0.4292(4) 0.5965(4) 0.7958(3)
H1 H 0.36100 0.47450 0.79670
C5 C 0.5658(5) 0.7360(4) 0.9272(4)
H2 H 0.61000 0.72890 1.03540
C6 C 0.6261(4) 0.8923(4) 0.8663(3)
H3 H 0.72030 1.00840 0.93000
Mn1 Mn 0.50000 1.00000 0.50000
N1 N 0.2950(3) 0.6953(3) 0.4011(3)
N2 N 0.0559(3) 0.4272(3) 0.2004(3)
N3 N 0.1790(3) 0.4010(3) 0.4684(3)
N4 N 0.4111(3) 0.6684(3) 0.6635(3)
N5 N 0.5323(3) 0.8542(3) 0.7063(3)
O1 O 0.1699(4) 0.7045(3) 0.1389(3)
O2 O -0.0555(3) 0.1511(3) 0.2631(3)
O3 O 0.7313(3) 0.8964(3) 0.3961(3)
H4 H 0.786(5) 0.843(5) 0.458(4)
H5 H 0.815(5) 0.970(5) 0.366(5)
C1A C 0.8264(4) 1.3847(4) 0.7580(3)
C2A C 0.9452(4) 1.6830(4) 0.6903(3)
C3A C 0.7141(3) 1.4190(3) 0.5000(3)
C4A C 0.5708(4) 1.4035(4) 0.2042(3)
H1A H 0.63900 1.52550 0.20330
C5A C 0.4342(5) 1.2640(4) 0.0728(4)
H2A H 0.39000 1.27110 -0.03540
C6A C 0.3739(4) 1.1077(4) 0.1337(3)
H3A H 0.27970 0.99160 0.07000
N1A N 0.7050(3) 1.3047(3) 0.5989(3)
N2A N 0.9441(3) 1.5728(3) 0.7996(3)
N3A N 0.8210(3) 1.5990(3) 0.5316(3)
N4A N 0.5889(3) 1.3316(3) 0.3365(3)
N5A N 0.4677(3) 1.1458(3) 0.2937(3)
O1A O 0.8301(4) 1.2955(3) 0.8611(3)
O2A O 1.0555(3) 1.8489(3) 0.7369(3)
O3A O 0.2687(3) 1.1036(3) 0.6039(3)
H4A H 0.214(5) 1.157(5) 0.542(4)
H5A H 0.185(5) 1.030(5) 0.634(5)
#END
