
#######################################################################
#
#                 Cambridge Crystallographic Data Centre
#                                CCDC
#
#######################################################################
#
# If this CIF has been generated from an entry in the Cambridge
# Structural Database, then it will include bibliographic, chemical,
# crystal, experimental, refinement or atomic coordinate data resulting
# from the CCDC's data processing and validation procedures.
#
#######################################################################

data_CSD_CIF_ATOTEK
_audit_creation_date 2016-08-25
_audit_creation_method CSD-ConQuest-V1
_database_code_CSD ATOTEK
_database_code_depnum_ccdc_archive 'CCDC 1019357'
_chemical_formula_sum 'C24 H34 Co1 N8 O6'
_chemical_formula_moiety
;
C24 H30 Co1 N8 O4,2(H2 O1)
;
_journal_coden_Cambridge 1206
_journal_volume 62
_journal_year 2015
_journal_page_first 272
_journal_name_full 'Acta Chim.Slov. '
loop_
_publ_author_name
"M.Pockaj"
"B.Kozlevcar"
"N.Kitanovski"
_chemical_name_systematic
;
bis(bis(3,5-dimethyl-1H-pyrazol-1-yl)acetato)-cobalt(ii) dihydrate
;
_cell_volume    694.475
_exptl_crystal_colour 'orange'
_exptl_crystal_density_diffrn 1.41
_exptl_crystal_description 'prism'
_diffrn_ambient_temperature 293
#These two values have been output from a single CSD field.
_refine_ls_R_factor_gt 0.0426
_refine_ls_wR_factor_gt 0.0426
_symmetry_cell_setting triclinic
_symmetry_space_group_name_H-M 'P -1'
_symmetry_Int_Tables_number 2
loop_
_symmetry_equiv_pos_site_id
_symmetry_equiv_pos_as_xyz
1 x,y,z
2 -x,-y,-z
_cell_length_a 7.7536(7)
_cell_length_b 8.6915(7)
_cell_length_c 11.1778(8)
_cell_angle_alpha 67.681(7)
_cell_angle_beta 85.554(6)
_cell_angle_gamma 86.834(7)
_cell_formula_units_Z 1
loop_
_atom_type_symbol
_atom_type_radius_bond
C 0.68
H 0.23
Co 1.26
N 0.68
O 0.68
loop_
_atom_site_label
_atom_site_type_symbol
_atom_site_fract_x
_atom_site_fract_y
_atom_site_fract_z
Co1 Co 0.00000 0.00000 1.00000
O1 O -0.0933(2) 0.2295(2) 0.87432(15)
O2 O -0.0536(2) 0.4476(2) 0.68967(16)
N1 N 0.1156(2) -0.0312(2) 0.83058(16)
N2 N 0.1877(2) 0.1069(2) 0.73695(16)
N3 N 0.2297(2) 0.1263(2) 0.99044(16)
N4 N 0.2818(2) 0.2402(2) 0.87111(16)
C1 C 0.1849(3) 0.2599(3) 0.76040(19)
H1 H 0.24060 0.34510 0.68410
C2 C -0.0048(3) 0.3189(3) 0.7761(2)
C3 C 0.0699(4) -0.3203(3) 0.8578(3)
H2 H 0.03270 -0.32890 0.94400
H3 H 0.16240 -0.39980 0.86170
H4 H -0.02520 -0.34220 0.81710
C4 C 0.1317(3) -0.1494(3) 0.7813(2)
C5 C 0.2109(3) -0.0858(3) 0.6562(2)
H5 H 0.23560 -0.14320 0.60140
C6 C 0.2449(3) 0.0769(3) 0.6300(2)
C7 C 0.3288(4) 0.2063(4) 0.5123(2)
H6 H 0.24700 0.29580 0.47480
H7 H 0.36630 0.15780 0.45030
H8 H 0.42670 0.24840 0.53650
C8 C 0.3338(4) 0.0219(4) 1.2103(2)
H9 H 0.24710 0.06650 1.25530
H10 H 0.44360 0.01630 1.24620
H11 H 0.30290 -0.08770 1.21970
C9 C 0.3458(3) 0.1321(3) 1.0695(2)
C10 C 0.4696(3) 0.2497(3) 1.0023(3)
H12 H 0.56340 0.27700 1.03670
C11 C 0.4266(3) 0.3168(3) 0.8766(2)
C12 C 0.5110(4) 0.4495(4) 0.7612(3)
H13 H 0.53690 0.40800 0.69340
H14 H 0.61620 0.48060 0.78510
H15 H 0.43400 0.54490 0.73130
O3 O 0.2085(4) 0.6337(3) 0.5083(3)
H16 H 0.113(6) 0.610(6) 0.554(5)
H17 H 0.195(5) 0.621(5) 0.443(4)
O1A O 0.0933(2) -0.2295(2) 1.12568(15)
O2A O 0.0536(2) -0.4476(2) 1.31033(16)
N1A N -0.1156(2) 0.0312(2) 1.16942(16)
N2A N -0.1877(2) -0.1069(2) 1.26305(16)
N3A N -0.2297(2) -0.1263(2) 1.00956(16)
N4A N -0.2818(2) -0.2402(2) 1.12889(16)
C1A C -0.1849(3) -0.2599(3) 1.23960(19)
H1A H -0.24060 -0.34510 1.31590
C2A C 0.0048(3) -0.3189(3) 1.2239(2)
C3A C -0.0699(4) 0.3203(3) 1.1422(3)
H2A H -0.03270 0.32890 1.05600
H3A H -0.16240 0.39980 1.13830
H4A H 0.02520 0.34220 1.18290
C4A C -0.1317(3) 0.1494(3) 1.2187(2)
C5A C -0.2109(3) 0.0858(3) 1.3438(2)
H5A H -0.23560 0.14320 1.39860
C6A C -0.2449(3) -0.0769(3) 1.3700(2)
C7A C -0.3288(4) -0.2063(4) 1.4877(2)
H6A H -0.24700 -0.29580 1.52520
H7A H -0.36630 -0.15780 1.54970
H8A H -0.42670 -0.24840 1.46350
C8A C -0.3338(4) -0.0219(4) 0.7897(2)
H9A H -0.24710 -0.06650 0.74470
H10A H -0.44360 -0.01630 0.75380
H11A H -0.30290 0.08770 0.78030
C9A C -0.3458(3) -0.1321(3) 0.9305(2)
C10A C -0.4696(3) -0.2497(3) 0.9977(3)
H12A H -0.56340 -0.27700 0.96330
C11A C -0.4266(3) -0.3168(3) 1.1234(2)
C12A C -0.5110(4) -0.4495(4) 1.2388(3)
H13A H -0.53690 -0.40800 1.30660
H14A H -0.61620 -0.48060 1.21490
H15A H -0.43400 -0.54490 1.26870
#END
