
#######################################################################
#
#                 Cambridge Crystallographic Data Centre
#                                CCDC
#
#######################################################################
#
# If this CIF has been generated from an entry in the Cambridge
# Structural Database, then it will include bibliographic, chemical,
# crystal, experimental, refinement or atomic coordinate data resulting
# from the CCDC's data processing and validation procedures.
#
#######################################################################

data_CSD_CIF_ATUNAE
_audit_creation_date 2004-07-02
_audit_creation_method CSD-ConQuest-V1
_database_code_CSD ATUNAE
_database_code_depnum_ccdc_archive 'CCDC 239034'
_chemical_formula_sum 'C10 H20 Mn1 O12'
_chemical_formula_moiety
;
C10 H8 O6 2-,H12 Mn1 O6 2+
;
_journal_coeditor_code "IUCr CI6356"
_journal_coden_Cambridge 1370
_journal_volume 60
_journal_year 2004
_journal_page_first m517
_journal_name_full 'Acta Crystallogr.,Sect.E:Struct.Rep.Online '
loop_
_publ_author_name
"Ji-Wei Liu"
"Shan Gao"
"Li-Hua Huo"
"Hui Zhao"
"S.W.Ng"
_chemical_name_systematic
;
Hexa-aqua-manganese(ii) benzene-1,4-dioxyacetate
;
_cell_volume    386.446
_exptl_crystal_colour 'colorless'
_exptl_crystal_density_diffrn 1.664
_exptl_crystal_description 'plate'
_diffrn_ambient_temperature 293
#These two values have been output from a single CSD field.
_refine_ls_R_factor_gt 0.05
_refine_ls_wR_factor_gt 0.05
_symmetry_cell_setting triclinic
_symmetry_space_group_name_H-M 'P -1'
_symmetry_Int_Tables_number 2
loop_
_symmetry_equiv_pos_site_id
_symmetry_equiv_pos_as_xyz
1 x,y,z
2 -x,-y,-z
_cell_length_a 5.6556(6)
_cell_length_b 6.3747(7)
_cell_length_c 11.637(2)
_cell_angle_alpha 101.809(6)
_cell_angle_beta 96.159(8)
_cell_angle_gamma 106.986(5)
_cell_formula_units_Z 1
loop_
_atom_type_symbol
_atom_type_radius_bond
C 0.68
H 0.23
Mn 1.35
O 0.68
loop_
_atom_site_label
_atom_site_type_symbol
_atom_site_fract_x
_atom_site_fract_y
_atom_site_fract_z
Mn1 Mn 0.00000 0.00000 0.00000
O1 O 0.2962(6) 0.9402(5) 0.2984(3)
O2 O 0.3746(6) 0.6621(5) 0.1762(2)
O3 O 0.6738(6) 0.6003(5) 0.3418(2)
O4 O -0.1308(6) -0.1432(7) 0.1419(3)
O5 O 0.3426(6) 0.2175(5) 0.1323(3)
O6 O 0.1979(6) -0.2488(6) -0.0301(3)
C1 C 0.9361(8) 0.3895(7) 0.3800(3)
C2 C 0.8984(7) 0.6684(6) 0.5446(3)
C3 C 0.8365(7) 0.5579(6) 0.4241(3)
C4 C 0.5674(7) 0.7713(6) 0.3817(3)
C5 C 0.3984(7) 0.7903(6) 0.2765(3)
H1 H 0.89200 0.31460 0.29950
H2 H 0.82990 0.77980 0.57460
H3 H -0.010(7) -0.12(1) 0.198(4)
H4 H -0.269(5) -0.18(1) 0.166(5)
H5 H 0.35(1) 0.167(7) 0.194(3)
H6 H 0.37(1) 0.360(2) 0.152(4)
H7 H 0.318(7) -0.23(1) -0.069(4)
H8 H 0.229(9) -0.32(1) 0.023(4)
H9 H 0.69960 0.91470 0.41570
H10 H 0.47070 0.73360 0.44290
O4A O 0.1308(6) 0.1432(7) -0.1419(3)
H3A H 0.010(7) 0.12(1) -0.198(4)
H4A H 0.269(5) 0.18(1) -0.166(5)
O5A O -0.3426(6) -0.2175(5) -0.1323(3)
H5A H -0.35(1) -0.167(7) -0.194(3)
H6A H -0.37(1) -0.360(2) -0.152(4)
O6A O -0.1979(6) 0.2488(6) 0.0301(3)
H7A H -0.318(7) 0.23(1) 0.069(4)
H8A H -0.229(9) 0.32(1) -0.023(4)
C2A C 1.1016(7) 0.3316(6) 0.4554(3)
C3A C 1.1635(7) 0.4421(6) 0.5759(3)
O3A O 1.3262(6) 0.3997(5) 0.6582(2)
C4A C 1.4326(7) 0.2287(6) 0.6183(3)
C5A C 1.6016(7) 0.2097(6) 0.7235(3)
O1A O 1.7038(6) 0.0598(5) 0.7016(3)
O2A O 1.6254(6) 0.3379(5) 0.8238(2)
H9A H 1.30040 0.08530 0.58430
H10A H 1.52930 0.26640 0.55710
C1A C 1.0639(8) 0.6105(7) 0.6200(3)
H1A H 1.10800 0.68540 0.70050
H2A H 1.17010 0.22020 0.42540
#END
