
#######################################################################
#
#                 Cambridge Crystallographic Data Centre
#                                CCDC
#
#######################################################################
#
# If this CIF has been generated from an entry in the Cambridge
# Structural Database, then it will include bibliographic, chemical,
# crystal, experimental, refinement or atomic coordinate data resulting
# from the CCDC's data processing and validation procedures.
#
#######################################################################

data_CSD_CIF_AVALAL
_audit_creation_date 2011-08-30
_audit_creation_method CSD-ConQuest-V1
_database_code_CSD AVALAL
_database_code_depnum_ccdc_archive 'CCDC 755831'
_chemical_formula_sum 'C10 H12 Mn1 N4 O5 S2'
_chemical_formula_moiety
;
C10 H12 Mn1 N4 O5 S2
;
_journal_coden_Cambridge 673
_journal_volume 8
_journal_year 2010
_journal_page_first 639
_journal_name_full 'Central Eur.J.Chem. '
loop_
_publ_author_name
"M.-G.Alexandru"
"T.C.Velickovic"
"I.Jitaru"
"S.Grguric-Sipka"
"C.Draghici"
_chemical_name_systematic
;
bis((2-Amino-1,3-thiazol-4-yl)acetato-N,O)-aqua-manganese(ii)
;
_cell_volume   1464.156
_exptl_crystal_colour 'light brown'
_exptl_crystal_density_diffrn 1.752
_exptl_special_details
;
Cytotoxic activity

;
_exptl_crystal_description 'block'
_diffrn_ambient_temperature 297
#These two values have been output from a single CSD field.
_refine_ls_R_factor_gt 0.063
_refine_ls_wR_factor_gt 0.063
_symmetry_cell_setting monoclinic
_symmetry_space_group_name_H-M 'C 2/c'
_symmetry_Int_Tables_number 15
loop_
_symmetry_equiv_pos_site_id
_symmetry_equiv_pos_as_xyz
1 x,y,z
2 -x,y,1/2-z
3 1/2+x,1/2+y,z
4 1/2-x,1/2+y,1/2-z
5 -x,-y,-z
6 x,-y,-1/2+z
7 -1/2-x,-1/2-y,-z
8 -1/2+x,-1/2-y,-1/2+z
_cell_length_a 12.1567(17)
_cell_length_b 9.4915(13)
_cell_length_c 12.7295(18)
_cell_angle_alpha 90
_cell_angle_beta 94.556(2)
_cell_angle_gamma 90
_cell_formula_units_Z 4
loop_
_atom_type_symbol
_atom_type_radius_bond
C 0.68
H 0.23
Mn 1.61
N 0.68
O 0.68
S 1.02
loop_
_atom_site_label
_atom_site_type_symbol
_atom_site_fract_x
_atom_site_fract_y
_atom_site_fract_z
C1 C 1.0071(4) 0.2118(5) 0.9938(4)
C2 C 0.8298(4) 0.1102(6) 1.0263(4)
H1 H 0.76480 0.07630 1.05090
C3 C 0.8567(4) 0.0978(5) 0.9265(4)
C4 C 0.7894(4) 0.0242(6) 0.8399(4)
H2 H 0.72170 -0.00810 0.86750
H3 H 0.82970 -0.05870 0.82030
C5 C 0.7589(4) 0.1088(5) 0.7408(3)
H4 H 1.132(4) 0.318(5) 1.053(3)
H5 H 1.145(5) 0.262(7) 0.947(3)
Mn1 Mn 1.00000 0.21444(11) 0.75000
N1 N 0.9583(3) 0.1569(4) 0.9074(3)
N2 N 1.1063(4) 0.2723(6) 0.9994(4)
O1 O 0.8297(3) 0.1921(4) 0.7083(2)
O2 O 0.6665(3) 0.0910(4) 0.6948(3)
O3 O 1.00000 0.4337(5) 0.75000
H6 H 1.06110 0.46250 0.73700
S1 S 0.93154(12) 0.19739(17) 1.10296(10)
C1A C 0.9929(4) 0.2118(5) 0.5062(4)
C2A C 1.1702(4) 0.1102(6) 0.4737(4)
H1A H 1.23520 0.07630 0.44910
C3A C 1.1433(4) 0.0978(5) 0.5735(4)
C4A C 1.2106(4) 0.0242(6) 0.6601(4)
H2A H 1.27830 -0.00810 0.63250
H3A H 1.17030 -0.05870 0.67970
C5A C 1.2411(4) 0.1088(5) 0.7592(3)
H4A H 0.868(4) 0.318(5) 0.447(3)
H5A H 0.855(5) 0.262(7) 0.553(3)
N1A N 1.0417(3) 0.1569(4) 0.5926(3)
N2A N 0.8937(4) 0.2723(6) 0.5006(4)
O1A O 1.1703(3) 0.1921(4) 0.7917(2)
O2A O 1.3335(3) 0.0910(4) 0.8052(3)
H6A H 0.93890 0.46250 0.76300
S1A S 1.06846(12) 0.19739(17) 0.39704(10)
#END
