
#######################################################################
#
#                 Cambridge Crystallographic Data Centre
#                                CCDC
#
#######################################################################
#
# If this CIF has been generated from an entry in the Cambridge
# Structural Database, then it will include bibliographic, chemical,
# crystal, experimental, refinement or atomic coordinate data resulting
# from the CCDC's data processing and validation procedures.
#
#######################################################################

data_CSD_CIF_AXOTEO
_audit_creation_date 2016-10-24
_audit_creation_method CSD-ConQuest-V1
_database_code_CSD AXOTEO
_database_code_depnum_ccdc_archive 'CCDC 976049'
_chemical_formula_sum 'C15 H17 Cl1 Fe1 N3 O3 S1'
_chemical_formula_moiety
;
C15 H17 Cl1 Fe1 N3 O3 S1
;
_journal_coden_Cambridge 211
_journal_volume 68
_journal_year 2015
_journal_page_first 586
_journal_name_full 'J.Coord.Chem. '
loop_
_publ_author_name
"B.Kaya"
"Atif Koca"
"B.Ulkuseven"
_chemical_name_systematic
;
chloro-(2-methoxy-6-((((methylsulfanyl)((4-oxidopent-3-en-2-ylidene)hydrazinyl
idene)methy)imino)methyl)phenolato)-iron(iii)
;
_cell_volume    888.447
_exptl_crystal_colour 'black'
_exptl_crystal_density_diffrn 1.535
_exptl_crystal_description 'platelet'
_diffrn_ambient_temperature 293
#These two values have been output from a single CSD field.
_refine_ls_R_factor_gt 0.066
_refine_ls_wR_factor_gt 0.066
_symmetry_cell_setting triclinic
_symmetry_space_group_name_H-M 'P -1'
_symmetry_Int_Tables_number 2
loop_
_symmetry_equiv_pos_site_id
_symmetry_equiv_pos_as_xyz
1 x,y,z
2 -x,-y,-z
_cell_length_a 8.4589(6)
_cell_length_b 8.6059(5)
_cell_length_c 13.487(2)
_cell_angle_alpha 79.31(3)
_cell_angle_beta 88.58(3)
_cell_angle_gamma 67.24(2)
_cell_formula_units_Z 2
loop_
_atom_type_symbol
_atom_type_radius_bond
C 0.68
H 0.23
Cl 0.99
Fe 1.52
N 0.68
O 0.68
S 1.02
loop_
_atom_site_label
_atom_site_type_symbol
_atom_site_fract_x
_atom_site_fract_y
_atom_site_fract_z
Fe1 Fe 0.12624(8) 0.48377(7) 0.76179(5)
Cl1 Cl 0.2982(2) 0.5890(2) 0.66944(10)
S1 S -0.2513(2) 1.0214(2) 0.78816(12)
O1 O 0.1400(4) 0.2757(4) 0.7252(3)
O2 O 0.2392(4) 0.3781(4) 0.8901(2)
O3 O 0.4945(4) 0.1796(4) 1.0193(3)
N1 N -0.1010(5) 0.6026(4) 0.6774(3)
N2 N -0.1988(5) 0.7744(4) 0.6851(3)
N3 N -0.0182(4) 0.6912(4) 0.8288(3)
C1 C 0.0593(7) 0.2501(6) 0.6522(4)
C2 C 0.1292(8) 0.0679(6) 0.6351(5)
C3 C -0.0807(7) 0.3718(6) 0.5966(4)
C4 C -0.1643(6) 0.5456(6) 0.6107(4)
C5 C -0.3271(7) 0.6558(7) 0.5492(4)
C6 C -0.1526(5) 0.8142(5) 0.7632(4)
C7 C -0.3933(8) 1.1259(7) 0.6787(5)
C8 C 0.0143(6) 0.7161(6) 0.9171(4)
C9 C 0.1516(6) 0.6025(6) 0.9857(4)
C10 C 0.1781(7) 0.6569(7) 1.0749(4)
C11 C 0.3114(8) 0.5546(7) 1.1425(4)
C12 C 0.4207(7) 0.3948(6) 1.1248(4)
C13 C 0.3964(6) 0.3351(6) 1.0413(4)
C14 C 0.6287(7) 0.0643(7) 1.0906(5)
C15 C 0.2602(6) 0.4379(5) 0.9686(3)
H1 H 0.1232(8) -0.0067(6) 0.6952(5)
H2 H 0.0654(8) 0.0575(6) 0.5816(5)
H3 H 0.2456(8) 0.0380(6) 0.6182(5)
H4 H -0.1441(7) 0.3280(6) 0.5246(4)
H5 H -0.3139(7) 0.7537(7) 0.5103(4)
H6 H -0.3512(7) 0.5923(7) 0.5053(4)
H7 H -0.4191(7) 0.6917(7) 0.5926(4)
H8 H -0.4574(8) 1.2426(7) 0.6826(5)
H9 H -0.3281(8) 1.1203(7) 0.6201(5)
H10 H -0.4696(8) 1.0699(7) 0.6749(5)
H11 H -0.0600(6) 0.8194(6) 0.9367(4)
H12 H 0.1024(7) 0.7657(7) 1.0870(4)
H13 H 0.3295(8) 0.5931(7) 1.2011(4)
H14 H 0.5138(7) 0.3246(6) 1.1719(4)
H15 H 0.5824(7) 0.0408(7) 1.1539(5)
H16 H 0.6865(7) -0.0398(7) 1.0670(5)
H17 H 0.7075(7) 0.1160(7) 1.0985(5)
#END
