
#######################################################################
#
#                 Cambridge Crystallographic Data Centre
#                                CCDC
#
#######################################################################
#
# If this CIF has been generated from an entry in the Cambridge
# Structural Database, then it will include bibliographic, chemical,
# crystal, experimental, refinement or atomic coordinate data resulting
# from the CCDC's data processing and validation procedures.
#
#######################################################################

data_CSD_CIF_AYADEJ
_audit_creation_date 2004-09-24
_audit_creation_method CSD-ConQuest-V1
_database_code_CSD AYADEJ
_database_code_depnum_ccdc_archive 'CCDC 225740'
_chemical_formula_sum 'C12 H20 Mn1 N10 O6'
_chemical_formula_moiety
;
C12 H16 Mn1 N10 O4,2(H2 O1)
;
_journal_coden_Cambridge 580
_journal_volume 23
_journal_year 2004
_journal_page_first 1217
_journal_name_full 'Polyhedron '
loop_
_publ_author_name
"F.A.Mautner"
"C.Gspan"
"K.Gatterer"
"M.A.S.Goher"
"M.A.M.Abu-Youssef"
"E.Bucher"
"W.Sitte"
_chemical_name_systematic
;
Tetraaqua-bis(4-(5-tetrazolato)pyridyl)-manganese(ii) dihydrate
;
_cell_volume    486.957
_exptl_crystal_colour 'colorless'
_exptl_crystal_density_diffrn 1.553
_exptl_special_details
;
isomorphous with the Cd analogue

;
_exptl_crystal_description 'irregular'
_diffrn_ambient_temperature 90
#These two values have been output from a single CSD field.
_refine_ls_R_factor_gt 0.0339
_refine_ls_wR_factor_gt 0.0339
_symmetry_cell_setting triclinic
_symmetry_space_group_name_H-M 'P -1'
_symmetry_Int_Tables_number 2
loop_
_symmetry_equiv_pos_site_id
_symmetry_equiv_pos_as_xyz
1 x,y,z
2 -x,-y,-z
_cell_length_a 7.385(3)
_cell_length_b 7.852(3)
_cell_length_c 8.563(3)
_cell_angle_alpha 91.07(3)
_cell_angle_beta 93.03(3)
_cell_angle_gamma 100.74(3)
_cell_formula_units_Z 1
loop_
_atom_type_symbol
_atom_type_radius_bond
C 0.68
H 0.23
Mn 1.35
N 0.68
O 0.68
loop_
_atom_site_label
_atom_site_type_symbol
_atom_site_fract_x
_atom_site_fract_y
_atom_site_fract_z
Mn1 Mn 0.00000 0.00000 0.00000
O1 O 0.2035(2) -0.1587(2) -0.0427(2)
O2 O 0.1897(2) 0.1626(2) 0.1664(2)
N1 N 0.1022(3) 0.1888(2) -0.1927(2)
C1 C 0.0307(3) 0.1587(3) -0.3408(3)
H1 H -0.05740 0.05880 -0.36270
C2 C 0.0810(3) 0.2677(3) -0.4613(3)
H2 H 0.02750 0.24110 -0.56160
C3 C 0.2122(3) 0.4180(3) -0.4322(3)
C4 C 0.2848(3) 0.4517(3) -0.2792(3)
H3 H 0.37160 0.55160 -0.25390
C5 C 0.2265(3) 0.3348(3) -0.1652(3)
H4 H 0.27670 0.35920 -0.06360
C6 C 0.2695(3) 0.5372(3) -0.5573(3)
N2 N 0.3650(3) 0.6987(2) -0.5342(2)
N3 N 0.3820(3) 0.7631(2) -0.6775(2)
N4 N 0.3002(3) 0.6450(2) -0.7829(2)
N5 N 0.2278(3) 0.4999(2) -0.7101(2)
H5 H 0.2298(40) -0.2259(33) 0.0228(28)
H6 H 0.2854(33) -0.1394(38) -0.1042(28)
H7 H 0.2921(27) 0.1384(36) 0.1881(38)
H8 H 0.1887(40) 0.2638(22) 0.1906(36)
O3 O 0.5328(2) 0.1018(2) 0.2575(2)
H9 H 0.5696(40) 0.1618(31) 0.3343(26)
H10 H 0.4940(41) 0.0023(21) 0.2813(34)
O1A O -0.2035(2) 0.1587(2) 0.0427(2)
H5A H -0.2298(40) 0.2259(33) -0.0228(28)
H6A H -0.2854(33) 0.1394(38) 0.1042(28)
O2A O -0.1897(2) -0.1626(2) -0.1664(2)
H7A H -0.2921(27) -0.1384(36) -0.1881(38)
H8A H -0.1887(40) -0.2638(22) -0.1906(36)
N1A N -0.1022(3) -0.1888(2) 0.1927(2)
C1A C -0.0307(3) -0.1587(3) 0.3408(3)
H1A H 0.05740 -0.05880 0.36270
C2A C -0.0810(3) -0.2677(3) 0.4613(3)
H2A H -0.02750 -0.24110 0.56160
C3A C -0.2122(3) -0.4180(3) 0.4322(3)
C4A C -0.2848(3) -0.4517(3) 0.2792(3)
H3A H -0.37160 -0.55160 0.25390
C5A C -0.2265(3) -0.3348(3) 0.1652(3)
H4A H -0.27670 -0.35920 0.06360
C6A C -0.2695(3) -0.5372(3) 0.5573(3)
N2A N -0.3650(3) -0.6987(2) 0.5342(2)
N3A N -0.3820(3) -0.7631(2) 0.6775(2)
N4A N -0.3002(3) -0.6450(2) 0.7829(2)
N5A N -0.2278(3) -0.4999(2) 0.7101(2)
#END
