
#######################################################################
#
#                 Cambridge Crystallographic Data Centre
#                                CCDC
#
#######################################################################
#
# If this CIF has been generated from an entry in the Cambridge
# Structural Database, then it will include bibliographic, chemical,
# crystal, experimental, refinement or atomic coordinate data resulting
# from the CCDC's data processing and validation procedures.
#
#######################################################################

data_CSD_CIF_AYADEJ01
_audit_creation_date 2005-11-21
_audit_creation_method CSD-ConQuest-V1
_database_code_CSD AYADEJ01
_database_code_depnum_ccdc_archive 'CCDC 222435'
_chemical_formula_sum 'C12 H20 Mn1 N10 O6'
_chemical_formula_moiety
;
C12 H16 Mn1 N10 O4,2(H2 O1)
;
_journal_coden_Cambridge 222
_journal_year 2005
_journal_page_first 2388
_journal_name_full 'Dalton Trans. '
loop_
_publ_author_name
"Ping Lin"
"W.Clegg"
"R.W.Harrington"
"R.A.Henderson"
_chemical_name_systematic
;
Tetra-aqua-bis(4-(tetrazol-5-yl)pyridyl)-manganese(ii) dihydrate
;
_cell_volume    488.755
_exptl_crystal_colour 'colorless'
_exptl_crystal_density_diffrn 1.547
_exptl_crystal_description 'block'
_diffrn_ambient_temperature 160
#These two values have been output from a single CSD field.
_refine_ls_R_factor_gt 0.0407
_refine_ls_wR_factor_gt 0.0407
_symmetry_cell_setting triclinic
_symmetry_space_group_name_H-M 'P -1'
_symmetry_Int_Tables_number 2
loop_
_symmetry_equiv_pos_site_id
_symmetry_equiv_pos_as_xyz
1 x,y,z
2 -x,-y,-z
_cell_length_a 7.3932(7)
_cell_length_b 7.8646(7)
_cell_length_c 8.5723(8)
_cell_angle_alpha 91.007(2)
_cell_angle_beta 93.011(2)
_cell_angle_gamma 100.789(2)
_cell_formula_units_Z 1
loop_
_atom_type_symbol
_atom_type_radius_bond
C 0.68
H 0.23
Mn 1.35
N 0.68
O 0.68
loop_
_atom_site_label
_atom_site_type_symbol
_atom_site_fract_x
_atom_site_fract_y
_atom_site_fract_z
Mn1 Mn 0.50000 0.00000 0.50000
N1 N 0.6027(4) 0.1881(3) 0.3083(3)
N2 N 0.8644(4) 0.6987(3) -0.0335(3)
N3 N 0.8813(4) 0.7628(3) -0.1769(3)
N4 N 0.8005(4) 0.6447(3) -0.2824(3)
N5 N 0.7281(4) 0.4997(3) -0.2090(3)
O1 O 0.6895(3) 0.1626(3) 0.6658(3)
H1 H 0.796(4) 0.144(5) 0.692(5)
H2 H 0.688(5) 0.266(3) 0.693(4)
O2 O 0.7038(3) -0.1577(3) 0.4579(3)
H3 H 0.784(6) -0.143(6) 0.391(4)
H4 H 0.737(5) -0.221(5) 0.525(4)
C1 C 0.7246(5) 0.3355(4) 0.3349(4)
H5 H 0.77400 0.36180 0.43890
C2 C 0.7834(5) 0.4522(4) 0.2211(4)
H6 H 0.87100 0.55480 0.24730
C3 C 0.7133(4) 0.4179(4) 0.0684(4)
C4 C 0.5820(5) 0.2679(4) 0.0388(4)
H7 H 0.52710 0.24100 -0.06350
C5 C 0.5322(5) 0.1583(4) 0.1602(4)
H8 H 0.44300 0.05600 0.13770
C6 C 0.7697(4) 0.5369(4) -0.0570(4)
O3 O 0.9671(3) -0.1018(3) 0.2427(3)
H9 H 0.933(5) -0.157(4) 0.157(4)
H10 H 1.000(6) 0.002(3) 0.220(5)
N1A N 0.3973(4) -0.1881(3) 0.6917(3)
N2A N 0.1356(4) -0.6987(3) 1.0335(3)
N3A N 0.1187(4) -0.7628(3) 1.1769(3)
N4A N 0.1995(4) -0.6447(3) 1.2824(3)
N5A N 0.2719(4) -0.4997(3) 1.2090(3)
O1A O 0.3105(3) -0.1626(3) 0.3342(3)
H1A H 0.204(4) -0.144(5) 0.308(5)
H2A H 0.312(5) -0.266(3) 0.307(4)
O2A O 0.2962(3) 0.1577(3) 0.5421(3)
H3A H 0.216(6) 0.143(6) 0.609(4)
H4A H 0.263(5) 0.221(5) 0.475(4)
C1A C 0.2754(5) -0.3355(4) 0.6651(4)
H5A H 0.22600 -0.36180 0.56110
C2A C 0.2166(5) -0.4522(4) 0.7789(4)
H6A H 0.12900 -0.55480 0.75270
C3A C 0.2867(4) -0.4179(4) 0.9316(4)
C4A C 0.4180(5) -0.2679(4) 0.9612(4)
H7A H 0.47290 -0.24100 1.06350
C5A C 0.4678(5) -0.1583(4) 0.8398(4)
H8A H 0.55700 -0.05600 0.86230
C6A C 0.2303(4) -0.5369(4) 1.0570(4)
#END
