
#######################################################################
#
#                 Cambridge Crystallographic Data Centre
#                                CCDC
#
#######################################################################
#
# If this CIF has been generated from an entry in the Cambridge
# Structural Database, then it will include bibliographic, chemical,
# crystal, experimental, refinement or atomic coordinate data resulting
# from the CCDC's data processing and validation procedures.
#
#######################################################################

data_CSD_CIF_AYEHOD
_audit_creation_date 2016-10-26
_audit_creation_method CSD-ConQuest-V1
_database_code_CSD AYEHOD
_database_code_depnum_ccdc_archive 'CCDC 622498'
_chemical_formula_sum 'C42 H90 Mn1 P4 Si2'
_chemical_formula_moiety
;
C42 H90 Mn1 P4 Si2
;
_journal_coden_Cambridge 1078
_journal_year 2016
_journal_name_full 'CSD Communication(Private Communication) '
loop_
_publ_author_name
"T.Fritz"
"H.W.Schmalle"
"K.Venkatesan"
"H.Berke"
_chemical_name_systematic
;
bis(ethane-1,2-diylbis(diethylphosphine))-bis((triisopropylsilyl)ethynyl)-mang
anese(ii)
;
_cell_volume   1218.909
_exptl_crystal_colour 'yellow'
_exptl_crystal_density_diffrn 1.131
_exptl_crystal_description 'block'
_diffrn_ambient_temperature 183
#These two values have been output from a single CSD field.
_refine_ls_R_factor_gt 0.0574
_refine_ls_wR_factor_gt 0.0574
_symmetry_cell_setting triclinic
_symmetry_space_group_name_H-M 'P -1'
_symmetry_Int_Tables_number 2
loop_
_symmetry_equiv_pos_site_id
_symmetry_equiv_pos_as_xyz
1 x,y,z
2 -x,-y,-z
_cell_length_a 10.5552(12)
_cell_length_b 10.6392(11)
_cell_length_c 12.8437(13)
_cell_angle_alpha 68.199(12)
_cell_angle_beta 68.672(12)
_cell_angle_gamma 71.394(13)
_cell_formula_units_Z 1
loop_
_atom_type_symbol
_atom_type_radius_bond
C 0.68
H 0.23
Mn 1.61
P 1.05
Si 1.20
loop_
_atom_site_label
_atom_site_type_symbol
_atom_site_fract_x
_atom_site_fract_y
_atom_site_fract_z
Mn1 Mn 0.50000 0.00000 0.50000
P1 P 0.69987(7) -0.16881(7) 0.48864(6)
P2 P 0.46741(8) -0.08587(8) 0.37567(6)
Si1 Si 0.77399(7) 0.29760(8) 0.13586(6)
C1 C 0.6031(3) 0.1237(3) 0.3586(2)
C2 C 0.6702(3) 0.1966(3) 0.2701(2)
C3 C 0.7172(5) -0.2628(5) 0.3877(4)
H1 H 0.81680 -0.29060 0.34730
H2 H 0.67980 -0.34780 0.43220
C4 C 0.6380(4) -0.1710(4) 0.2977(3)
H3 H 0.62560 -0.22770 0.25740
H4 H 0.69040 -0.10060 0.23850
C5 C 0.7179(4) -0.3133(4) 0.6203(3)
H5 H 0.72570 -0.27530 0.67680
H6 H 0.63000 -0.34700 0.65510
C6 C 0.8353(4) -0.4367(4) 0.6103(4)
H7 H 0.83110 -0.47620 0.55410
H8 H 0.82730 -0.50650 0.68680
H9 H 0.92420 -0.40820 0.58370
C7 C 0.8660(4) -0.1125(5) 0.4369(5)
H10 H 0.84910 -0.01850 0.38240
H11 H 0.87550 -0.09950 0.50600
C8 C 0.9949(6) -0.1746(9) 0.3851(8)
H12 H 1.01010 -0.27450 0.42400
H13 H 1.06430 -0.13640 0.39100
H14 H 1.00370 -0.15780 0.30260
C9 C 0.3986(4) 0.0379(4) 0.2528(3)
H15 H 0.29830 0.07380 0.28540
H16 H 0.44490 0.11730 0.22020
C10 C 0.4131(6) -0.0123(6) 0.1529(4)
H17 H 0.51070 -0.05490 0.12260
H18 H 0.38240 0.06630 0.09070
H19 H 0.35550 -0.08080 0.18030
C11 C 0.3582(5) -0.2145(5) 0.4408(4)
H20 H 0.36210 -0.25770 0.52270
H21 H 0.26150 -0.16170 0.44400
C12 C 0.3770(12) -0.323(1) 0.3969(11)
H22 H 0.40360 -0.29040 0.31140
H23 H 0.29000 -0.35540 0.42540
H24 H 0.45070 -0.39920 0.42300
C13 C 0.6527(3) 0.4552(3) 0.0660(3)
H25 H 0.59450 0.41860 0.04210
C14 C 0.5511(4) 0.5375(4) 0.1487(4)
H26 H 0.60030 0.59120 0.16250
H27 H 0.51060 0.47380 0.22300
H28 H 0.47690 0.60060 0.11390
C15 C 0.7265(4) 0.5522(4) -0.0454(4)
H29 H 0.65750 0.63110 -0.07570
H30 H 0.77860 0.50210 -0.10390
H31 H 0.79090 0.58580 -0.02820
C16 C 0.9083(3) 0.3488(3) 0.1690(3)
H32 H 0.96370 0.40150 0.09280
C17 C 0.8482(5) 0.4425(5) 0.2484(4)
H33 H 0.78230 0.40010 0.31990
H34 H 0.80000 0.53280 0.20800
H35 H 0.92370 0.45510 0.26830
C18 C 1.0100(4) 0.2211(4) 0.2196(4)
H36 H 1.08170 0.25060 0.23110
H37 H 1.05400 0.16450 0.16530
H38 H 0.95950 0.16640 0.29470
C19 C 0.8704(3) 0.1832(3) 0.0355(3)
H39 H 0.91100 0.09250 0.08520
C20 C 0.7746(4) 0.1510(5) -0.0102(4)
H40 H 0.74060 0.23420 -0.06760
H41 H 0.69540 0.12100 0.05470
H42 H 0.82560 0.07690 -0.04730
C21 C 0.9948(4) 0.2332(5) -0.0662(4)
H43 H 1.03790 0.16740 -0.11250
H44 H 1.06360 0.23930 -0.03450
H45 H 0.96190 0.32470 -0.11590
P1A P 0.30013(7) 0.16881(7) 0.51136(6)
P2A P 0.53259(8) 0.08587(8) 0.62433(6)
Si1A Si 0.22601(7) -0.29760(8) 0.86414(6)
C1A C 0.3969(3) -0.1237(3) 0.6414(2)
C2A C 0.3298(3) -0.1966(3) 0.7299(2)
C3A C 0.2828(5) 0.2628(5) 0.6123(4)
H1A H 0.18320 0.29060 0.65270
H2A H 0.32020 0.34780 0.56780
C4A C 0.3620(4) 0.1710(4) 0.7023(3)
H3A H 0.37440 0.22770 0.74260
H4A H 0.30960 0.10060 0.76150
C5A C 0.2821(4) 0.3133(4) 0.3797(3)
H5A H 0.27430 0.27530 0.32320
H6A H 0.37000 0.34700 0.34490
C6A C 0.1647(4) 0.4367(4) 0.3897(4)
H7A H 0.16890 0.47620 0.44590
H8A H 0.17270 0.50650 0.31320
H9A H 0.07580 0.40820 0.41630
C7A C 0.1340(4) 0.1125(5) 0.5631(5)
H10A H 0.15090 0.01850 0.61760
H11A H 0.12450 0.09950 0.49400
C8A C 0.0051(6) 0.1746(9) 0.6149(8)
H12A H -0.01010 0.27450 0.57600
H13A H -0.06430 0.13640 0.60900
H14A H -0.00370 0.15780 0.69740
C9A C 0.6014(4) -0.0379(4) 0.7472(3)
H15A H 0.70170 -0.07380 0.71460
H16A H 0.55510 -0.11730 0.77980
C10A C 0.5869(6) 0.0123(6) 0.8471(4)
H17A H 0.48930 0.05490 0.87740
H18A H 0.61760 -0.06630 0.90930
H19A H 0.64450 0.08080 0.81970
C11A C 0.6418(5) 0.2145(5) 0.5592(4)
H20A H 0.63790 0.25770 0.47730
H21A H 0.73850 0.16170 0.55600
C12A C 0.6230(12) 0.323(1) 0.6031(11)
H22A H 0.59640 0.29040 0.68860
H23A H 0.71000 0.35540 0.57460
H24A H 0.54930 0.39920 0.57700
C13A C 0.3473(3) -0.4552(3) 0.9340(3)
H25A H 0.40550 -0.41860 0.95790
C14A C 0.4489(4) -0.5375(4) 0.8513(4)
H26A H 0.39970 -0.59120 0.83750
H27A H 0.48940 -0.47380 0.77700
H28A H 0.52310 -0.60060 0.88610
C15A C 0.2735(4) -0.5522(4) 1.0454(4)
H29A H 0.34250 -0.63110 1.07570
H30A H 0.22140 -0.50210 1.10390
H31A H 0.20910 -0.58580 1.02820
C16A C 0.0917(3) -0.3488(3) 0.8310(3)
H32A H 0.03630 -0.40150 0.90720
C17A C 0.1518(5) -0.4425(5) 0.7516(4)
H33A H 0.21770 -0.40010 0.68010
H34A H 0.20000 -0.53280 0.79200
H35A H 0.07630 -0.45510 0.73170
C18A C -0.0100(4) -0.2211(4) 0.7804(4)
H36A H -0.08170 -0.25060 0.76890
H37A H -0.05400 -0.16450 0.83470
H38A H 0.04050 -0.16640 0.70530
C19A C 0.1296(3) -0.1832(3) 0.9645(3)
H39A H 0.08900 -0.09250 0.91480
C20A C 0.2254(4) -0.1510(5) 1.0102(4)
H40A H 0.25940 -0.23420 1.06760
H41A H 0.30460 -0.12100 0.94530
H42A H 0.17440 -0.07690 1.04730
C21A C 0.0052(4) -0.2332(5) 1.0662(4)
H43A H -0.03790 -0.16740 1.11250
H44A H -0.06360 -0.23930 1.03450
H45A H 0.03810 -0.32470 1.11590
#END
