
#######################################################################
#
#                 Cambridge Crystallographic Data Centre
#                                CCDC
#
#######################################################################
#
# If this CIF has been generated from an entry in the Cambridge
# Structural Database, then it will include bibliographic, chemical,
# crystal, experimental, refinement or atomic coordinate data resulting
# from the CCDC's data processing and validation procedures.
#
#######################################################################

data_CSD_CIF_AYEKAS
_audit_creation_date 2016-10-26
_audit_creation_method CSD-ConQuest-V1
_database_code_CSD AYEKAS
_database_code_depnum_ccdc_archive 'CCDC 624090'
_chemical_formula_sum 'C14 H36 I2 Mn1 P4'
_chemical_formula_moiety
;
C14 H36 I2 Mn1 P4
;
_journal_coden_Cambridge 1078
_journal_year 2016
_journal_name_full 'CSD Communication(Private Communication) '
loop_
_publ_author_name
"T.Fritz"
"H.W.Schmalle"
"H.Berke"
_chemical_name_systematic
;
di-iodo-bis(propane-1,3-diylbis(dimethylphosphine))-manganese(ii)
;
_cell_volume   1232.715
_exptl_crystal_colour 'colorless'
_exptl_crystal_density_diffrn 1.716
_exptl_crystal_description 'block'
_diffrn_ambient_temperature 183
#These two values have been output from a single CSD field.
_refine_ls_R_factor_gt 0.0275
_refine_ls_wR_factor_gt 0.0275
_symmetry_cell_setting triclinic
_symmetry_space_group_name_H-M 'P -1'
_symmetry_Int_Tables_number 2
loop_
_symmetry_equiv_pos_site_id
_symmetry_equiv_pos_as_xyz
1 x,y,z
2 -x,-y,-z
_cell_length_a 8.5299(11)
_cell_length_b 9.1970(12)
_cell_length_c 15.834(2)
_cell_angle_alpha 89.195(16)
_cell_angle_beta 89.072(16)
_cell_angle_gamma 83.022(16)
_cell_formula_units_Z 2
loop_
_atom_type_symbol
_atom_type_radius_bond
C 0.68
H 0.23
I 1.40
Mn 1.61
P 1.05
loop_
_atom_site_label
_atom_site_type_symbol
_atom_site_fract_x
_atom_site_fract_y
_atom_site_fract_z
Mn1 Mn 0.00000 0.50000 0.00000
I1 I 0.24161(2) 0.27287(2) 0.059698(14)
P1 P 0.06717(10) 0.69524(8) 0.11088(6)
P2 P 0.19189(9) 0.61322(9) -0.10951(6)
C1 C 0.1525(4) 0.8538(4) 0.0678(3)
H1 H 0.06750 0.91910 0.03980
H2 H 0.18950 0.90840 0.11560
C2 C 0.2903(4) 0.8220(4) 0.0046(3)
H3 H 0.35360 0.90540 0.00410
H4 H 0.35930 0.73400 0.02410
C3 C 0.2390(5) 0.7970(4) -0.0851(3)
H5 H 0.32430 0.82040 -0.12430
H6 H 0.14470 0.86770 -0.09710
C4 C -0.1015(4) 0.7888(4) 0.1696(3)
H7 H -0.14480 0.71890 0.20810
H8 H -0.18310 0.82880 0.12990
H9 H -0.06700 0.86860 0.20220
C5 C 0.2031(5) 0.6329(4) 0.1948(3)
H10 H 0.21070 0.71350 0.23390
H11 H 0.30770 0.60090 0.17040
H12 H 0.16430 0.55090 0.22550
C6 C 0.3876(4) 0.5148(4) -0.1280(3)
H13 H 0.37760 0.41380 -0.14400
H14 H 0.44930 0.51420 -0.07630
H15 H 0.44110 0.56340 -0.17360
C7 C 0.1208(5) 0.6412(5) -0.2173(3)
H16 H 0.19330 0.69570 -0.25010
H17 H 0.01530 0.69700 -0.21630
H18 H 0.11550 0.54600 -0.24350
Mn2 Mn 0.50000 0.00000 0.50000
I2 I 0.74209(2) 0.17801(2) 0.446924(15)
P3 P 0.66829(10) -0.24790(8) 0.44762(5)
P4 P 0.63186(10) -0.07212(9) 0.64914(5)
C8 C 0.6996(5) -0.3940(3) 0.5269(2)
H19 H 0.59560 -0.42470 0.54250
H20 H 0.76320 -0.47910 0.50050
C9 C 0.7807(5) -0.3588(4) 0.6077(2)
H21 H 0.87030 -0.30390 0.59260
H22 H 0.82480 -0.45190 0.63520
C10 C 0.6740(4) -0.2695(4) 0.6714(2)
H23 H 0.72350 -0.28250 0.72760
H24 H 0.57220 -0.31100 0.67520
C11 C 0.5802(5) -0.3480(4) 0.3652(2)
H25 H 0.58980 -0.29770 0.31080
H26 H 0.46840 -0.35220 0.37880
H27 H 0.63530 -0.44770 0.36200
C12 C 0.8691(4) -0.2407(4) 0.4071(3)
H28 H 0.91240 -0.33740 0.38630
H29 H 0.93550 -0.21220 0.45250
H30 H 0.86720 -0.16870 0.36080
C13 C 0.8213(4) -0.0095(4) 0.6718(3)
H31 H 0.81230 0.09740 0.66550
H32 H 0.90190 -0.05450 0.63220
H33 H 0.85150 -0.03750 0.72970
C14 C 0.5142(5) -0.0153(4) 0.7434(3)
H34 H 0.55990 -0.06880 0.79290
H35 H 0.40550 -0.03690 0.73630
H36 H 0.51430 0.09010 0.75150
I1A I -0.24161(2) 0.72713(2) -0.059698(14)
P1A P -0.06717(10) 0.30476(8) -0.11088(6)
P2A P -0.19189(9) 0.38678(9) 0.10951(6)
C1A C -0.1525(4) 0.1462(4) -0.0678(3)
H1A H -0.06750 0.08090 -0.03980
H2A H -0.18950 0.09160 -0.11560
C2A C -0.2903(4) 0.1780(4) -0.0046(3)
H3A H -0.35360 0.09460 -0.00410
H4A H -0.35930 0.26600 -0.02410
C3A C -0.2390(5) 0.2030(4) 0.0851(3)
H5A H -0.32430 0.17960 0.12430
H6A H -0.14470 0.13230 0.09710
C4A C 0.1015(4) 0.2112(4) -0.1696(3)
H7A H 0.14480 0.28110 -0.20810
H8A H 0.18310 0.17120 -0.12990
H9A H 0.06700 0.13140 -0.20220
C5A C -0.2031(5) 0.3671(4) -0.1948(3)
H10A H -0.21070 0.28650 -0.23390
H11A H -0.30770 0.39910 -0.17040
H12A H -0.16430 0.44910 -0.22550
C6A C -0.3876(4) 0.4852(4) 0.1280(3)
H13A H -0.37760 0.58620 0.14400
H14A H -0.44930 0.48580 0.07630
H15A H -0.44110 0.43660 0.17360
C7A C -0.1208(5) 0.3588(5) 0.2173(3)
H16A H -0.19330 0.30430 0.25010
H17A H -0.01530 0.30300 0.21630
H18A H -0.11550 0.45400 0.24350
I2A I 0.25791(2) -0.17801(2) 0.553076(15)
P3A P 0.33171(10) 0.24790(8) 0.55238(5)
P4A P 0.36814(10) 0.07212(9) 0.35086(5)
C8A C 0.3004(5) 0.3940(3) 0.4731(2)
H19A H 0.40440 0.42470 0.45750
H20A H 0.23680 0.47910 0.49950
C9A C 0.2193(5) 0.3588(4) 0.3923(2)
H21A H 0.12970 0.30390 0.40740
H22A H 0.17520 0.45190 0.36480
C10A C 0.3260(4) 0.2695(4) 0.3286(2)
H23A H 0.27650 0.28250 0.27240
H24A H 0.42780 0.31100 0.32480
C11A C 0.4198(5) 0.3480(4) 0.6348(2)
H25A H 0.41020 0.29770 0.68920
H26A H 0.53160 0.35220 0.62120
H27A H 0.36470 0.44770 0.63800
C12A C 0.1309(4) 0.2407(4) 0.5929(3)
H28A H 0.08760 0.33740 0.61370
H29A H 0.06450 0.21220 0.54750
H30A H 0.13280 0.16870 0.63920
C13A C 0.1787(4) 0.0095(4) 0.3282(3)
H31A H 0.18770 -0.09740 0.33450
H32A H 0.09810 0.05450 0.36780
H33A H 0.14850 0.03750 0.27030
C14A C 0.4858(5) 0.0153(4) 0.2566(3)
H34A H 0.44010 0.06880 0.20710
H35A H 0.59450 0.03690 0.26370
H36A H 0.48570 -0.09010 0.24850
#END
