
#######################################################################
#
#                 Cambridge Crystallographic Data Centre
#                                CCDC
#
#######################################################################
#
# If this CIF has been generated from an entry in the Cambridge
# Structural Database, then it will include bibliographic, chemical,
# crystal, experimental, refinement or atomic coordinate data resulting
# from the CCDC's data processing and validation procedures.
#
#######################################################################

data_CSD_CIF_AYINOM
_audit_creation_date 2011-11-07
_audit_creation_method CSD-ConQuest-V1
_database_code_CSD AYINOM
_database_code_depnum_ccdc_archive 'CCDC 845206'
_chemical_formula_sum 'C20 H16 Co1 N6 O10'
_chemical_formula_moiety
;
C20 H16 Co1 N6 O10
;
_journal_coeditor_code "IUCr RZ2627"
_journal_coden_Cambridge 1370
_journal_volume 67
_journal_year 2011
_journal_page_first m1186
_journal_name_full 'Acta Crystallogr.,Sect.E:Struct.Rep.Online '
loop_
_publ_author_name
"Qing-Guang Zhan"
_chemical_name_systematic
;
trans-Diaqua-bis(5-carboxy-2-(3-pyridyl)-1H-imidazole-4-carboxylato-N^3^,O^4^)
-cobalt(ii)
;
_cell_volume    531.123
_exptl_crystal_colour 'brown'
_exptl_crystal_density_diffrn 1.749
_exptl_crystal_description 'block'
_diffrn_ambient_temperature 298
#These two values have been output from a single CSD field.
_refine_ls_R_factor_gt 0.0436
_refine_ls_wR_factor_gt 0.0436
_symmetry_cell_setting triclinic
_symmetry_space_group_name_H-M 'P -1'
_symmetry_Int_Tables_number 2
loop_
_symmetry_equiv_pos_site_id
_symmetry_equiv_pos_as_xyz
1 x,y,z
2 -x,-y,-z
_cell_length_a 7.0240(9)
_cell_length_b 8.8770(12)
_cell_length_c 9.3240(12)
_cell_angle_alpha 81.598(2)
_cell_angle_beta 83.290(2)
_cell_angle_gamma 67.755(2)
_cell_formula_units_Z 1
loop_
_atom_type_symbol
_atom_type_radius_bond
C 0.68
H 0.23
Co 1.26
N 0.68
O 0.68
loop_
_atom_site_label
_atom_site_type_symbol
_atom_site_fract_x
_atom_site_fract_y
_atom_site_fract_z
Co1 Co 1.00000 0.00000 0.50000
O1 O 0.5734(4) 0.6730(3) 0.6242(2)
H1 H 0.63700 0.61540 0.56010
N1 N 0.6548(4) 0.2945(3) 0.8556(2)
H2 H 0.59960 0.31980 0.94040
O2 O 0.9299(4) 0.2412(3) 0.4017(2)
N2 N 0.8176(4) 0.1439(3) 0.6778(2)
O3 O 0.7771(4) 0.5056(3) 0.4308(2)
O4 O 0.4586(4) 0.6330(3) 0.8526(2)
C1 C 0.6630(5) 0.4031(4) 0.7370(3)
C2 C 0.7482(5) 0.1401(4) 0.8172(3)
O5 O 0.7336(3) -0.0027(3) 0.4303(2)
H3 H 0.63630 0.09010 0.41780
H4 H 0.72390 -0.06200 0.36980
C3 C 0.5565(5) 0.5820(4) 0.7409(3)
N3 N 0.7778(4) -0.1290(3) 1.1669(3)
C4 C 0.8292(5) 0.3538(4) 0.4769(3)
C5 C 0.7591(5) -0.0006(4) 1.0681(3)
H5 H 0.73950 0.09880 1.10060
C6 C 0.7669(5) 0.3071(4) 0.6286(3)
C7 C 0.7672(5) -0.0064(4) 0.9188(3)
C8 C 0.8085(5) -0.2721(4) 1.1191(3)
H6 H 0.82380 -0.36340 1.18650
C9 C 0.8181(5) -0.2887(4) 0.9732(3)
H7 H 0.84110 -0.39010 0.94360
C10 C 0.7934(5) -0.1542(4) 0.8716(3)
H8 H 0.79430 -0.16280 0.77320
O1A O 1.4266(4) -0.6730(3) 0.3758(2)
H1A H 1.36300 -0.61540 0.43990
N1A N 1.3452(4) -0.2945(3) 0.1444(2)
H2A H 1.40040 -0.31980 0.05960
O2A O 1.0701(4) -0.2412(3) 0.5983(2)
N2A N 1.1824(4) -0.1439(3) 0.3222(2)
O3A O 1.2229(4) -0.5056(3) 0.5692(2)
O4A O 1.5414(4) -0.6330(3) 0.1474(2)
C1A C 1.3370(5) -0.4031(4) 0.2630(3)
C2A C 1.2518(5) -0.1401(4) 0.1828(3)
O5A O 1.2664(3) 0.0027(3) 0.5697(2)
H3A H 1.36370 -0.09010 0.58220
H4A H 1.27610 0.06200 0.63020
C3A C 1.4435(5) -0.5820(4) 0.2591(3)
N3A N 1.2222(4) 0.1290(3) -0.1669(3)
C4A C 1.1708(5) -0.3538(4) 0.5231(3)
C5A C 1.2409(5) 0.0006(4) -0.0681(3)
H5A H 1.26050 -0.09880 -0.10060
C6A C 1.2331(5) -0.3071(4) 0.3714(3)
C7A C 1.2328(5) 0.0064(4) 0.0812(3)
C8A C 1.1915(5) 0.2721(4) -0.1191(3)
H6A H 1.17620 0.36340 -0.18650
C9A C 1.1819(5) 0.2887(4) 0.0268(3)
H7A H 1.15890 0.39010 0.05640
C10A C 1.2066(5) 0.1542(4) 0.1284(3)
H8A H 1.20570 0.16280 0.22680
#END
