
#######################################################################
#
#                 Cambridge Crystallographic Data Centre
#                                CCDC
#
#######################################################################
#
# If this CIF has been generated from an entry in the Cambridge
# Structural Database, then it will include bibliographic, chemical,
# crystal, experimental, refinement or atomic coordinate data resulting
# from the CCDC's data processing and validation procedures.
#
#######################################################################

data_CSD_CIF_AZALOC
_audit_creation_date 2004-10-19
_audit_creation_method CSD-ConQuest-V1
_database_code_CSD AZALOC
_database_code_depnum_ccdc_archive 'CCDC 237894'
_chemical_formula_sum 'C18 H17 Cr1 N1 O4'
_chemical_formula_moiety
;
C18 H17 Cr1 N1 O4
;
_journal_coden_Cambridge 1078
_journal_year 2004
_journal_name_full 'CSD Communication(Private Communication) '
loop_
_publ_author_name
"P.G.Jones"
_chemical_name_systematic
;
(\h^6^-7-(2-Amino-5-methyl-4-methoxyphenyl)cyclohepta-1,3,5-diene)-tricarbonyl
-chromium
;
_cell_volume    799.310
_exptl_crystal_colour 'red'
_exptl_crystal_density_diffrn 1.51
_exptl_special_details
;
contribution from Institut fur Anorganische und Analytische Chemie, 
Technische Universitat Braunschweig, Postfach 3329 38023 Braunschweig, 
Germany
;
_exptl_crystal_description 'prism'
_diffrn_ambient_temperature 143
#These two values have been output from a single CSD field.
_refine_ls_R_factor_gt 0.0317
_refine_ls_wR_factor_gt 0.0317
_symmetry_cell_setting triclinic
_symmetry_space_group_name_H-M 'P -1'
_symmetry_Int_Tables_number 2
loop_
_symmetry_equiv_pos_site_id
_symmetry_equiv_pos_as_xyz
1 x,y,z
2 -x,-y,-z
_cell_length_a 9.391(5)
_cell_length_b 9.798(5)
_cell_length_c 10.132(5)
_cell_angle_alpha 74.93(3)
_cell_angle_beta 62.65(3)
_cell_angle_gamma 81.84(3)
_cell_formula_units_Z 2
loop_
_atom_type_symbol
_atom_type_radius_bond
C 0.68
H 0.23
Cr 1.35
N 0.68
O 0.68
loop_
_atom_site_label
_atom_site_type_symbol
_atom_site_fract_x
_atom_site_fract_y
_atom_site_fract_z
Cr1 Cr 0.76717(3) 0.75879(3) 0.14437(3)
C1 C 0.3884(2) 0.52408(18) 0.22615(19)
C2 C 0.2214(2) 0.54116(19) 0.2812(2)
C3 C 0.1269(2) 0.4212(2) 0.3465(2)
H1 H 0.01370 0.43250 0.38480
C4 C 0.1953(2) 0.2868(2) 0.35605(19)
C5 C 0.3609(2) 0.26692(19) 0.3065(2)
C6 C 0.4523(2) 0.38686(19) 0.2417(2)
H2 H 0.56510 0.37490 0.20570
C7 C 0.4923(2) 0.65468(18) 0.1497(2)
H3 H 0.44590 0.72020 0.08480
C8 C 0.4889(2) 0.7359(2) 0.2599(2)
H4 H 0.420(2) 0.8159(19) 0.274(2)
C9 C 0.5522(2) 0.6897(2) 0.3626(2)
H5 H 0.520(3) 0.741(2) 0.440(2)
C10 C 0.6800(3) 0.5899(2) 0.3545(2)
H6 H 0.709(3) 0.575(2) 0.435(2)
C11 C 0.7812(2) 0.5293(2) 0.2313(2)
H7 H 0.868(2) 0.473(2) 0.238(3)
C12 C 0.7777(2) 0.55402(19) 0.0880(2)
H8 H 0.872(2) 0.530(2) 0.005(2)
C13 C 0.6645(2) 0.62887(19) 0.0455(2)
H9 H 0.693(3) 0.652(2) -0.0607(18)
C14 C -0.0465(3) 0.1787(2) 0.4158(3)
H10 H -0.08890 0.08420 0.44420
H11 H -0.03940 0.22730 0.31550
H12 H -0.11800 0.23300 0.49160
C15 C 0.4363(3) 0.1212(2) 0.3137(3)
H13 H 0.41440 0.07300 0.25160
H14 H 0.39130 0.06740 0.41960
H15 H 0.55240 0.12800 0.27450
C16 C 0.9854(2) 0.7689(2) 0.0193(2)
C17 C 0.7298(2) 0.9142(2) 0.0112(2)
C18 C 0.8089(3) 0.8773(2) 0.2380(2)
N1 N 0.1472(2) 0.67411(17) 0.2786(2)
H16 H 0.207(3) 0.741(2) 0.205(2)
H17 H 0.045(2) 0.675(3) 0.299(3)
O1 O 0.10940(17) 0.16648(14) 0.41030(16)
O2 O 1.12151(18) 0.77811(18) -0.05458(19)
O3 O 0.7065(2) 1.00988(17) -0.07046(19)
O4 O 0.8432(2) 0.94978(18) 0.2902(2)
#END
