
#######################################################################
#
#                 Cambridge Crystallographic Data Centre
#                                CCDC
#
#######################################################################
#
# If this CIF has been generated from an entry in the Cambridge
# Structural Database, then it will include bibliographic, chemical,
# crystal, experimental, refinement or atomic coordinate data resulting
# from the CCDC's data processing and validation procedures.
#
#######################################################################

data_CSD_CIF_AZEQAZ
_audit_creation_date 2016-11-21
_audit_creation_method CSD-ConQuest-V1
_database_code_CSD AZEQAZ
_database_code_depnum_ccdc_archive 'CCDC 1404092'
_chemical_formula_sum 'C10 H10 Cr1 N2 O4'
_chemical_formula_moiety
;
C10 H10 Cr1 N2 O4
;
_journal_coden_Cambridge 661
_journal_volume 63
_journal_year 2016
_journal_page_first 275
_journal_name_full 'J.Chin.Chem.Soc.(Taipei) '
loop_
_publ_author_name
"Yu-Pin Wang"
"Xen-Hum Liu"
"Hsiu-Yao Cheng"
"Tso-Shen Lin"
_chemical_name_systematic
;
dicarbonyl-(N,N-dimethylcarbamoylcyclopentadienyl)-nitrosyl-chromium
;
_cell_volume    589.186
_exptl_crystal_colour 'orange'
_exptl_crystal_density_diffrn 1.546
_exptl_special_details
;
Air-sensitive, Oxygen-sensitive

;
_exptl_crystal_description 'block'
_exptl_crystal_preparation 'Sublimation'
_diffrn_ambient_temperature 298
#These two values have been output from a single CSD field.
_refine_ls_R_factor_gt 0.071
_refine_ls_wR_factor_gt 0.071
_symmetry_cell_setting triclinic
_symmetry_space_group_name_H-M 'P -1'
_symmetry_Int_Tables_number 2
loop_
_symmetry_equiv_pos_site_id
_symmetry_equiv_pos_as_xyz
1 x,y,z
2 -x,-y,-z
_cell_length_a 6.406(7)
_cell_length_b 8.805(8)
_cell_length_c 10.71(1)
_cell_angle_alpha 91.73(8)
_cell_angle_beta 93.67(8)
_cell_angle_gamma 101.96(8)
_cell_formula_units_Z 2
loop_
_atom_type_symbol
_atom_type_radius_bond
C 0.68
H 0.23
Cr 1.39
N 0.68
O 0.68
loop_
_atom_site_label
_atom_site_type_symbol
_atom_site_fract_x
_atom_site_fract_y
_atom_site_fract_z
Cr1 Cr 0.1758(3) 0.17025(20) 0.30817(18)
C1 C 0.2066(16) 0.4233(11) 0.3237(11)
C2 C 0.4191(15) 0.3865(12) 0.3235(12)
C3 C 0.4364(18) 0.3051(13) 0.4300(14)
C4 C 0.2541(23) 0.2843(13) 0.4935(11)
C5 C 0.1125(17) 0.3557(12) 0.4272(11)
C6 C 0.0919(19) 0.5126(12) 0.2318(11)
O1 O -0.1054(13) 0.4852(9) 0.2360(9)
N1 N 0.1914(15) 0.6109(10) 0.1575(9)
C7 C 0.4226(22) 0.6642(15) 0.1597(14)
C8 C 0.0691(22) 0.6919(13) 0.0744(13)
C9 C -0.1079(17) 0.1021(11) 0.2653(11)
O2 O -0.2866(12) 0.0569(10) 0.2413(9)
C10 C 0.2419(17) 0.1356(12) 0.1534(11)
O3 O 0.2891(16) 0.1111(11) 0.0521(9)
N2 N 0.2092(15) -0.0138(11) 0.3539(10)
O4 O 0.2364(14) -0.1309(9) 0.3899(8)
H1 H 0.55300 0.41400 0.25600
H2 H 0.56400 0.26800 0.46100
H3 H 0.23300 0.22800 0.57700
H4 H -0.04100 0.36000 0.45400
H5 H 0.47200 0.74400 0.09500
H6 H 0.48000 0.72300 0.24600
H7 H 0.50200 0.57900 0.15100
H8 H 0.16100 0.76300 0.01800
H9 H -0.03700 0.61200 0.01500
H10 H -0.01600 0.75200 0.12200
#END
