
#######################################################################
#
#                 Cambridge Crystallographic Data Centre
#                                CCDC
#
#######################################################################
#
# If this CIF has been generated from an entry in the Cambridge
# Structural Database, then it will include bibliographic, chemical,
# crystal, experimental, refinement or atomic coordinate data resulting
# from the CCDC's data processing and validation procedures.
#
#######################################################################

data_CSD_CIF_AZISUY
_audit_creation_date 2011-11-29
_audit_creation_method CSD-ConQuest-V1
_database_code_CSD AZISUY
_database_code_depnum_ccdc_archive 'CCDC 850358'
_chemical_formula_sum 'C10 H14 Cl2 Mn1 N2 O2'
_chemical_formula_moiety
;
C10 H14 Cl2 Mn1 N2 O2
;
_journal_coeditor_code "IUCr NG5215"
_journal_coden_Cambridge 1370
_journal_volume 67
_journal_year 2011
_journal_page_first m1367
_journal_name_full 'Acta Crystallogr.,Sect.E:Struct.Rep.Online '
loop_
_publ_author_name
"M.Karthikeyan"
"S.Karthikeyan"
"Bala.Manimaran"
_chemical_name_systematic
;
Diaqua-dichlorido-bis(pyridine)-manganese(ii)
;
_cell_volume    322.302
_exptl_crystal_colour 'colorless'
_exptl_crystal_density_diffrn 1.649
_exptl_crystal_description 'block'
_diffrn_ambient_temperature 150
#These two values have been output from a single CSD field.
_refine_ls_R_factor_gt 0.0216
_refine_ls_wR_factor_gt 0.0216
_symmetry_cell_setting triclinic
_symmetry_space_group_name_H-M 'P -1'
_symmetry_Int_Tables_number 2
loop_
_symmetry_equiv_pos_site_id
_symmetry_equiv_pos_as_xyz
1 x,y,z
2 -x,-y,-z
_cell_length_a 6.2290(5)
_cell_length_b 6.6327(5)
_cell_length_c 8.6831(7)
_cell_angle_alpha 108.931(7)
_cell_angle_beta 103.499(7)
_cell_angle_gamma 96.969(6)
_cell_formula_units_Z 1
loop_
_atom_type_symbol
_atom_type_radius_bond
C 0.68
H 0.23
Cl 0.99
Mn 1.61
N 0.68
O 0.68
loop_
_atom_site_label
_atom_site_type_symbol
_atom_site_fract_x
_atom_site_fract_y
_atom_site_fract_z
H1 H 0.097(2) -0.252(4) 0.484(3)
H2 H 0.237(5) -0.3957(19) 0.455(3)
Mn1 Mn 0.50000 0.00000 0.50000
Cl1 Cl 0.22317(7) 0.23567(7) 0.43191(5)
N1 N 0.4713(2) -0.1480(2) 0.22133(17)
O1 O 0.2181(2) -0.2694(2) 0.45397(16)
C1 C 0.6365(3) -0.2269(3) -0.0085(2)
H3 H 0.76570 -0.21950 -0.04440
C2 C 0.4261(3) -0.3200(3) -0.1260(2)
H4 H 0.41120 -0.37820 -0.24190
C3 C 0.6529(3) -0.1449(3) 0.1626(2)
H5 H 0.79560 -0.08500 0.24070
C4 C 0.2673(3) -0.2372(3) 0.1057(2)
H6 H 0.13980 -0.24010 0.14400
C5 C 0.2383(3) -0.3246(3) -0.0671(2)
H7 H 0.09430 -0.38570 -0.14290
H1A H 0.903(2) 0.252(4) 0.516(3)
H2A H 0.763(5) 0.3957(19) 0.545(3)
Cl1A Cl 0.77683(7) -0.23567(7) 0.56809(5)
N1A N 0.5287(2) 0.1480(2) 0.77867(17)
O1A O 0.7819(2) 0.2694(2) 0.54603(16)
C1A C 0.3635(3) 0.2269(3) 1.0085(2)
H3A H 0.23430 0.21950 1.04440
C2A C 0.5739(3) 0.3200(3) 1.1260(2)
H4A H 0.58880 0.37820 1.24190
C3A C 0.3471(3) 0.1449(3) 0.8374(2)
H5A H 0.20440 0.08500 0.75930
C4A C 0.7327(3) 0.2372(3) 0.8943(2)
H6A H 0.86020 0.24010 0.85600
C5A C 0.7617(3) 0.3246(3) 1.0671(2)
H7A H 0.90570 0.38570 1.14290
#END
