
#######################################################################
#
#                 Cambridge Crystallographic Data Centre
#                                CCDC
#
#######################################################################
#
# If this CIF has been generated from an entry in the Cambridge
# Structural Database, then it will include bibliographic, chemical,
# crystal, experimental, refinement or atomic coordinate data resulting
# from the CCDC's data processing and validation procedures.
#
#######################################################################

data_CSD_CIF_AZMTCO
_audit_creation_date 1979-01-19
_audit_creation_method CSD-ConQuest-V1
_database_code_CSD AZMTCO
_database_code_depnum_ccdc_archive 'CCDC 1104307'
_chemical_formula_sum 'C12 H28 Co1 N13'
_chemical_formula_moiety
;
C12 H28 Co1 N10 1+,N3 1-
;
_journal_coden_Cambridge 186
_journal_year 1978
_journal_page_first 1131
_journal_name_full 'J.Chem.Soc.,Dalton Trans. '
loop_
_publ_author_name
"R.J.Restivo"
"G.Ferguson"
"R.W.Hay"
"D.P.Piplani"
_chemical_name_systematic
;
trans-Diazido-(C-meso-5,12-dimethyl-1,4,8,11-tetra-azacyclotetradecane)-cobalt
(iii) azide
;
_cell_volume    464.559
_diffrn_ambient_temperature 295
#These two values have been output from a single CSD field.
_refine_ls_R_factor_gt 0.073
_refine_ls_wR_factor_gt 0.073
_symmetry_cell_setting triclinic
_symmetry_space_group_name_H-M 'P -1'
_symmetry_Int_Tables_number 2
loop_
_symmetry_equiv_pos_site_id
_symmetry_equiv_pos_as_xyz
1 x,y,z
2 -x,-y,-z
_cell_length_a 7.932(4)
_cell_length_b 7.232(4)
_cell_length_c 10.392(5)
_cell_angle_alpha 109.71(3)
_cell_angle_beta 124.07(2)
_cell_angle_gamma 80.78(3)
_cell_formula_units_Z 1
loop_
_atom_type_symbol
_atom_type_radius_bond
C 0.68
H 0.23
Co 1.33
N 0.68
loop_
_atom_site_label
_atom_site_type_symbol
_atom_site_fract_x
_atom_site_fract_y
_atom_site_fract_z
Co1 Co 0.00000 0.00000 0.00000
N1 N 0.25110 -0.15340 0.06470
N2 N 0.13850 0.16050 0.23680
N3 N -0.09880 -0.18960 0.04200
N4 N -0.23250 -0.16280 0.06300
N5 N -0.35880 -0.14430 0.09070
C1 C 0.36730 -0.10270 0.24630
C2 C 0.35690 0.10790 0.31290
C3 C 0.11170 0.37250 0.27900
C4 C -0.11630 0.41610 0.19610
C5 C 0.23100 -0.36210 -0.01290
C6 C 0.22110 0.47120 0.46110
H1 H 0.32000 -0.09600 0.03500
H2 H 0.30900 -0.17400 0.27700
H3 H 0.50700 -0.14300 0.28900
H4 H 0.42800 0.14700 0.43000
H5 H 0.42500 0.17800 0.28800
H6 H 0.07900 0.10500 0.27700
H7 H 0.17000 0.43000 0.24000
H8 H -0.17900 0.34400 0.22300
H9 H -0.13200 0.55400 0.24000
H10 H 0.15800 -0.42200 0.01400
H11 H 0.36400 -0.41700 0.02900
H12 H 0.20700 0.61200 0.49000
H13 H 0.36300 0.44800 0.51300
H14 H 0.16700 0.42000 0.50500
N6 N 0.10470 0.01860 0.45920
N7 N 0.00000 0.00000 0.50000
N1A N -0.25110 0.15340 -0.06470
N2A N -0.13850 -0.16050 -0.23680
N3A N 0.09880 0.18960 -0.04200
C5A C -0.23100 0.36210 0.01290
C4A C 0.11630 -0.41610 -0.19610
C1A C -0.36730 0.10270 -0.24630
H1A H -0.32000 0.09600 -0.03500
C2A C -0.35690 -0.10790 -0.31290
C3A C -0.11170 -0.37250 -0.27900
H6A H -0.07900 -0.10500 -0.27700
N4A N 0.23250 0.16280 -0.06300
H10A H -0.15800 0.42200 -0.01400
H11A H -0.36400 0.41700 -0.02900
H8A H 0.17900 -0.34400 -0.22300
H9A H 0.13200 -0.55400 -0.24000
H2A H -0.30900 0.17400 -0.27700
H3A H -0.50700 0.14300 -0.28900
H4A H -0.42800 -0.14700 -0.43000
H5A H -0.42500 -0.17800 -0.28800
C6A C -0.22110 -0.47120 -0.46110
H7A H -0.17000 -0.43000 -0.24000
N5A N 0.35880 0.14430 -0.09070
H12A H -0.20700 -0.61200 -0.49000
H13A H -0.36300 -0.44800 -0.51300
H14A H -0.16700 -0.42000 -0.50500
N6A N -0.10470 -0.01860 0.54080
#END
