
#######################################################################
#
#                 Cambridge Crystallographic Data Centre
#                                CCDC
#
#######################################################################
#
# If this CIF has been generated from an entry in the Cambridge
# Structural Database, then it will include bibliographic, chemical,
# crystal, experimental, refinement or atomic coordinate data resulting
# from the CCDC's data processing and validation procedures.
#
#######################################################################

data_CSD_CIF_BACNOJ
_audit_creation_date 2002-04-24
_audit_creation_method CSD-ConQuest-V1
_database_code_CSD BACNOJ
_database_code_depnum_ccdc_archive 'CCDC 159102'
_chemical_formula_sum 'C30 H30 Co1 N4 O10 S2'
_chemical_formula_moiety
;
C30 H30 Co1 N4 O10 S2
;
_journal_coden_Cambridge 580
_journal_volume 20
_journal_year 2001
_journal_page_first 3239
_journal_name_full 'Polyhedron '
loop_
_publ_author_name
"D.Cupertino"
"M.McPartlin"
"A.M.Zissimos"
_chemical_name_systematic
;
bis(3-nitro-5-phenylsalicyaldoximato)-bis(dimethylsulfoxo)-cobalt(ii)
;
_cell_volume    811.454
_exptl_crystal_colour 'red'
_exptl_crystal_density_diffrn 1.493
_exptl_crystal_description 'block'
_diffrn_ambient_temperature 293
#These two values have been output from a single CSD field.
_refine_ls_R_factor_gt 0.0661
_refine_ls_wR_factor_gt 0.0661
_symmetry_cell_setting triclinic
_symmetry_space_group_name_H-M 'P -1'
_symmetry_Int_Tables_number 2
loop_
_symmetry_equiv_pos_site_id
_symmetry_equiv_pos_as_xyz
1 x,y,z
2 -x,-y,-z
_cell_length_a 8.194(5)
_cell_length_b 8.483(5)
_cell_length_c 12.578(7)
_cell_angle_alpha 100.21(5)
_cell_angle_beta 92.31(5)
_cell_angle_gamma 108.53(5)
_cell_formula_units_Z 1
loop_
_atom_type_symbol
_atom_type_radius_bond
C 0.68
H 0.23
Co 1.33
N 0.68
O 0.68
S 1.02
loop_
_atom_site_label
_atom_site_type_symbol
_atom_site_fract_x
_atom_site_fract_y
_atom_site_fract_z
Co1 Co 0.00000 0.00000 0.00000
S1 S -0.3937(2) -0.2285(2) -0.09141(14)
O1 O 0.0602(5) 0.0958(4) -0.1328(3)
O2 O -0.0595(6) -0.3702(5) -0.0309(3)
O3 O 0.2157(7) 0.3739(5) -0.3589(4)
O4 O 0.2285(9) 0.3841(6) -0.1884(4)
O5 O -0.2708(5) -0.0497(5) -0.0451(4)
N1 N -0.0098(6) -0.2332(5) -0.0829(3)
N2 N 0.2077(7) 0.3044(6) -0.2817(4)
C1 C 0.0786(7) -0.1528(6) -0.2537(4)
C2 C 0.1038(7) 0.0265(6) -0.2225(5)
C3 C 0.1753(7) 0.1225(6) -0.3018(4)
C4 C 0.2186(8) 0.0522(7) -0.4016(5)
H1 H 0.2636(8) 0.1217(7) -0.4502(5)
C5 C 0.1948(8) -0.1205(7) -0.4288(5)
C6 C 0.1215(7) -0.2180(7) -0.3521(5)
H2 H 0.1009(7) -0.3344(7) -0.3695(5)
C7 C 0.0199(7) -0.2737(6) -0.1821(5)
C8 C -0.5238(11) -0.205(1) -0.2002(7)
H3 H -0.4554(11) -0.1805(10) -0.2592(7)
H4 H -0.5671(11) -0.1135(10) -0.1758(7)
H5 H -0.6192(11) -0.3082(10) -0.2244(7)
C9 C -0.5499(12) -0.271(1) 0.0014(6)
H6 H -0.4985(12) -0.2877(10) 0.0666(6)
H7 H -0.6445(12) -0.3716(10) -0.0303(6)
H8 H -0.5919(12) -0.1769(10) 0.0185(6)
C10 C 0.2438(8) -0.1978(7) -0.5324(5)
C11 C 0.3015(9) -0.3388(8) -0.5370(6)
H9 H 0.3106(9) -0.3810(8) -0.4745(6)
C12 C 0.3442(10) -0.4142(8) -0.6328(6)
H10 H 0.3853(10) -0.5049(8) -0.6345(6)
C13 C 0.3261(10) -0.3551(9) -0.7263(6)
H11 H 0.3499(10) -0.4097(9) -0.7917(6)
C14 C 0.2734(9) -0.2171(9) -0.7239(5)
H12 H 0.2649(9) -0.1759(9) -0.7869(5)
C15 C 0.2327(8) -0.1391(8) -0.6276(5)
H13 H 0.1972(8) -0.0450(8) -0.6265(5)
H14 H 0.01370 -0.39700 -0.22000
H15 H -0.08190 -0.33010 0.03860
O1A O -0.0602(5) -0.0958(4) 0.1328(3)
C2A C -0.1038(7) -0.0265(6) 0.2225(5)
C1A C -0.0786(7) 0.1528(6) 0.2537(4)
C6A C -0.1215(7) 0.2180(7) 0.3521(5)
C5A C -0.1948(8) 0.1205(7) 0.4288(5)
C4A C -0.2186(8) -0.0522(7) 0.4016(5)
C3A C -0.1753(7) -0.1225(6) 0.3018(4)
N2A N -0.2077(7) -0.3044(6) 0.2817(4)
O3A O -0.2157(7) -0.3739(5) 0.3589(4)
O4A O -0.2285(9) -0.3841(6) 0.1884(4)
H1A H -0.2636(8) -0.1217(7) 0.4502(5)
C10A C -0.2438(8) 0.1978(7) 0.5324(5)
C11A C -0.3015(9) 0.3388(8) 0.5370(6)
H9A H -0.3106(9) 0.3810(8) 0.4745(6)
C12A C -0.3442(10) 0.4142(8) 0.6328(6)
H10A H -0.3853(10) 0.5049(8) 0.6345(6)
C13A C -0.3261(10) 0.3551(9) 0.7263(6)
H11A H -0.3499(10) 0.4097(9) 0.7917(6)
C14A C -0.2734(9) 0.2171(9) 0.7239(5)
H12A H -0.2649(9) 0.1759(9) 0.7869(5)
C15A C -0.2327(8) 0.1391(8) 0.6276(5)
H13A H -0.1972(8) 0.0450(8) 0.6265(5)
H2A H -0.1009(7) 0.3344(7) 0.3695(5)
C7A C -0.0199(7) 0.2737(6) 0.1821(5)
N1A N 0.0098(6) 0.2332(5) 0.0829(3)
O5A O 0.2708(5) 0.0497(5) 0.0451(4)
S1A S 0.3937(2) 0.2285(2) 0.09141(14)
C8A C 0.5238(11) 0.205(1) 0.2002(7)
H3A H 0.4554(11) 0.1805(10) 0.2592(7)
H4A H 0.5671(11) 0.1135(10) 0.1758(7)
H5A H 0.6192(11) 0.3082(10) 0.2244(7)
C9A C 0.5499(12) 0.271(1) -0.0014(6)
H6A H 0.4985(12) 0.2877(10) -0.0666(6)
H7A H 0.6445(12) 0.3716(10) 0.0303(6)
H8A H 0.5919(12) 0.1769(10) -0.0185(6)
O2A O 0.0595(6) 0.3702(5) 0.0309(3)
H15A H 0.08190 0.33010 -0.03860
H14A H -0.01370 0.39700 0.22000
#END
