
#######################################################################
#
#                 Cambridge Crystallographic Data Centre
#                                CCDC
#
#######################################################################
#
# If this CIF has been generated from an entry in the Cambridge
# Structural Database, then it will include bibliographic, chemical,
# crystal, experimental, refinement or atomic coordinate data resulting
# from the CCDC's data processing and validation procedures.
#
#######################################################################

data_CSD_CIF_BADXAG
_audit_creation_date 2002-04-24
_audit_creation_method CSD-ConQuest-V1
_database_code_CSD BADXAG
_database_code_depnum_ccdc_archive 'CCDC 156793'
_chemical_formula_sum 'C18 H23 Fe1 N1'
_chemical_formula_moiety
;
C18 H23 Fe1 N1
;
_journal_coden_Cambridge 36
_journal_volume 637
_journal_year 2001
_journal_page_first 621
_journal_name_full 'J.Organomet.Chem. '
loop_
_publ_author_name
"P.Liptau"
"S.Knuppel"
"G.Kehr"
"O.Kataeva"
"R.Frohlich"
"G.Erker"
_chemical_name_systematic
;
trans-(1,3-bis(\h^5^-Cyclopentadienyl)-1-(pyrrolidinyl)butane)-iron
;
_cell_volume    735.087
_exptl_crystal_colour 'yellow'
_exptl_crystal_density_diffrn 1.397
_exptl_crystal_description 'block'
_exptl_crystal_preparation 'pentane'
_diffrn_ambient_temperature 198
#These two values have been output from a single CSD field.
_refine_ls_R_factor_gt 0.0373
_refine_ls_wR_factor_gt 0.0373
_symmetry_cell_setting triclinic
_symmetry_space_group_name_H-M 'P -1'
_symmetry_Int_Tables_number 2
loop_
_symmetry_equiv_pos_site_id
_symmetry_equiv_pos_as_xyz
1 x,y,z
2 -x,-y,-z
_cell_length_a 6.066(1)
_cell_length_b 10.704(1)
_cell_length_c 11.695(1)
_cell_angle_alpha 94.48(1)
_cell_angle_beta 102.63(1)
_cell_angle_gamma 94.55(1)
_cell_formula_units_Z 2
loop_
_atom_type_symbol
_atom_type_radius_bond
C 0.68
H 0.23
Fe 1.34
N 0.68
loop_
_atom_site_label
_atom_site_type_symbol
_atom_site_fract_x
_atom_site_fract_y
_atom_site_fract_z
Fe1 Fe 0.19707(5) 0.29878(3) 0.40956(2)
C1 C 0.0908(3) 0.11659(19) 0.41349(18)
C2 C 0.3326(3) 0.1354(2) 0.45129(18)
H1 H 0.43710 0.09430 0.41550
C3 C 0.3905(3) 0.2257(2) 0.55130(18)
H2 H 0.53990 0.25640 0.59320
C4 C 0.1856(4) 0.2623(2) 0.57772(18)
H3 H 0.17370 0.32150 0.64040
C5 C 0.0022(3) 0.1945(2) 0.49386(18)
H4 H -0.15420 0.20010 0.49150
C6 C -0.0482(4) 0.0376(2) 0.30500(19)
H5 H -0.14580 -0.02720 0.33350
C7 C -0.2108(3) 0.1138(2) 0.22437(18)
H6 H -0.30160 0.15770 0.27270
H7 H -0.31740 0.05380 0.16510
C8 C -0.1023(3) 0.21217(19) 0.15863(17)
H8 H -0.00870 0.16850 0.11040
N1 N -0.2796(3) 0.26965(17) 0.07895(15)
C9 C 0.0997(4) -0.0345(2) 0.2388(2)
H9 H 0.20990 0.02510 0.21610
H10 H 0.00390 -0.08220 0.16800
H11 H 0.18040 -0.09260 0.28960
C10 C 0.0484(3) 0.31577(18) 0.24033(17)
C11 C -0.0287(3) 0.40451(19) 0.31700(17)
H12 H -0.18190 0.40950 0.32230
C12 C 0.1619(3) 0.48377(19) 0.38373(18)
H13 H 0.15880 0.55010 0.44210
C13 C 0.3582(3) 0.44654(19) 0.34787(18)
H14 H 0.50960 0.48350 0.37810
C14 C 0.2881(3) 0.34455(19) 0.25900(17)
H15 H 0.38480 0.30230 0.21850
C15 C -0.4348(4) 0.1809(2) -0.0101(2)
H16 H -0.54800 0.13470 0.02450
H17 H -0.35070 0.11950 -0.04680
C16 C -0.5476(5) 0.2653(3) -0.0992(2)
H18 H -0.59310 0.21930 -0.17880
H19 H -0.68410 0.29580 -0.07730
C17 C -0.3710(5) 0.3738(3) -0.0960(2)
H20 H -0.43570 0.45530 -0.08840
H21 H -0.31180 0.36820 -0.16850
C18 C -0.1835(4) 0.3612(2) 0.0118(2)
H22 H -0.04870 0.33100 -0.01220
H23 H -0.13770 0.44340 0.05970
#END
