
#######################################################################
#
#                 Cambridge Crystallographic Data Centre
#                                CCDC
#
#######################################################################
#
# If this CIF has been generated from an entry in the Cambridge
# Structural Database, then it will include bibliographic, chemical,
# crystal, experimental, refinement or atomic coordinate data resulting
# from the CCDC's data processing and validation procedures.
#
#######################################################################

data_CSD_CIF_BADYUB
_audit_creation_date 2002-04-24
_audit_creation_method CSD-ConQuest-V1
_database_code_CSD BADYUB
_database_code_depnum_ccdc_archive 'CCDC 157004'
_chemical_formula_sum 'C19 H20 Fe1 I1 N1'
_chemical_formula_moiety
;
C19 H20 Fe1 N1 1+,I1 1-
;
_journal_coden_Cambridge 36
_journal_volume 637
_journal_year 2001
_journal_page_first 531
_journal_name_full 'J.Organomet.Chem. '
loop_
_publ_author_name
"K.Roque"
"F.Barange"
"G.G.A.Balavoine"
"J.-C.Daran"
"P.G.Lacroix"
"E.Manoury"
_chemical_name_systematic
;
4-((E)-2-((R)-2'-Methylferrocenyl)ethenyl)-1-methylpyridinium iodide
;
_cell_volume   1749.381
_exptl_crystal_colour 'dark purple'
_exptl_crystal_density_diffrn 1.69
_exptl_crystal_description 'flat'
_diffrn_ambient_temperature 180
#These two values have been output from a single CSD field.
_refine_ls_R_factor_gt 0.0215
_refine_ls_wR_factor_gt 0.0215
_symmetry_cell_setting monoclinic
_symmetry_space_group_name_H-M 'C 2'
_symmetry_Int_Tables_number 5
loop_
_symmetry_equiv_pos_site_id
_symmetry_equiv_pos_as_xyz
1 x,y,z
2 -x,y,-z
3 1/2+x,1/2+y,z
4 1/2-x,1/2+y,-z
_cell_length_a 14.672(3)
_cell_length_b 7.5156(8)
_cell_length_c 15.984(3)
_cell_angle_alpha 90
_cell_angle_beta 97.005(18)
_cell_angle_gamma 90
_cell_formula_units_Z 4
loop_
_atom_type_symbol
_atom_type_radius_bond
C 0.68
H 0.23
Fe 1.34
I 1.40
N 0.68
loop_
_atom_site_label
_atom_site_type_symbol
_atom_site_fract_x
_atom_site_fract_y
_atom_site_fract_z
I1 I 0.631936(13) -0.002730(13) 0.862681(11)
Fe1 Fe 0.20964(2) -0.00394(17) 0.63518(2)
N1 N -0.12648(14) 0.0014(10) 0.97951(13)
C1 C 0.0722(2) -0.0396(6) 0.6327(2)
C2 C 0.1094(5) -0.1739(9) 0.5830(4)
C3 C 0.1496(5) -0.0794(11) 0.5184(4)
H1 H 0.17880 -0.13330 0.47500
C4 C 0.1390(5) 0.1065(11) 0.5291(5)
H2 H 0.16040 0.19810 0.49550
C5 C 0.0913(4) 0.1291(9) 0.5985(4)
H3 H 0.07410 0.24050 0.61990
C6 C 0.2689(5) -0.0975(12) 0.7491(4)
H4 H 0.24000 -0.17200 0.78610
C7 C 0.3200(6) -0.1536(15) 0.6840(5)
H5 H 0.33260 -0.27310 0.66980
C8 C 0.3491(2) 0.002(3) 0.6438(2)
H6 H 0.38430 0.00420 0.59780
C9 C 0.3177(6) 0.1491(13) 0.6829(5)
H7 H 0.32690 0.27000 0.66860
C10 C 0.2691(6) 0.0868(13) 0.7484(4)
H8 H 0.24090 0.16040 0.78620
C11 C 0.0286(2) -0.0727(6) 0.7086(2)
H9 H 0.02320 -0.19260 0.72610
C12 C -0.0043(2) 0.0547(6) 0.7551(2)
H10 H 0.00030 0.17410 0.73650
C13 C 0.1063(3) -0.3700(8) 0.5931(3)
H11 H 0.10870 -0.39960 0.65310
H12 H 0.15890 -0.42380 0.57040
H13 H 0.04920 -0.41620 0.56260
C14 C -0.0466(2) 0.0255(10) 0.8319(2)
C15 C -0.0704(4) 0.1792(9) 0.8757(4)
H14 H -0.05910 0.29450 0.85490
C16 C -0.1091(4) 0.1598(10) 0.9471(4)
H15 H -0.12480 0.26380 0.97590
C17 C -0.1054(5) -0.1509(10) 0.9402(4)
H16 H -0.11800 -0.26340 0.96330
C18 C -0.0649(4) -0.1405(8) 0.8656(3)
H17 H -0.04990 -0.24620 0.83770
C19 C -0.1735(2) -0.0127(13) 1.05590(18)
H18 H -0.16580 -0.13330 1.07900
H19 H -0.23900 0.01250 1.04130
H20 H -0.14690 0.07340 1.09800
#END
