
#######################################################################
#
#                 Cambridge Crystallographic Data Centre
#                                CCDC
#
#######################################################################
#
# If this CIF has been generated from an entry in the Cambridge
# Structural Database, then it will include bibliographic, chemical,
# crystal, experimental, refinement or atomic coordinate data resulting
# from the CCDC's data processing and validation procedures.
#
#######################################################################

data_CSD_CIF_BAFJEA01
_audit_creation_date 2018-10-22
_audit_creation_method CSD-ConQuest-V1
_database_code_CSD BAFJEA01
_database_code_depnum_ccdc_archive 'CCDC 1834802'
_chemical_formula_sum 'C15 H8 Mn1 N1 O4'
_chemical_formula_moiety
;
C15 H8 Mn1 N1 O4
;
_journal_coden_Cambridge 179
_journal_volume 57
_journal_year 2018
_journal_page_first 12906
_journal_name_full 'Angew.Chem.,Int.Ed. '
loop_
_publ_author_name
"Zhongfei Yan"
"Xiang-Ai Yuan"
"Yue Zhao"
"Chengjian Zhu"
"Jin Xie"
_chemical_name_systematic
;
tetracarbonyl-(2-(pyridin-2-yl)phenyl)-manganese
;
_cell_volume    677.389
_exptl_crystal_density_diffrn 1.575
_exptl_special_details
;
triclinic P-1 polymorph

;
_diffrn_ambient_temperature 153
#These two values have been output from a single CSD field.
_refine_ls_R_factor_gt 0.0347
_refine_ls_wR_factor_gt 0.0347
_symmetry_cell_setting triclinic
_symmetry_space_group_name_H-M 'P -1'
_symmetry_Int_Tables_number 2
loop_
_symmetry_equiv_pos_site_id
_symmetry_equiv_pos_as_xyz
1 x,y,z
2 -x,-y,-z
_cell_length_a 6.960(5)
_cell_length_b 10.246(7)
_cell_length_c 10.545(7)
_cell_angle_alpha 90.027(10)
_cell_angle_beta 108.516(10)
_cell_angle_gamma 107.218(9)
_cell_formula_units_Z 2
loop_
_atom_type_symbol
_atom_type_radius_bond
C 0.68
H 0.23
Mn 1.61
N 0.68
O 0.68
loop_
_atom_site_label
_atom_site_type_symbol
_atom_site_fract_x
_atom_site_fract_y
_atom_site_fract_z
C1 C 0.4349(4) 0.6169(2) 0.1862(2)
C2 C 0.2947(4) 0.5475(3) 0.0638(3)
H1 H 0.22085 0.59615 -0.00046
C3 C 0.2589(5) 0.4101(3) 0.0325(3)
H2 H 0.16041 0.36472 -0.05199
C4 C 0.3670(5) 0.3384(3) 0.1243(3)
H3 H 0.34434 0.24376 0.10298
C5 C 0.5087(4) 0.4054(3) 0.2479(3)
H4 H 0.58433 0.35710 0.31146
C6 C 0.5394(4) 0.5437(3) 0.2781(2)
C7 C 0.6767(4) 0.6213(2) 0.4092(2)
C8 C 0.7949(4) 0.5655(3) 0.5153(3)
H5 H 0.79097 0.47258 0.50458
C9 C 0.9171(4) 0.6448(3) 0.6354(3)
H6 H 0.99770 0.60737 0.70796
C10 C 0.9208(4) 0.7794(3) 0.6488(3)
H7 H 1.00375 0.83523 0.73133
C11 C 0.8041(4) 0.8333(3) 0.5426(3)
H8 H 0.80917 0.92647 0.55319
C12 C 0.7421(4) 0.8641(2) 0.2019(2)
C13 C 0.2659(4) 0.7550(3) 0.3090(3)
C14 C 0.3426(5) 0.8577(3) 0.0923(3)
C15 C 0.5602(5) 0.9932(3) 0.3291(3)
Mn1 Mn 0.50040(6) 0.81990(4) 0.25285(4)
N1 N 0.6811(3) 0.7557(2) 0.4220(2)
O1 O 0.1201(3) 0.7123(2) 0.3404(2)
O2 O 0.2470(4) 0.8841(3) -0.0088(2)
O3 O 0.5901(4) 1.1018(2) 0.3753(3)
O4 O 0.8903(3) 0.8910(2) 0.1720(2)
#END
