
#######################################################################
#
#                 Cambridge Crystallographic Data Centre
#                                CCDC
#
#######################################################################
#
# If this CIF has been generated from an entry in the Cambridge
# Structural Database, then it will include bibliographic, chemical,
# crystal, experimental, refinement or atomic coordinate data resulting
# from the CCDC's data processing and validation procedures.
#
#######################################################################

data_CSD_CIF_BAKKIJ
_audit_creation_date 2012-02-16
_audit_creation_method CSD-ConQuest-V1
_database_code_CSD BAKKIJ
_database_code_depnum_ccdc_archive 'CCDC 643325'
_chemical_formula_sum 'C16 H11 Fe1 N3 O2'
_chemical_formula_moiety
;
C16 H11 Fe1 N3 O2
;
_journal_coden_Cambridge 1003
_journal_volume 42
_journal_year 2012
_journal_page_first 1
_journal_name_full 'J.Chem.Cryst. '
loop_
_publ_author_name
"Bei-Bei Zhu"
"Yao-Cheng Shi"
"Qian-Kun Li"
_chemical_name_systematic
;
N-(2-pyrimidyl)ferrocene-1, 1'-diyldicarboximide
;
_cell_volume   2773.383
_exptl_crystal_colour 'red'
_exptl_crystal_density_diffrn 1.596
_exptl_crystal_description 'cubic'
_diffrn_ambient_temperature 295
#These two values have been output from a single CSD field.
_refine_ls_R_factor_gt 0.0388
_refine_ls_wR_factor_gt 0.0388
_symmetry_cell_setting orthorhombic
_symmetry_space_group_name_H-M 'F d d 2'
_symmetry_Int_Tables_number 43
loop_
_symmetry_equiv_pos_site_id
_symmetry_equiv_pos_as_xyz
1 x,y,z
2 -x,-y,z
3 1/4+x,1/4-y,1/4+z
4 1/4-x,1/4+y,1/4+z
5 x,1/2+y,1/2+z
6 -x,1/2-y,1/2+z
7 1/4+x,3/4-y,3/4+z
8 1/4-x,3/4+y,3/4+z
9 1/2+x,y,1/2+z
10 1/2-x,-y,1/2+z
11 3/4+x,1/4-y,3/4+z
12 3/4-x,1/4+y,3/4+z
13 1/2+x,1/2+y,z
14 1/2-x,1/2-y,z
15 3/4+x,3/4-y,1/4+z
16 3/4-x,3/4+y,1/4+z
_cell_length_a 13.138(2)
_cell_length_b 17.888(1)
_cell_length_c 11.801(1)
_cell_angle_alpha 90
_cell_angle_beta 90
_cell_angle_gamma 90
_cell_formula_units_Z 8
loop_
_atom_type_symbol
_atom_type_radius_bond
C 0.68
H 0.23
Fe 1.52
N 0.68
O 0.68
loop_
_atom_site_label
_atom_site_type_symbol
_atom_site_fract_x
_atom_site_fract_y
_atom_site_fract_z
Fe1 Fe 0.50000 0.50000 0.51387(9)
O1 O 0.6719(3) 0.5118(2) 0.2381(4)
C1 C 0.50000 0.50000 -0.1063(13)
H1 H 0.50000 0.50000 -0.18510
N1 N 0.5406(6) 0.4399(4) 0.0646(6)
N2 N 0.50000 0.50000 0.2343(5)
C2 C 0.5397(8) 0.4426(5) -0.0492(7)
H2 H 0.56790 0.40300 -0.08960
C3 C 0.50000 0.50000 0.1139(11)
C4 C 0.5963(4) 0.4927(3) 0.2878(5)
C5 C 0.5992(4) 0.4618(3) 0.4037(5)
C6 C 0.6549(4) 0.4960(4) 0.4947(8)
H3 H 0.69950 0.53620 0.48890
C7 C 0.6294(4) 0.4572(4) 0.5943(6)
H4 H 0.65420 0.46790 0.66630
C8 C 0.5598(5) 0.3991(4) 0.5675(7)
H5 H 0.53090 0.36570 0.61870
C9 C 0.5420(5) 0.4008(4) 0.4497(6)
H6 H 0.50070 0.36810 0.40920
O1A O 0.3281(3) 0.4882(2) 0.2381(4)
N1A N 0.4594(6) 0.5601(4) 0.0646(6)
C2A C 0.4603(8) 0.5574(5) -0.0492(7)
H2A H 0.43210 0.59700 -0.08960
C4A C 0.4037(4) 0.5073(3) 0.2878(5)
C5A C 0.4008(4) 0.5382(3) 0.4037(5)
C6A C 0.3451(4) 0.5040(4) 0.4947(8)
H3A H 0.30050 0.46380 0.48890
C7A C 0.3706(4) 0.5428(4) 0.5943(6)
H4A H 0.34580 0.53210 0.66630
C8A C 0.4402(5) 0.6009(4) 0.5675(7)
H5A H 0.46910 0.63430 0.61870
C9A C 0.4580(5) 0.5992(4) 0.4497(6)
H6A H 0.49930 0.63190 0.40920
#END
