
#######################################################################
#
#                 Cambridge Crystallographic Data Centre
#                                CCDC
#
#######################################################################
#
# If this CIF has been generated from an entry in the Cambridge
# Structural Database, then it will include bibliographic, chemical,
# crystal, experimental, refinement or atomic coordinate data resulting
# from the CCDC's data processing and validation procedures.
#
#######################################################################

data_CSD_CIF_BAQXAS
_audit_creation_date 1999-11-09
_audit_creation_method CSD-ConQuest-V1
_database_code_CSD BAQXAS
_database_code_depnum_ccdc_archive 'CCDC 133478'
_database_code_depnum_ccdc_journal 182/1305
_chemical_formula_sum 'C10 H24 Br2 Mn1 O7'
_chemical_formula_moiety
;
C10 H24 Mn1 O7 2+,2(Br1 1-)
;
_journal_coden_Cambridge 182
_journal_year 1999
_journal_page_first 1565
_journal_name_full 'Chem.Commun. '
loop_
_publ_author_name
"H.O.N.Reid"
"I.A.Kahwa"
"A.J.P.White"
"D.J.Williams"
_chemical_name_systematic
;
Diaqua-(15-crown-5)-manganese(ii) dibromide
;
_cell_volume   1675.805
_exptl_crystal_density_diffrn 1.867
_exptl_crystal_description 'prisms'
_diffrn_ambient_temperature ?
_diffrn_special_details
;
The study was carried out at room temperature,in the range 283-303K

;
#These two values have been output from a single CSD field.
_refine_ls_R_factor_gt 0.0252
_refine_ls_wR_factor_gt 0.0252
_symmetry_cell_setting monoclinic
_symmetry_space_group_name_H-M 'C 2/c'
_symmetry_Int_Tables_number 15
loop_
_symmetry_equiv_pos_site_id
_symmetry_equiv_pos_as_xyz
1 x,y,z
2 1/2+x,1/2+y,z
3 x,-y,1/2+z
4 1/2+x,1/2-y,1/2+z
5 -x,-y,-z
6 -1/2-x,-1/2-y,-z
7 -x,y,-1/2-z
8 -1/2-x,-1/2+y,-1/2-z
_cell_length_a 13.6981(8)
_cell_length_b 15.8731(7)
_cell_length_c 7.7820(5)
_cell_angle_alpha 90
_cell_angle_beta 97.946(4)
_cell_angle_gamma 90
_cell_formula_units_Z 4
loop_
_atom_type_symbol
_atom_type_radius_bond
C 0.68
H 0.23
Br 1.21
Mn 1.35
O 0.68
loop_
_atom_site_label
_atom_site_type_symbol
_atom_site_fract_x
_atom_site_fract_y
_atom_site_fract_z
Mn1 Mn 0.50000 0.26523(4) 0.25000
O1 O 0.6125(2) 0.26142(14) 0.0828(3)
H1 H 0.6522(23) 0.3056(16) 0.0711(54)
H2 H 0.6450(29) 0.2130(15) 0.0707(64)
O2 O 0.50000 0.1289(2) 0.25000
C1 C 0.5666(3) 0.0832(2) 0.3723(5)
H3 H 0.6274(3) 0.0718(2) 0.3258(5)
H4 H 0.5376(3) 0.0300(2) 0.4002(5)
C2 C 0.5860(3) 0.1376(2) 0.5302(5)
H5 H 0.5272(3) 0.1422(2) 0.5862(5)
H6 H 0.6385(3) 0.1139(2) 0.6124(5)
O3 O 0.6141(2) 0.21904(14) 0.4728(3)
C3 C 0.6340(3) 0.2814(3) 0.6063(4)
H7 H 0.6943(3) 0.2679(3) 0.6820(4)
H8 H 0.5804(3) 0.2840(3) 0.6754(4)
C4 C 0.6443(3) 0.3633(2) 0.5176(5)
H9 H 0.6580(3) 0.4081(2) 0.6023(5)
H10 H 0.6979(3) 0.3607(2) 0.4484(5)
O4 O 0.55237(15) 0.37892(14) 0.4084(3)
C5 C 0.5492(3) 0.4543(2) 0.3053(4)
H11 H 0.6017(3) 0.4542(2) 0.2336(4)
H12 H 0.5564(3) 0.5038(2) 0.3791(4)
Br1 Br 0.73409(3) 0.09488(2) -0.00214(4)
O1F O 0.3875(2) 0.26142(14) 0.4172(3)
H1F H 0.3478(23) 0.3056(16) 0.4289(54)
H2F H 0.3550(29) 0.2130(15) 0.4293(64)
O3F O 0.3859(2) 0.21904(14) 0.0272(3)
C2F C 0.4140(3) 0.1376(2) -0.0302(5)
C1F C 0.4334(3) 0.0832(2) 0.1277(5)
H3F H 0.3726(3) 0.0718(2) 0.1742(5)
H4F H 0.4624(3) 0.0300(2) 0.0998(5)
H5F H 0.4728(3) 0.1422(2) -0.0862(5)
H6F H 0.3615(3) 0.1139(2) -0.1124(5)
C3F C 0.3660(3) 0.2814(3) -0.1063(4)
H7F H 0.3057(3) 0.2679(3) -0.1820(4)
H8F H 0.4196(3) 0.2840(3) -0.1754(4)
C4F C 0.3557(3) 0.3633(2) -0.0176(5)
H9F H 0.3420(3) 0.4081(2) -0.1023(5)
H10F H 0.3021(3) 0.3607(2) 0.0516(5)
O4F O 0.44763(15) 0.37892(14) 0.0916(3)
C5F C 0.4508(3) 0.4543(2) 0.1947(4)
H11F H 0.3983(3) 0.4542(2) 0.2664(4)
H12F H 0.4436(3) 0.5038(2) 0.1209(4)
#END
