
#######################################################################
#
#                 Cambridge Crystallographic Data Centre
#                                CCDC
#
#######################################################################
#
# If this CIF has been generated from an entry in the Cambridge
# Structural Database, then it will include bibliographic, chemical,
# crystal, experimental, refinement or atomic coordinate data resulting
# from the CCDC's data processing and validation procedures.
#
#######################################################################

data_CSD_CIF_BAQXAS01
_audit_creation_date 2001-02-05
_audit_creation_method CSD-ConQuest-V1
_database_code_CSD BAQXAS01
_database_code_depnum_ccdc_archive 'CCDC 155831'
_chemical_formula_sum 'C10 H24 Br2 Mn1 O7'
_chemical_formula_moiety
;
C10 H24 Mn1 O7 2+,2(Br1 1-)
;
_journal_coeditor_code "IUCr NA6008"
_journal_coden_Cambridge 1370
_journal_volume 57
_journal_year 2001
_journal_page_first m3
_journal_name_full 'Acta Crystallogr.,Sect.E:Struct.Rep.Online '
loop_
_publ_author_name
"H.O.N.Reid"
"I.A.Kahwa"
"J.T.Mague"
"G.L.McPherson"
_chemical_name_systematic
;
Diaqua(1,4,7,10,14-pentaoxacyclopentadecane)manganese(ii) dibromide
;
_cell_volume   1671.415
_exptl_crystal_colour 'pale brown'
_exptl_crystal_density_diffrn 1.87
_exptl_crystal_description 'column'
_diffrn_ambient_temperature ?
_diffrn_special_details
;
The study was carried out at room temperature,in the range 283-303K

;
#These two values have been output from a single CSD field.
_refine_ls_R_factor_gt 0.024
_refine_ls_wR_factor_gt 0.024
_symmetry_cell_setting monoclinic
_symmetry_space_group_name_H-M 'C 2/c'
_symmetry_Int_Tables_number 15
loop_
_symmetry_equiv_pos_site_id
_symmetry_equiv_pos_as_xyz
1 x,y,z
2 1/2+x,1/2+y,z
3 x,-y,1/2+z
4 1/2+x,1/2-y,1/2+z
5 -x,-y,-z
6 -1/2-x,-1/2-y,-z
7 -x,y,-1/2-z
8 -1/2-x,-1/2+y,-1/2-z
_cell_length_a 13.687(2)
_cell_length_b 15.856(1)
_cell_length_c 7.7761(9)
_cell_angle_alpha 90
_cell_angle_beta 97.936(9)
_cell_angle_gamma 90
_cell_formula_units_Z 4
loop_
_atom_type_symbol
_atom_type_radius_bond
C 0.68
H 0.23
Br 1.21
Mn 1.35
O 0.68
loop_
_atom_site_label
_atom_site_type_symbol
_atom_site_fract_x
_atom_site_fract_y
_atom_site_fract_z
Br1 Br 0.26553(2) 0.09483(2) 0.50218(4)
Mn1 Mn 0.50000 0.26507(3) 0.25000
O1 O 0.50000 0.1287(2) 0.25000
O2 O 0.3859(1) 0.2188(1) 0.0276(2)
O3 O 0.4474(1) 0.3788(1) 0.0911(2)
O4 O 0.3878(1) 0.2616(1) 0.4169(3)
C1 C 0.4321(2) 0.0836(2) 0.1266(4)
C2 C 0.4136(2) 0.1368(2) -0.0301(4)
C3 C 0.3658(2) 0.2811(2) -0.1066(4)
C4 C 0.3558(2) 0.3635(2) -0.0171(4)
C5 C 0.4511(2) 0.4539(2) 0.1945(4)
H1 H 0.35120 0.30460 0.43890
H2 H 0.35260 0.21520 0.42960
H3 H 0.37220 0.07380 0.17240
H4 H 0.45980 0.03110 0.09940
H5 H 0.47160 0.14100 -0.08400
H6 H 0.36180 0.11370 -0.11000
H7 H 0.30640 0.26790 -0.17980
H8 H 0.41860 0.28370 -0.17390
H9 H 0.34270 0.40740 -0.10030
H10 H 0.30360 0.36050 0.05160
H11 H 0.44290 0.50560 0.12000
H12 H 0.39190 0.45650 0.26050
O2F O 0.6141(1) 0.2188(1) 0.4724(2)
C2F C 0.5864(2) 0.1368(2) 0.5301(4)
C1F C 0.5679(2) 0.0836(2) 0.3734(4)
H3F H 0.62780 0.07380 0.32760
H4F H 0.54020 0.03110 0.40060
H5F H 0.52840 0.14100 0.58400
H6F H 0.63820 0.11370 0.61000
C3F C 0.6342(2) 0.2811(2) 0.6066(4)
C4F C 0.6442(2) 0.3635(2) 0.5171(4)
O3F O 0.5526(1) 0.3788(1) 0.4089(2)
C5F C 0.5489(2) 0.4539(2) 0.3055(4)
H11F H 0.55710 0.50560 0.38000
H12F H 0.60810 0.45650 0.23950
O4F O 0.6122(1) 0.2616(1) 0.0831(3)
H1F H 0.64880 0.30460 0.06110
H2F H 0.64740 0.21520 0.07040
H9F H 0.65730 0.40740 0.60030
H10F H 0.69640 0.36050 0.44840
H7F H 0.69360 0.26790 0.67980
H8F H 0.58140 0.28370 0.67390
#END
