
#######################################################################
#
#                 Cambridge Crystallographic Data Centre
#                                CCDC
#
#######################################################################
#
# If this CIF has been generated from an entry in the Cambridge
# Structural Database, then it will include bibliographic, chemical,
# crystal, experimental, refinement or atomic coordinate data resulting
# from the CCDC's data processing and validation procedures.
#
#######################################################################

data_CSD_CIF_BAVGIO
_audit_creation_date 1982-07-05
_audit_creation_method CSD-ConQuest-V1
_database_code_CSD BAVGIO
_chemical_formula_sum 'C14 H8 Cl2 Cr1 F6'
_chemical_formula_moiety
;
C14 H8 Cl2 Cr1 F6
;
_journal_coden_Cambridge 9
_journal_volume 20
_journal_year 1981
_journal_page_first 3405
_journal_name_full 'Inorg.Chem. '
loop_
_publ_author_name
"M.W.Eyring"
"E.C.Zuerner"
"L.J.Radonovich"
_chemical_name_systematic
;
bis(1-Chloro-3-(trifluoromethyl)-benzene)-chromium(0)
;
_cell_volume    724.858
_exptl_crystal_density_diffrn 1.88
_exptl_special_details
;
x and z of C(7) should be negative. x(C1) should be negative

;
_diffrn_ambient_temperature ?
_diffrn_special_details
;
The study was carried out at room temperature,in the range 283-303K

;
#These two values have been output from a single CSD field.
_refine_ls_R_factor_gt 0.055
_refine_ls_wR_factor_gt 0.055
_symmetry_cell_setting monoclinic
_symmetry_space_group_name_H-M 'P 21/c'
_symmetry_Int_Tables_number 14
loop_
_symmetry_equiv_pos_site_id
_symmetry_equiv_pos_as_xyz
1 x,y,z
2 -x,1/2+y,1/2-z
3 -x,-y,-z
4 x,-1/2-y,-1/2+z
_cell_length_a 8.879(1)
_cell_length_b 8.287(1)
_cell_length_c 10.588(1)
_cell_angle_alpha 90
_cell_angle_beta 111.50(1)
_cell_angle_gamma 90
_cell_formula_units_Z 2
loop_
_atom_type_symbol
_atom_type_radius_bond
C 0.68
H 0.23
Cl 0.99
Cr 1.35
F 0.64
loop_
_atom_site_label
_atom_site_type_symbol
_atom_site_fract_x
_atom_site_fract_y
_atom_site_fract_z
Cr1 Cr 0.00000 0.00000 0.00000
C1 C -0.18780 0.15820 0.00180
C2 C -0.06070 0.25020 -0.01160
C3 C 0.09620 0.22860 0.08220
C4 C 0.13000 0.11680 0.18970
C5 C 0.00310 0.02690 0.20210
C6 C -0.15640 0.04600 0.10940
C7 C -0.35640 0.18100 -0.09880
Cl1 Cl 0.25258 0.34420 0.06760
F1 F -0.44380 0.04720 -0.11900
F2 F -0.35880 0.23040 -0.21770
F3 F -0.43460 0.29250 -0.05670
H1 H -0.08230 0.31720 -0.08440
H2 H 0.24970 0.09820 0.24880
H3 H 0.02640 -0.05560 0.26520
H4 H -0.23880 -0.01630 0.11580
C1B C 0.18780 -0.15820 -0.00180
C2B C 0.06070 -0.25020 0.01160
C3B C -0.09620 -0.22860 -0.08220
C4B C -0.13000 -0.11680 -0.18970
C5B C -0.00310 -0.02690 -0.20210
C6B C 0.15640 -0.04600 -0.10940
C7B C 0.35640 -0.18100 0.09880
H1B H 0.08230 -0.31720 0.08440
Cl1B Cl -0.25258 -0.34420 -0.06760
H2B H -0.24970 -0.09820 -0.24880
H3B H -0.02640 0.05560 -0.26520
H4B H 0.23880 0.01630 -0.11580
F1B F 0.44380 -0.04720 0.11900
F2B F 0.35880 -0.23040 0.21770
F3B F 0.43460 -0.29250 0.05670
#END
