
#######################################################################
#
#                 Cambridge Crystallographic Data Centre
#                                CCDC
#
#######################################################################
#
# If this CIF has been generated from an entry in the Cambridge
# Structural Database, then it will include bibliographic, chemical,
# crystal, experimental, refinement or atomic coordinate data resulting
# from the CCDC's data processing and validation procedures.
#
#######################################################################

data_CSD_CIF_BAVGOU
_audit_creation_date 1982-07-05
_audit_creation_method CSD-ConQuest-V1
_database_code_CSD BAVGOU
_chemical_formula_sum 'C4 H16 Cl1 Cr1 F2 N4 O4'
_chemical_formula_moiety
;
C4 H16 Cr1 F2 N4 1+,Cl1 O4 1-
;
_journal_coden_Cambridge 29
_journal_volume 480
_journal_year 1981
_journal_page_first 213
_journal_name_full 'Z.Anorg.Allg.Chem. '
loop_
_publ_author_name
"J.V.Brencic"
"I.Leban"
_chemical_name_systematic
;
trans-bis(Ethylenediamine)-difluoro-chromium(iii) perchlorate
;
_cell_volume    566.856
_exptl_crystal_density_diffrn 1.81
_diffrn_ambient_temperature ?
_diffrn_special_details
;
The study was carried out at room temperature,in the range 283-303K

;
#These two values have been output from a single CSD field.
_refine_ls_R_factor_gt 0.08
_refine_ls_wR_factor_gt 0.08
loop_
_citation_database_id_CSD
_citation_special_details
FEZXUD "is a stereoisomer of this entry"
_symmetry_cell_setting triclinic
_symmetry_space_group_name_H-M 'P -1'
_symmetry_Int_Tables_number 2
loop_
_symmetry_equiv_pos_site_id
_symmetry_equiv_pos_as_xyz
1 x,y,z
2 -x,-y,-z
_cell_length_a 5.633(1)
_cell_length_b 8.879(2)
_cell_length_c 11.686(2)
_cell_angle_alpha 99.92(2)
_cell_angle_beta 87.22(2)
_cell_angle_gamma 100.02(2)
_cell_formula_units_Z 2
loop_
_atom_type_symbol
_atom_type_radius_bond
C 0.68
H 0.23
Cl 0.99
Cr 1.35
F 0.64
N 0.68
O 0.68
loop_
_atom_site_label
_atom_site_type_symbol
_atom_site_fract_x
_atom_site_fract_y
_atom_site_fract_z
Cr1 Cr 0.00000 0.00000 0.00000
Cr2 Cr 0.00000 0.00000 0.50000
F1 F 0.23300 -0.02270 0.10390
F2 F 0.24750 0.05010 0.60930
N1 N 0.26990 0.07320 -0.11830
N2 N 0.04160 0.23180 0.06890
N3 N -0.24000 0.05340 0.63730
N4 N 0.02540 0.23300 0.48860
C1 C 0.35320 0.24370 -0.08130
C2 C 0.14940 0.32000 -0.02520
C3 C -0.19390 0.22230 0.67150
C4 C -0.17400 0.29450 0.56500
Cl1 Cl 0.57930 0.38260 0.27740
O1 O 0.61400 0.41840 0.16790
O2 O 0.71300 0.27040 0.28760
O3 O 0.34000 0.32490 0.29300
O4 O 0.64660 0.50980 0.35840
H1 H 0.19820 0.05130 -0.20480
H2 H 0.41840 0.01130 -0.11720
H3 H 0.49570 0.26180 -0.01920
H4 H 0.42040 0.29420 -0.15670
H5 H 0.21340 0.43970 0.01120
H6 H 0.01480 0.31430 -0.08940
H7 H 0.16200 0.25720 0.14160
H8 H -0.13120 0.26280 0.09760
H9 H -0.20820 -0.00300 0.70870
H10 H -0.42400 0.01510 0.60950
H11 H -0.34060 0.25900 0.72590
H12 H -0.02750 0.25790 0.71860
H13 H -0.13220 0.41950 0.58500
H14 H -0.34250 0.26130 0.51950
H15 H 0.00400 0.24500 0.39940
H16 H 0.19840 0.29650 0.51900
F1A F -0.23300 0.02270 -0.10390
N1A N -0.26990 -0.07320 0.11830
N2A N -0.04160 -0.23180 -0.06890
C1A C -0.35320 -0.24370 0.08130
H1A H -0.19820 -0.05130 0.20480
H2A H -0.41840 -0.01130 0.11720
C2A C -0.14940 -0.32000 0.02520
H7A H -0.16200 -0.25720 -0.14160
H8A H 0.13120 -0.26280 -0.09760
H3A H -0.49570 -0.26180 0.01920
H4A H -0.42040 -0.29420 0.15670
H5A H -0.21340 -0.43970 -0.01120
H6A H -0.01480 -0.31430 0.08940
F2A F -0.24750 -0.05010 0.39070
N3A N 0.24000 -0.05340 0.36270
N4A N -0.02540 -0.23300 0.51140
C3A C 0.19390 -0.22230 0.32850
H9A H 0.20820 0.00300 0.29130
H10A H 0.42400 -0.01510 0.39050
C4A C 0.17400 -0.29450 0.43500
H15A H -0.00400 -0.24500 0.60060
H16A H -0.19840 -0.29650 0.48100
H11A H 0.34060 -0.25900 0.27410
H12A H 0.02750 -0.25790 0.28140
H13A H 0.13220 -0.41950 0.41500
H14A H 0.34250 -0.26130 0.48050
#END
