
#######################################################################
#
#                 Cambridge Crystallographic Data Centre
#                                CCDC
#
#######################################################################
#
# If this CIF has been generated from an entry in the Cambridge
# Structural Database, then it will include bibliographic, chemical,
# crystal, experimental, refinement or atomic coordinate data resulting
# from the CCDC's data processing and validation procedures.
#
#######################################################################

data_CSD_CIF_BAVGUA10
_audit_creation_date 1986-11-20
_audit_creation_method CSD-ConQuest-V1
_database_code_CSD BAVGUA10
_chemical_formula_sum 'C4 H16 Cl1 Cr1 F2 N4'
_chemical_formula_moiety
;
C4 H16 Cr1 F2 N4 1+,Cl1 1-
;
_journal_coden_Cambridge 350
_journal_volume 32
_journal_year 1985
_journal_page_first 209
_journal_name_full 'Vestn.Slov.Kem.Drus.(Bull.Slovenian Chem.Soc.) '
loop_
_publ_author_name
"J.V.Brencic"
"I.Leban"
_chemical_name_systematic
;
trans-Difluoro-bis(ethylenediamine)-chromium(iii) chloride
;
_cell_volume    982.919
_exptl_crystal_density_diffrn 1.67
_diffrn_ambient_temperature ?
_diffrn_special_details
;
The study was carried out at room temperature,in the range 283-303K

;
#These two values have been output from a single CSD field.
_refine_ls_R_factor_gt 0.059
_refine_ls_wR_factor_gt 0.059
_symmetry_cell_setting monoclinic
_symmetry_space_group_name_H-M 'P 21/c'
_symmetry_Int_Tables_number 14
loop_
_symmetry_equiv_pos_site_id
_symmetry_equiv_pos_as_xyz
1 x,y,z
2 -x,1/2+y,1/2-z
3 -x,-y,-z
4 x,-1/2-y,-1/2+z
_cell_length_a 5.641(1)
_cell_length_b 11.164(2)
_cell_length_c 15.852(3)
_cell_angle_alpha 90
_cell_angle_beta 100.07(1)
_cell_angle_gamma 90
_cell_formula_units_Z 4
loop_
_atom_type_symbol
_atom_type_radius_bond
C 0.68
H 0.23
Cl 0.99
Cr 1.35
F 0.64
N 0.68
loop_
_atom_site_label
_atom_site_type_symbol
_atom_site_fract_x
_atom_site_fract_y
_atom_site_fract_z
Cr1 Cr 0.7472(2) 0.1089(1) 0.2361(1)
Cl1 Cl 0.3460(4) 0.2803(2) 0.4415(2)
F1 F 1.0064(8) -0.0027(4) 0.2551(3)
F2 F 0.4880(8) 0.2179(4) 0.2157(3)
N11 N 0.5244(11) -0.0208(6) 0.2756(4)
N12 N 0.8051(12) 0.1555(6) 0.3650(4)
N21 N 0.9798(11) 0.2362(6) 0.2009(4)
N22 N 0.69602(12) 0.0646(6) 0.1068(4)
C11 C 0.5300(15) -0.0109(8) 0.3692(5)
C12 C 0.7684(15) 0.0428(8) 0.4112(6)
C21 C 0.9517(15) 0.2371(8) 0.1053(5)
C22 C 0.9069(14) 0.1135(8) 0.0721(5)
H1 H 0.58740 -0.10860 0.26130
H2 H 0.34250 -0.00820 0.24180
H3 H 0.68320 0.22560 0.37680
H4 H 0.98850 0.18520 0.38490
H5 H 0.38400 0.04620 0.38030
H6 H 0.50820 -0.09890 0.39520
H7 H 0.75860 0.06380 0.47700
H8 H 0.91230 -0.02040 0.40930
H9 H 1.16280 0.21250 0.22810
H10 H 0.93860 0.32350 0.22400
H11 H 0.52740 0.10660 0.07390
H12 H 0.67580 -0.03130 0.09870
H13 H 0.80100 0.29360 0.07940
H14 H 1.11360 0.27180 0.08660
H15 H 0.86990 0.11410 0.00290
H16 H 1.06200 0.05790 0.09410
#END
