
#######################################################################
#
#                 Cambridge Crystallographic Data Centre
#                                CCDC
#
#######################################################################
#
# If this CIF has been generated from an entry in the Cambridge
# Structural Database, then it will include bibliographic, chemical,
# crystal, experimental, refinement or atomic coordinate data resulting
# from the CCDC's data processing and validation procedures.
#
#######################################################################

data_CSD_CIF_BAYDOV
_audit_creation_date 2004-01-20
_audit_creation_method CSD-ConQuest-V1
_database_code_CSD BAYDOV
_database_code_depnum_ccdc_archive 'CCDC 219779'
_chemical_formula_sum 'C38 H48 Fe1 N4 O1 S1'
_chemical_formula_moiety
;
C38 H48 Fe1 N4 O1 S1
;
_journal_coden_Cambridge 9
_journal_volume 42
_journal_year 2003
_journal_page_first 5202
_journal_name_full 'Inorg.Chem. '
loop_
_publ_author_name
"Changsheng Cao"
"S.Dahal"
"Mayou Shang"
"A.M.Beatty"
"W.Hibbs"
"C.E.Schulz"
"W.R.Scheidt"
_chemical_name_systematic
;
(carbon monosulfide)-(methanol)-(octaethylporphyrinato)-iron(ii)
;
_cell_volume    842.718
_exptl_crystal_colour 'red'
_exptl_crystal_density_diffrn 1.318
_exptl_crystal_description 'rectangular'
_diffrn_ambient_temperature 100
_refine_special_details
;
The thiocarbonyl and methanol ligands are disordered around an inversion 
centre.
;
#These two values have been output from a single CSD field.
_refine_ls_R_factor_gt 0.0587
_refine_ls_wR_factor_gt 0.0587
_symmetry_cell_setting triclinic
_symmetry_space_group_name_H-M 'P -1'
_symmetry_Int_Tables_number 2
loop_
_symmetry_equiv_pos_site_id
_symmetry_equiv_pos_as_xyz
1 x,y,z
2 -x,-y,-z
_cell_length_a 9.0599(5)
_cell_length_b 9.4389(5)
_cell_length_c 11.0676(6)
_cell_angle_alpha 90.261(1)
_cell_angle_beta 100.362(1)
_cell_angle_gamma 114.664(1)
_cell_formula_units_Z 1
loop_
_atom_type_symbol
_atom_type_radius_bond
C 0.68
H 0.23
Fe 1.34
N 0.68
O 0.68
S 1.02
loop_
_atom_site_label
_atom_site_type_symbol
_atom_site_fract_x
_atom_site_fract_y
_atom_site_fract_z
Fe1 Fe -0.50000 -0.50000 0.50000
N1 N -0.3870(3) -0.6345(2) 0.56181(19)
C1 C -0.2738(3) -0.6644(3) 0.5107(2)
S1 S -0.1665(3) -0.2321(2) 0.69425(19)
C2 C -0.3231(14) -0.3514(9) 0.6006(11)
O1? O -0.3028(10) -0.2978(6) 0.5926(7)
H1 H -0.22930 -0.26900 0.53220
C3? C -0.2022(10) -0.2942(10) 0.7054(8)
H2? H -0.12200 -0.20550 0.76090
H3? H -0.16470 -0.36930 0.68900
H4? H -0.27640 -0.35530 0.75430
C4 C -0.2188(3) -0.7679(3) 0.5829(2)
N2 N -0.6124(3) -0.5419(2) 0.64366(19)
C5 C -0.2961(3) -0.7972(3) 0.6801(2)
C6 C -0.3981(3) -0.7115(3) 0.6680(2)
C7 C -0.4920(3) -0.7058(3) 0.7518(2)
H5 H -0.48190 -0.76040 0.82280
C8 C -0.5920(3) -0.6272(3) 0.7410(2)
C9 C -0.6928(3) -0.6263(3) 0.8288(2)
C10 C -0.7771(3) -0.5419(3) 0.7829(2)
C11 C -0.7259(3) -0.4888(3) 0.6682(2)
C12 C -0.1044(3) -0.8323(3) 0.5481(3)
H6 H -0.02270 -0.75440 0.52440
H7 H -0.07790 -0.87820 0.61770
C13 C -0.1922(4) -0.9640(3) 0.4440(3)
H8 H -0.29540 -1.05220 0.46110
H9 H -0.21370 -0.92830 0.37450
H10 H -0.11620 -0.99480 0.42620
C14 C -0.2860(3) -0.9006(3) 0.7810(2)
H11 H -0.25970 -0.84920 0.85840
H12 H -0.19710 -0.91690 0.77930
C15 C -0.4352(4) -1.0590(3) 0.7631(3)
H13 H -0.42590 -1.11950 0.83120
H14 H -0.45740 -1.12150 0.67640
H15 H -0.52240 -1.04120 0.77560
C16 C -0.7019(4) -0.7090(4) 0.9447(3)
H16 H -0.58800 -0.68020 0.98730
H17 H -0.73680 -0.66130 0.99890
C17 C -0.8111(4) -0.8840(4) 0.9213(3)
H18 H -0.75520 -0.92910 0.87590
H19 H -0.82180 -0.95550 0.97190
H20 H -0.93250 -0.91170 0.87750
C18 C -0.8991(3) -0.5043(3) 0.8363(3)
H21 H -0.94550 -0.57560 0.87980
H22 H -0.98010 -0.51860 0.78520
C19 C -0.8232(4) -0.3408(4) 0.9039(3)
H23 H -0.89950 -0.32070 0.93560
H24 H -0.76400 -0.26770 0.86030
H25 H -0.75550 -0.34250 0.95440
C20 C -0.2202(3) -0.6052(3) 0.4048(2)
H26 H -0.14550 -0.63040 0.38120
N1A N -0.6130(3) -0.3655(2) 0.43819(19)
C1A C -0.7262(3) -0.3356(3) 0.4893(2)
C4A C -0.7812(3) -0.2321(3) 0.4171(2)
C5A C -0.7039(3) -0.2028(3) 0.3199(2)
C6A C -0.6019(3) -0.2885(3) 0.3320(2)
C7A C -0.5080(3) -0.2942(3) 0.2482(2)
H5A H -0.51810 -0.23960 0.17720
C8A C -0.4080(3) -0.3728(3) 0.2590(2)
N2A N -0.3876(3) -0.4581(2) 0.35634(19)
C2A C -0.6769(14) -0.6486(9) 0.3994(11)
S1A S -0.8335(3) -0.7679(2) 0.30575(19)
H1A H -0.77070 -0.73100 0.46780
C11A C -0.2741(3) -0.5112(3) 0.3318(2)
C10A C -0.2229(3) -0.4581(3) 0.2171(2)
C9A C -0.3072(3) -0.3737(3) 0.1712(2)
C16A C -0.2981(4) -0.2910(4) 0.0553(3)
H16A H -0.41200 -0.31980 0.01270
H17A H -0.26320 -0.33870 0.00110
C17A C -0.1889(4) -0.1160(4) 0.0787(3)
H18A H -0.24480 -0.07090 0.12410
H19A H -0.17820 -0.04450 0.02810
H20A H -0.06750 -0.08830 0.12250
C18A C -0.1009(3) -0.4957(3) 0.1637(3)
H21A H -0.05450 -0.42440 0.12020
H22A H -0.01990 -0.48140 0.21480
C19A C -0.1768(4) -0.6592(4) 0.0961(3)
H23A H -0.10050 -0.67930 0.06440
H24A H -0.23600 -0.73230 0.13970
H25A H -0.24450 -0.65750 0.04560
C14A C -0.7140(3) -0.0994(3) 0.2190(2)
H11A H -0.74030 -0.15080 0.14160
H12A H -0.80290 -0.08310 0.22070
C15A C -0.5648(4) 0.0590(3) 0.2369(3)
H13A H -0.57410 0.11950 0.16880
H14A H -0.54260 0.12150 0.32360
H15A H -0.47760 0.04120 0.22440
C12A C -0.8956(3) -0.1677(3) 0.4519(3)
H6A H -0.97730 -0.24560 0.47560
H7A H -0.92210 -0.12180 0.38230
C13A C -0.8078(4) -0.0360(3) 0.5560(3)
H8A H -0.70460 0.05220 0.53890
H9A H -0.78630 -0.07170 0.62550
H10A H -0.88380 -0.00520 0.57380
C20A C -0.7798(3) -0.3948(3) 0.5952(2)
H26A H -0.85450 -0.36960 0.61880
#END
