
#######################################################################
#
#                 Cambridge Crystallographic Data Centre
#                                CCDC
#
#######################################################################
#
# If this CIF has been generated from an entry in the Cambridge
# Structural Database, then it will include bibliographic, chemical,
# crystal, experimental, refinement or atomic coordinate data resulting
# from the CCDC's data processing and validation procedures.
#
#######################################################################

data_CSD_CIF_BAZZEG
_audit_creation_date 2001-12-19
_audit_creation_method CSD-ConQuest-V1
_database_code_CSD BAZZEG
_chemical_formula_sum 'C19 H19 Fe1 N1 O3'
_chemical_formula_moiety
;
C19 H19 Fe1 N1 O3
;
_journal_coden_Cambridge 579
_journal_volume 19
_journal_year 2000
_journal_page_first 3754
_journal_name_full 'Organometallics '
loop_
_publ_author_name
"M.K.Kolel-Veetil"
"M.A.Khan"
"K.M.Nicholas"
_chemical_name_systematic
;
Dicarbonyl-(\h^5^-2,3,4,5-tetramethyl-1-(methyl-N-phenylcarbamoyl)-cyclopentad
ienyl)-iron
;
_cell_volume    854.004
_exptl_crystal_density_diffrn 1.42
_diffrn_ambient_temperature 173
#These two values have been output from a single CSD field.
_refine_ls_R_factor_gt 0.032
_refine_ls_wR_factor_gt 0.032
_symmetry_cell_setting triclinic
_symmetry_space_group_name_H-M 'P -1'
_symmetry_Int_Tables_number 2
loop_
_symmetry_equiv_pos_site_id
_symmetry_equiv_pos_as_xyz
1 x,y,z
2 -x,-y,-z
_cell_length_a 8.3108(7)
_cell_length_b 10.2541(7)
_cell_length_c 11.6127(8)
_cell_angle_alpha 109.230(5)
_cell_angle_beta 98.049(5)
_cell_angle_gamma 108.273(5)
_cell_formula_units_Z 2
loop_
_atom_type_symbol
_atom_type_radius_bond
C 0.68
H 0.23
Fe 1.34
N 0.68
O 0.68
loop_
_atom_site_label
_atom_site_type_symbol
_atom_site_fract_x
_atom_site_fract_y
_atom_site_fract_z
Fe1 Fe 0.0637(1) 0.1777(1) 0.8640(1)
O1 O -0.1042(3) -0.1441(2) 0.7237(2)
O2 O -0.1276(2) 0.2053(2) 1.0563(2)
O3 O -0.2786(2) 0.1248(2) 0.7260(2)
N1 N -0.0605(2) 0.3083(2) 0.7053(2)
C1 C 0.2203(3) 0.3498(2) 0.8302(2)
C2 C 0.2637(3) 0.3886(2) 0.9634(2)
C3 C 0.3254(3) 0.2800(3) 0.9844(2)
C4 C 0.3203(3) 0.1776(3) 0.8661(2)
C5 C 0.2553(3) 0.2204(2) 0.7695(2)
C6 C 0.1234(3) 0.4141(2) 0.7616(2)
C7 C 0.2556(3) 0.5203(1) 1.0637(2)
C8 C 0.3943(3) 0.2822(3) 1.1125(2)
C9 C 0.3812(3) 0.0506(3) 0.8444(3)
C10 C 0.2386(4) 0.1487(3) 0.6307(2)
C11 C -0.0400(3) -0.0178(3) 0.7803(2)
C12 C -0.0528(3) 0.1911(2) 0.9797(2)
C13 C -0.1214(3) 0.1996(2) 0.7548(2)
C14 C -0.1722(3) 0.3337(2) 0.6176(2)
C15 C -0.3180(3) 0.2152(3) 0.5247(2)
C16 C -0.4227(3) 0.2416(3) 0.4392(2)
C17 C -0.3864(3) 0.3835(3) 0.4434(2)
C18 C -0.2418(4) 0.5008(3) 0.5347(2)
C19 C -0.1355(3) 0.4761(3) 0.6209(2)
H1 H 0.1289(3) 0.5112(2) 0.8211(2)
H2 H 0.1774(3) 0.4312(2) 0.6944(2)
H3 H 0.2138(22) 0.4909(6) 1.1297(9)
H4 H 0.1744(18) 0.5563(12) 1.0261(4)
H5 H 0.3732(5) 0.6003(8) 1.1010(12)
H6 H 0.3343(19) 0.3264(20) 1.1718(5)
H7 H 0.5212(6) 0.3421(18) 1.1440(9)
H8 H 0.3724(23) 0.1798(4) 1.1050(4)
H9 H 0.3774(25) 0.0201(15) 0.9159(9)
H10 H 0.5022(10) 0.0829(7) 0.8372(19)
H11 H 0.3040(16) -0.0340(8) 0.7661(10)
H12 H 0.1551(19) 0.1740(17) 0.5826(3)
H13 H 0.1959(24) 0.0398(3) 0.6037(4)
H14 H 0.3539(6) 0.1853(16) 0.6149(3)
H15 H -0.3449(3) 0.1163(3) 0.5205(2)
H16 H -0.5215(3) 0.1604(3) 0.3764(2)
H17 H -0.4595(3) 0.4009(3) 0.3844(2)
H18 H -0.2154(4) 0.5994(3) 0.5382(2)
H19 H -0.0363(3) 0.5577(3) 0.6830(2)
#END
