
#######################################################################
#
#                 Cambridge Crystallographic Data Centre
#                                CCDC
#
#######################################################################
#
# If this CIF has been generated from an entry in the Cambridge
# Structural Database, then it will include bibliographic, chemical,
# crystal, experimental, refinement or atomic coordinate data resulting
# from the CCDC's data processing and validation procedures.
#
#######################################################################

data_CSD_CIF_BEBJIB
_audit_creation_date 1982-09-17
_audit_creation_method CSD-ConQuest-V1
_database_code_CSD BEBJIB
_chemical_formula_sum 'C6 H22 Cl3 Co1 N6'
_chemical_formula_moiety
;
C6 H22 Co1 N6 3+,3(Cl1 1-)
;
_journal_coden_Cambridge 186
_journal_year 1982
_journal_page_first 225
_journal_name_full 'J.Chem.Soc.,Dalton Trans. '
loop_
_publ_author_name
"K.Henrick"
"M.McPartlin"
"S.Munjoma"
"P.G.Owston"
"R.Peters"
"S.A.Sangokoya"
"P.A.Tasker"
_chemical_name_systematic
;
bis(1,2,3-Triaminopropane)-cobalt(iii) trichloride
;
_cell_volume   1374.243
_exptl_crystal_density_diffrn 1.659
_diffrn_ambient_temperature ?
_diffrn_special_details
;
The study was carried out at room temperature,in the range 283-303K

;
#These two values have been output from a single CSD field.
_refine_ls_R_factor_gt 0.0264
_refine_ls_wR_factor_gt 0.0264
_symmetry_cell_setting monoclinic
_symmetry_space_group_name_H-M 'C 2/c'
_symmetry_Int_Tables_number 15
loop_
_symmetry_equiv_pos_site_id
_symmetry_equiv_pos_as_xyz
1 x,y,z
2 1/2+x,1/2+y,z
3 -x,y,1/2-z
4 1/2-x,1/2+y,1/2-z
5 -x,-y,-z
6 -1/2-x,-1/2-y,-z
7 x,-y,-1/2+z
8 -1/2+x,-1/2-y,-1/2+z
_cell_length_a 12.511(2)
_cell_length_b 8.196(1)
_cell_length_c 14.580(2)
_cell_angle_alpha 90
_cell_angle_beta 113.19(2)
_cell_angle_gamma 90
_cell_formula_units_Z 4
loop_
_atom_type_symbol
_atom_type_radius_bond
C 0.68
H 0.23
Cl 0.99
Co 1.33
N 0.68
loop_
_atom_site_label
_atom_site_type_symbol
_atom_site_fract_x
_atom_site_fract_y
_atom_site_fract_z
Co1 Co 0.25000 0.25000 0.00000
Cl1 Cl 0.09418 0.19600 -0.46990
Cl2 Cl 0.50000 0.06171 0.25000
N1 N 0.37550 0.37620 0.09950
N2 N 0.14790 0.41190 0.02020
N3 N 0.23490 0.14120 0.11440
C1 C 0.32620 0.48270 0.15600
C2 C 0.20150 0.42870 0.13110
C3 C 0.19520 0.26070 0.17150
H1 H 0.42590 0.30920 0.13950
H2 H 0.40850 0.43240 0.06860
H3 H 0.14460 0.50320 -0.00740
H4 H 0.07980 0.37710 -0.00180
H5 H 0.18780 0.05920 0.09650
H6 H 0.29970 0.10580 0.15050
H7 H 0.32550 0.59340 0.13160
H8 H 0.37080 0.46950 0.22590
H9 H 0.15860 0.51110 0.15300
H10 H 0.11430 0.23720 0.15910
H11 H 0.24760 0.25490 0.24110
N1E N 0.12450 0.12380 -0.09950
N2E N 0.35210 0.08810 -0.02020
N3E N 0.26510 0.35880 -0.11440
C1E C 0.17380 0.01730 -0.15600
H1E H 0.07410 0.19080 -0.13950
H2E H 0.09150 0.06760 -0.06860
C2E C 0.29850 0.07130 -0.13110
H3E H 0.35540 -0.00320 0.00740
H4E H 0.42020 0.12290 0.00180
C3E C 0.30480 0.23930 -0.17150
H5E H 0.31220 0.44080 -0.09650
H6E H 0.20030 0.39420 -0.15050
H7E H 0.17450 -0.09340 -0.13160
H8E H 0.12920 0.03050 -0.22590
H9E H 0.34140 -0.01110 -0.15300
H10E H 0.38570 0.26280 -0.15910
H11E H 0.25240 0.24510 -0.24110
#END
