
#######################################################################
#
#                 Cambridge Crystallographic Data Centre
#                                CCDC
#
#######################################################################
#
# If this CIF has been generated from an entry in the Cambridge
# Structural Database, then it will include bibliographic, chemical,
# crystal, experimental, refinement or atomic coordinate data resulting
# from the CCDC's data processing and validation procedures.
#
#######################################################################

data_CSD_CIF_BEHGIF
_audit_creation_date 2004-03-11
_audit_creation_method CSD-ConQuest-V1
_database_code_CSD BEHGIF
_database_code_depnum_ccdc_archive 'CCDC 208698'
_chemical_formula_sum 'C18 H12 Cr1 O5'
_chemical_formula_moiety
;
C18 H12 Cr1 O5
;
_journal_coden_Cambridge 1291
_journal_year 2003
_journal_page_first 4363
_journal_name_full 'Eur.J.Org.Chem. '
loop_
_publ_author_name
"M.Schnebel"
"I.Weidner"
"R.Wartchow"
"H.Butenschon"
_chemical_name_systematic
;
rac-exo-Tricarbonyl-(\h^6^-3-phenylisochromanone)-chromium
;
_chemical_melting_point 431.15
_cell_volume    789.706
_exptl_crystal_colour 'yellow'
_exptl_crystal_density_diffrn 1.515
_exptl_special_details
;
Melts with decomposition.

;
_exptl_crystal_description 'needle'
_diffrn_ambient_temperature 300
#These two values have been output from a single CSD field.
_refine_ls_R_factor_gt 0.0457
_refine_ls_wR_factor_gt 0.0457
_symmetry_cell_setting triclinic
_symmetry_space_group_name_H-M 'P -1'
_symmetry_Int_Tables_number 2
loop_
_symmetry_equiv_pos_site_id
_symmetry_equiv_pos_as_xyz
1 x,y,z
2 -x,-y,-z
_cell_length_a 7.056(3)
_cell_length_b 7.253(4)
_cell_length_c 16.276(8)
_cell_angle_alpha 91.53(6)
_cell_angle_beta 99.07(5)
_cell_angle_gamma 105.71(5)
_cell_formula_units_Z 2
loop_
_atom_type_symbol
_atom_type_radius_bond
C 0.68
H 0.23
Cr 1.35
O 0.68
loop_
_atom_site_label
_atom_site_type_symbol
_atom_site_fract_x
_atom_site_fract_y
_atom_site_fract_z
Cr1 Cr 0.4419(2) 0.34068(15) 0.14546(6)
O1 O 0.1434(7) 0.6851(6) 0.2481(2)
O2 O 0.2029(6) 0.4851(5) 0.3408(2)
O3 O 0.6981(7) 0.2380(6) 0.0306(3)
O4 O 0.6879(8) 0.7519(6) 0.1568(3)
O5 O 0.7220(7) 0.2484(8) 0.2846(3)
C1 C 0.1756(9) 0.5321(9) 0.2612(3)
C2 C 0.2886(9) 0.3265(7) 0.3613(3)
H1 H 0.4308(9) 0.3678(7) 0.3572(3)
C3 C 0.1887(8) 0.1531(7) 0.3011(3)
H2 H 0.0515(8) 0.1008(7) 0.3091(3)
H3 H 0.2575(8) 0.0549(7) 0.3121(3)
C4 C 0.1920(8) 0.2071(7) 0.2116(3)
C5 C 0.1955(8) 0.0779(8) 0.1467(3)
H4 H 0.1975(8) -0.0469(8) 0.1576(3)
C6 C 0.1959(8) 0.1372(8) 0.0649(3)
H5 H 0.2042(8) 0.0533(8) 0.0223(3)
C7 C 0.1840(9) 0.3191(8) 0.0481(3)
H6 H 0.1770(9) 0.3550(8) -0.0065(3)
C8 C 0.1823(8) 0.4494(8) 0.1116(3)
H7 H 0.1788(8) 0.5733(8) 0.0999(3)
C9 C 0.1858(8) 0.3942(7) 0.1941(3)
C10 C 0.2704(9) 0.2847(8) 0.4511(3)
C11 C 0.0989(10) 0.2958(8) 0.4813(3)
H8 H -0.0026(10) 0.3309(8) 0.4473(3)
C12 C 0.0824(11) 0.2525(9) 0.5647(4)
H9 H -0.0306(11) 0.2572(9) 0.5864(4)
C13 C 0.2348(10) 0.2042(9) 0.6120(4)
H10 H 0.2273(10) 0.1814(9) 0.6675(4)
C14 C 0.3973(10) 0.1877(9) 0.5818(4)
H11 H 0.4963(10) 0.1483(9) 0.6154(4)
C15 C 0.4161(10) 0.2299(8) 0.5002(3)
H12 H 0.5287(10) 0.2205(8) 0.4793(3)
C16 C 0.600(1) 0.2788(9) 0.0762(4)
C17 C 0.5946(10) 0.5922(9) 0.1539(3)
C18 C 0.6129(11) 0.2866(10) 0.2307(4)
#END
