
#######################################################################
#
#                 Cambridge Crystallographic Data Centre
#                                CCDC
#
#######################################################################
#
# If this CIF has been generated from an entry in the Cambridge
# Structural Database, then it will include bibliographic, chemical,
# crystal, experimental, refinement or atomic coordinate data resulting
# from the CCDC's data processing and validation procedures.
#
#######################################################################

data_CSD_CIF_BEKJOQ
_audit_creation_date 1982-11-15
_audit_creation_method CSD-ConQuest-V1
_database_code_CSD BEKJOQ
_chemical_formula_sum 'C12 H36 Cl3 Co1 N6'
_chemical_formula_moiety
;
C12 H36 Co1 N6 3+,3(Cl1 1-)
;
_journal_coeditor_code "IUCr A21138"
_journal_coden_Cambridge 107
_journal_volume 38
_journal_year 1982
_journal_page_first 1300
_journal_name_full 'Acta Crystallogr.,Sect.B:Struct.Crystallogr.Cryst.Chem. '
loop_
_publ_author_name
"E.N.Duesler"
"M.F.Gargallo"
"R.E.Tapscott"
_chemical_name_systematic
;
tris((+-)-Butane-2,3-diamine)-cobalt(iii) trichloride
;
_cell_volume   1027.470
_diffrn_ambient_temperature ?
_diffrn_special_details
;
The study was carried out at room temperature,in the range 283-303K

;
#These two values have been output from a single CSD field.
_refine_ls_R_factor_gt 0.039
_refine_ls_wR_factor_gt 0.039
_symmetry_cell_setting hexagonal
_symmetry_space_group_name_H-M 'P -3 1 c'
_symmetry_Int_Tables_number 163
loop_
_symmetry_equiv_pos_site_id
_symmetry_equiv_pos_as_xyz
1 x,y,z
2 -y,x-y,z
3 -x+y,-x,z
4 y,x,1/2+z
5 x-y,-y,1/2+z
6 -x,-x+y,1/2+z
7 -x,-y,-z
8 y,-x+y,-z
9 x-y,x,-z
10 -y,-x,-1/2-z
11 -x+y,y,-1/2-z
12 x,x-y,-1/2-z
_cell_length_a 12.275(4)
_cell_length_b 12.275(4)
_cell_length_c 7.874(1)
_cell_angle_alpha 90
_cell_angle_beta 90
_cell_angle_gamma 120
_cell_formula_units_Z 2
loop_
_atom_type_symbol
_atom_type_radius_bond
C 0.68
H 0.23
Cl 0.99
Co 1.33
N 0.68
loop_
_atom_site_label
_atom_site_type_symbol
_atom_site_fract_x
_atom_site_fract_y
_atom_site_fract_z
Co1 Co 0.33333 0.66667 0.25000
Cl1 Cl 0.54260 -0.54260 0.25000
N1 N 0.20600 0.53090 0.39020
C1 C 0.20190 0.41110 0.34670
C2 C 0.08590 0.29840 0.42080
H1 H 0.22000 0.54500 0.50000
H2 H 0.13200 0.52400 0.36600
H3 H 0.28000 0.41500 0.39000
H4 H 0.08800 0.30900 0.55400
H5 H 0.00800 0.29200 0.37200
H6 H 0.07400 0.21500 0.40400
N1A N 0.46910 0.67510 0.39020
N1B N 0.32490 0.79400 0.39020
N1I N 0.46910 0.79400 0.10980
N1J N 0.32490 0.53090 0.10980
N1K N 0.20600 0.67510 0.10980
C1J C 0.20920 0.41110 0.15330
C1A C 0.58890 0.79080 0.34670
H1A H 0.45500 0.67500 0.50000
H2A H 0.47600 0.60800 0.36600
C1B C 0.20920 0.79810 0.34670
H1B H 0.32500 0.78000 0.50000
H2B H 0.39200 0.86800 0.36600
C1I C 0.58890 0.79810 0.15330
H1I H 0.45500 0.78000 0.00000
H2I H 0.47600 0.86800 0.13400
H1J H 0.32500 0.54500 0.00000
H2J H 0.39200 0.52400 0.13400
C1K C 0.20190 0.79080 0.15330
H1K H 0.22000 0.67500 0.00000
H2K H 0.13200 0.60800 0.13400
C2J C 0.21250 0.29840 0.07920
H3J H 0.13500 0.41500 0.11000
C2A C 0.70160 0.78750 0.42080
H3A H 0.58500 0.86500 0.39000
C2B C 0.21250 0.91410 0.42080
H3B H 0.13500 0.72000 0.39000
C2I C 0.70160 0.91410 0.07920
H3I H 0.58500 0.72000 0.11000
C2K C 0.08590 0.78750 0.07920
H3K H 0.28000 0.86500 0.11000
H4J H 0.22100 0.30900 -0.05400
H5J H 0.28400 0.29200 0.12800
H6J H 0.14100 0.21500 0.09600
H4A H 0.69100 0.77900 0.55400
H5A H 0.70800 0.71600 0.37200
H6A H 0.78500 0.85900 0.40400
H4B H 0.22100 0.91200 0.55400
H5B H 0.28400 0.99200 0.37200
H6B H 0.14100 0.92600 0.40400
H4I H 0.69100 0.91200 -0.05400
H5I H 0.70800 0.99200 0.12800
H6I H 0.78500 0.92600 0.09600
H4K H 0.08800 0.77900 -0.05400
H5K H 0.00800 0.71600 0.12800
H6K H 0.07400 0.85900 0.09600
#END
