
#######################################################################
#
#                 Cambridge Crystallographic Data Centre
#                                CCDC
#
#######################################################################
#
# If this CIF has been generated from an entry in the Cambridge
# Structural Database, then it will include bibliographic, chemical,
# crystal, experimental, refinement or atomic coordinate data resulting
# from the CCDC's data processing and validation procedures.
#
#######################################################################

data_CSD_CIF_BEPBUT
_audit_creation_date 1982-11-15
_audit_creation_method CSD-ConQuest-V1
_database_code_CSD BEPBUT
_database_code_depnum_ccdc_archive 'CCDC 1108794'
_chemical_formula_sum 'C15 H26 Fe1 N2 O1'
_chemical_formula_moiety
;
C15 H26 Fe1 N2 O1
;
_journal_coden_Cambridge 48
_journal_volume 115
_journal_year 1982
_journal_page_first 1070
_journal_name_full 'Chem.Ber. '
loop_
_publ_author_name
"H.-W.Fruhauf"
"G.Wolmershauser"
_chemical_name_systematic
;
Carbonyl-(2,3-dimethylbutadiene)-(glyoxal-bis(isopropylimine))-iron
;
_cell_volume    828.042
_exptl_crystal_density_diffrn 1.237
_diffrn_ambient_temperature ?
_diffrn_special_details
;
The study was carried out at room temperature,in the range 283-303K

;
#These two values have been output from a single CSD field.
_refine_ls_R_factor_gt 0.0279
_refine_ls_wR_factor_gt 0.0279
_symmetry_cell_setting triclinic
_symmetry_space_group_name_H-M 'P -1'
_symmetry_Int_Tables_number 2
loop_
_symmetry_equiv_pos_site_id
_symmetry_equiv_pos_as_xyz
1 x,y,z
2 -x,-y,-z
_cell_length_a 8.2568(10)
_cell_length_b 9.3022(10)
_cell_length_c 11.6632(7)
_cell_angle_alpha 90.378(7)
_cell_angle_beta 97.568(7)
_cell_angle_gamma 110.926(9)
_cell_formula_units_Z 2
loop_
_atom_type_symbol
_atom_type_radius_bond
C 0.68
H 0.23
Fe 1.34
N 0.68
O 0.68
loop_
_atom_site_label
_atom_site_type_symbol
_atom_site_fract_x
_atom_site_fract_y
_atom_site_fract_z
Fe1 Fe 0.30590 0.13540 0.23860
O1 O 0.22030 0.25080 0.01580
N1 N 0.38080 -0.03370 0.20690
N2 N 0.55480 0.23900 0.28050
C1 C 0.25740 0.20440 0.10200
C2 C 0.33220 -0.31560 0.18580
C3 C 0.25120 -0.17620 0.02040
C4 C 0.26990 -0.18710 0.14980
C5 C 0.54990 -0.00070 0.22950
C6 C 0.64790 0.15200 0.27080
C7 C 0.65130 0.40600 0.31030
C8 C 0.80410 0.43970 0.40720
C9 C 0.70440 0.48930 0.20240
C10 C 0.22400 0.29820 0.31670
C11 C 0.22830 0.18090 0.39140
C12 C 0.34530 0.21690 0.50660
C13 C 0.12950 0.02660 0.34860
C14 C 0.03570 0.00530 0.23570
C15 C 0.13800 -0.10840 0.41700
H1 H 0.24750 -0.41810 0.15570
H2 H 0.34310 -0.31360 0.26540
H3 H 0.44500 -0.30280 0.14880
H4 H 0.17460 -0.27090 -0.01500
H5 H 0.22420 -0.09190 -0.00630
H6 H 0.36710 -0.15200 -0.00770
H7 H 0.15330 -0.20990 0.17200
H8 H 0.60570 -0.06860 0.21660
H9 H 0.77110 0.19170 0.28540
H10 H 0.56420 0.44410 0.33840
H11 H 0.89010 0.41730 0.37070
H12 H 0.85540 0.55220 0.42870
H13 H 0.76330 0.37380 0.47500
H14 H 0.75210 0.60160 0.21630
H15 H 0.79420 0.45660 0.18080
H16 H 0.60690 0.46560 0.14320
H17 H 0.31070 0.40420 0.34020
H18 H 0.11970 0.29710 0.27170
H19 H 0.42060 0.15910 0.52070
H20 H 0.42860 0.32620 0.51590
H21 H 0.27880 0.19680 0.56780
H22 H -0.01960 -0.10660 0.20350
H23 H -0.01530 0.07430 0.20870
H24 H 0.25360 -0.09550 0.45310
H25 H 0.08900 -0.20600 0.37310
H26 H 0.06280 -0.12900 0.47320
#END
