
#######################################################################
#
#                 Cambridge Crystallographic Data Centre
#                                CCDC
#
#######################################################################
#
# If this CIF has been generated from an entry in the Cambridge
# Structural Database, then it will include bibliographic, chemical,
# crystal, experimental, refinement or atomic coordinate data resulting
# from the CCDC's data processing and validation procedures.
#
#######################################################################

data_CSD_CIF_BEPTIA
_audit_creation_date 2004-09-14
_audit_creation_method CSD-ConQuest-V1
_database_code_CSD BEPTIA
_database_code_depnum_ccdc_archive 'CCDC 210999'
_chemical_formula_sum 'C12 H12 Cl1 Mn1 N2 O6'
_chemical_formula_moiety
;
C12 H10 Cl1 Mn1 N2 O5,H2 O1
;
_journal_coden_Cambridge 1290
_journal_year 2004
_journal_page_first 1454
_journal_name_full 'Eur.J.Inorg.Chem. '
loop_
_publ_author_name
"Deguang Huang"
"Wenguo Wang"
"Xiaofeng Zhang"
"Changneng Chen"
"Feng Chen"
"Qiutian Liu"
"Daizheng Liao"
"Licun Li"
"Licheng Sun"
_chemical_name_systematic
;
Aqua-chloro-bis(picolinato)-manganese(iii) monohydrate
;
_cell_volume    730.292
_exptl_crystal_colour 'green'
_exptl_crystal_density_diffrn 1.685
_exptl_crystal_description 'needle'
_diffrn_ambient_temperature 293
#These two values have been output from a single CSD field.
_refine_ls_R_factor_gt 0.0534
_refine_ls_wR_factor_gt 0.0534
_symmetry_cell_setting triclinic
_symmetry_space_group_name_H-M 'P -1'
_symmetry_Int_Tables_number 2
loop_
_symmetry_equiv_pos_site_id
_symmetry_equiv_pos_as_xyz
1 x,y,z
2 -x,-y,-z
_cell_length_a 6.7956(6)
_cell_length_b 10.6757(10)
_cell_length_c 11.1699(9)
_cell_angle_alpha 71.461(2)
_cell_angle_beta 83.021(1)
_cell_angle_gamma 71.960(2)
_cell_formula_units_Z 2
loop_
_atom_type_symbol
_atom_type_radius_bond
C 0.68
H 0.23
Cl 0.99
Mn 1.35
N 0.68
O 0.68
loop_
_atom_site_label
_atom_site_type_symbol
_atom_site_fract_x
_atom_site_fract_y
_atom_site_fract_z
Mn1 Mn 0.16760(11) 0.56596(7) 0.21241(6)
Cl1 Cl -0.13520(18) 0.46949(13) 0.26751(11)
O1 O 0.4379(5) 0.6646(4) 0.1540(3)
H1 H 0.44920 0.69050 0.07670
O2 O 0.2973(5) 0.4499(3) 0.1092(3)
N1 N 0.0064(5) 0.7282(4) 0.0763(3)
O3 O 0.0612(5) 0.6874(3) 0.3125(3)
N2 N 0.3462(6) 0.4112(4) 0.3453(3)
C1 C 0.3558(7) 0.3997(5) 0.4676(4)
H2 H 0.27310 0.46960 0.49990
C2 C -0.0978(7) 0.8358(5) 0.1208(4)
O4 O 0.5401(5) 0.2552(3) 0.1044(3)
C3 C -0.0602(8) 0.8090(5) 0.2583(5)
O5 O -0.1386(6) 0.8968(4) 0.3107(3)
C4 C 0.4372(7) 0.3366(4) 0.1609(4)
C5 C 0.5989(7) 0.1908(5) 0.3742(5)
H3 H 0.67960 0.12140 0.34070
C6 C 0.4651(7) 0.3089(5) 0.2993(4)
C7 C 0.4878(8) 0.2848(5) 0.5457(5)
H4 H 0.49510 0.27860 0.63010
C8 C -0.2218(8) 0.9566(5) 0.0466(5)
H5 H -0.29340 1.02830 0.07980
C9 C 0.6088(8) 0.1793(6) 0.5005(5)
H6 H 0.69600 0.10130 0.55400
O6 O -0.1074(7) 0.8478(5) 0.5769(5)
C10 C -0.1305(7) 0.8594(5) -0.1253(5)
H7 H -0.13980 0.86620 -0.20970
C11 C -0.2374(8) 0.9687(5) -0.0802(5)
H8 H -0.31890 1.04950 -0.13370
C12 C -0.0101(7) 0.7402(5) -0.0454(4)
H9 H 0.06090 0.66680 -0.07650
H10 H -0.041(8) 0.757(6) 0.600(5)
H11 H 0.546(7) 0.621(5) 0.179(4)
H12 H -0.13(2) 0.874(13) 0.487(3)
#END
