
#######################################################################
#
#                 Cambridge Crystallographic Data Centre
#                                CCDC
#
#######################################################################
#
# If this CIF has been generated from an entry in the Cambridge
# Structural Database, then it will include bibliographic, chemical,
# crystal, experimental, refinement or atomic coordinate data resulting
# from the CCDC's data processing and validation procedures.
#
#######################################################################

data_CSD_CIF_BEXNIB10
_audit_creation_date 1987-07-17
_audit_creation_method CSD-ConQuest-V1
_database_code_CSD BEXNIB10
_database_code_depnum_ccdc_archive 'CCDC 1109583'
_chemical_formula_sum 'C16 H30 Co1 N4 O12'
_chemical_formula_moiety
;
C12 H16 Co1 N4 O4 2+,2(C2 H3 O2 1-),4(H2 O1)
;
_journal_coden_Cambridge 82
_journal_volume 27
_journal_year 1986
_journal_page_first 115-2
_journal_name_full 'Zh.Strukt.Khim.(Russ.)(J.Struct.Chem.) '
loop_
_publ_author_name
"G.V.Tsintsadze"
"R.A.Kiguradze"
"A.N.Shnulin"
"Kh.S.Mamedov"
_chemical_name_systematic
;
Diaqua-bis(picolinamide-N,O)-cobalt(ii) diacetate tetrahydrate
;
_cell_volume    603.895
_exptl_crystal_colour 'blue'
_exptl_crystal_density_diffrn 1.455
_exptl_special_details
;
cell parameter c is given as 8.622 in the abstract and 9.622 in the results; 
the former has been used. y coordinate of C8 should probably be 0.7139 (not 
0.7939)
;
_diffrn_ambient_temperature ?
_diffrn_special_details
;
The study was carried out at room temperature,in the range 283-303K

;
#These two values have been output from a single CSD field.
_refine_ls_R_factor_gt 0.051
_refine_ls_wR_factor_gt 0.051
_symmetry_cell_setting triclinic
_symmetry_space_group_name_H-M 'P -1'
_symmetry_Int_Tables_number 2
loop_
_symmetry_equiv_pos_site_id
_symmetry_equiv_pos_as_xyz
1 x,y,z
2 -x,-y,-z
_cell_length_a 9.634(9)
_cell_length_b 7.345(7)
_cell_length_c 8.622(5)
_cell_angle_alpha 92.25(6)
_cell_angle_beta 93.91(6)
_cell_angle_gamma 96.66(7)
_cell_formula_units_Z 1
loop_
_atom_type_symbol
_atom_type_radius_bond
C 0.70
H 0.23
Co 1.33
N 0.68
O 0.68
loop_
_atom_site_label
_atom_site_type_symbol
_atom_site_fract_x
_atom_site_fract_y
_atom_site_fract_z
Co1 Co 0.50000 0.50000 0.50000
O1 O 0.6761(4) 0.5503(6) 0.6581(5)
O2 O 0.4217(4) 0.7364(6) 0.5941(5)
N1 N 0.4325(5) 0.3529(7) 0.6890(6)
N2 N 0.7714(5) 0.4768(7) 0.8902(6)
C1 C 0.3040(6) 0.2628(9) 0.7018(8)
C2 C 0.2700(7) 0.1675(9) 0.8310(8)
C3 C 0.3704(8) 0.1645(9) 0.9509(8)
C4 C 0.5045(7) 0.2575(9) 0.9415(7)
C5 C 0.5301(6) 0.3526(8) 0.8091(7)
C6 C 0.6673(6) 0.4672(8) 0.7830(7)
H1 H 0.23000 0.26200 0.61000
H2 H 0.17100 0.10000 0.83900
H3 H 0.34700 0.09200 1.05000
H4 H 0.58100 0.25400 1.03000
H5 H 0.86500 0.55700 0.87100
H6 H 0.76800 0.43100 0.98600
H7 H 0.36500 0.73400 0.68100
H8 H 0.39200 0.78200 0.48900
O3 O 0.2275(5) 0.6806(4) 0.8019(5)
O4 O 0.0232(4) 0.7450(6) 0.8792(5)
C7 C 0.1044(6) 0.7207(9) 0.7745(8)
C8 C 0.0516(8) 0.7139(9) 0.6080(8)
H9 H 0.11200 0.68200 0.51000
H10 H 0.09700 0.84000 0.57700
H11 H -0.04800 0.68200 0.59300
O5 O 0.8863(5) 0.0584(7) 0.8321(6)
H12 H 0.92400 0.14600 0.94000
H13 H 0.89700 -0.03400 0.86200
O6 O 0.6639(5) 0.0310(6) 0.6164(5)
H14 H 0.62100 -0.06900 0.62100
H15 H 0.75900 0.03400 0.69000
O1A O 0.3239(4) 0.4497(6) 0.3419(5)
C6A C 0.3327(6) 0.5328(8) 0.2170(7)
N2A N 0.2286(5) 0.5232(7) 0.1098(6)
H5A H 0.13500 0.44300 0.12900
H6A H 0.23200 0.56900 0.01400
C5A C 0.4699(6) 0.6474(8) 0.1909(7)
N1A N 0.5675(5) 0.6471(7) 0.3110(6)
O2A O 0.5783(4) 0.2636(6) 0.4059(5)
H7A H 0.63500 0.26600 0.31900
H8A H 0.60800 0.21800 0.51100
C1A C 0.6960(6) 0.7372(9) 0.2982(8)
C2A C 0.7300(7) 0.8325(9) 0.1690(8)
C3A C 0.6296(8) 0.8355(9) 0.0491(8)
C4A C 0.4955(7) 0.7425(9) 0.0585(7)
H4A H 0.41900 0.74600 -0.03000
H3A H 0.65300 0.90800 -0.05000
H2A H 0.82900 0.90000 0.16100
H1A H 0.77000 0.73800 0.39000
#END
