
#######################################################################
#
#                 Cambridge Crystallographic Data Centre
#                                CCDC
#
#######################################################################
#
# If this CIF has been generated from an entry in the Cambridge
# Structural Database, then it will include bibliographic, chemical,
# crystal, experimental, refinement or atomic coordinate data resulting
# from the CCDC's data processing and validation procedures.
#
#######################################################################

data_CSD_CIF_BEXXOT
_audit_creation_date 2013-05-19
_audit_creation_method CSD-ConQuest-V1
_database_code_CSD BEXXOT
_database_code_depnum_ccdc_archive 'CCDC 915014'
_chemical_formula_sum 'C24 H16 Fe1 N10 Se2'
_chemical_formula_moiety
;
C24 H16 Fe1 N10 Se2
;
_journal_coden_Cambridge 1350
_journal_volume 15
_journal_year 2013
_journal_page_first 3455
_journal_name_full 'CrystEngComm '
loop_
_publ_author_name
"Z.Arcis-Castillo"
"L.Pineiro-Lopez"
"M.Carmen Munoz"
"R.Ballesteros"
"B.Abarca"
"J.A.Real"
_chemical_name_systematic
;
bis(3-(pyridin-2-yl)[1,2,3]triazolo[1,5-a]pyridine)-bis(isoselenocyanato)-iron
(ii)
;
_cell_volume    625.747
_exptl_crystal_density_diffrn 1.747
_exptl_special_details
;
mixed high-spin low-spin state (90

;
_diffrn_ambient_temperature 325
#These two values have been output from a single CSD field.
_refine_ls_R_factor_gt 0.0655
_refine_ls_wR_factor_gt 0.0655
_symmetry_cell_setting triclinic
_symmetry_space_group_name_H-M 'P -1'
_symmetry_Int_Tables_number 2
loop_
_symmetry_equiv_pos_site_id
_symmetry_equiv_pos_as_xyz
1 x,y,z
2 -x,-y,-z
_cell_length_a 8.190(3)
_cell_length_b 8.861(3)
_cell_length_c 9.396(2)
_cell_angle_alpha 80.68(3)
_cell_angle_beta 71.62(3)
_cell_angle_gamma 76.25(3)
_cell_formula_units_Z 1
loop_
_atom_type_symbol
_atom_type_radius_bond
C 0.68
H 0.23
Fe 1.52
N 0.68
Se 1.22
loop_
_atom_site_label
_atom_site_type_symbol
_atom_site_fract_x
_atom_site_fract_y
_atom_site_fract_z
Fe1 Fe 0.50000 0.00000 0.50000
Se1 Se 0.52232(10) -0.29873(11) 0.08076(9)
N1 N 0.3051(6) 0.1779(5) 0.4273(5)
N2 N 0.3129(6) 0.2907(5) 0.3160(5)
N3 N 0.1444(6) 0.3606(5) 0.3261(5)
N4 N 0.2531(6) -0.0427(5) 0.6560(5)
N5 N 0.4957(6) -0.1438(5) 0.3426(6)
C1 C 0.1373(7) 0.1758(6) 0.5103(6)
C2 C 0.0286(7) 0.2948(6) 0.4459(6)
C3 C -0.1539(8) 0.3599(7) 0.4695(7)
H1 H -0.23780 0.32000 0.54940
C4 C -0.2024(9) 0.4809(7) 0.3732(8)
H2 H -0.32110 0.52290 0.38690
C5 C -0.0797(9) 0.5433(7) 0.2552(8)
H3 H -0.11760 0.62730 0.19220
C6 C 0.0940(9) 0.4848(7) 0.2295(7)
H4 H 0.17650 0.52670 0.14970
C7 C 0.2356(9) -0.1517(7) 0.7728(7)
H5 H 0.33600 -0.21860 0.78830
C8 C 0.075(1) -0.1691(8) 0.8712(8)
H6 H 0.06730 -0.24870 0.94930
C9 C -0.0721(10) -0.0688(8) 0.8530(7)
H7 H -0.18140 -0.07710 0.92020
C10 C -0.0575(8) 0.0463(7) 0.7333(7)
H8 H -0.15720 0.11490 0.71820
C11 C 0.1052(7) 0.0577(6) 0.6375(6)
C12 C 0.5067(7) -0.2041(7) 0.2405(7)
Se1A Se 0.47768(10) 0.29873(11) 0.91924(9)
N1A N 0.6949(6) -0.1779(5) 0.5727(5)
N2A N 0.6871(6) -0.2907(5) 0.6840(5)
N3A N 0.8556(6) -0.3606(5) 0.6739(5)
N4A N 0.7469(6) 0.0427(5) 0.3440(5)
N5A N 0.5043(6) 0.1438(5) 0.6574(6)
C1A C 0.8627(7) -0.1758(6) 0.4897(6)
C2A C 0.9714(7) -0.2948(6) 0.5541(6)
C3A C 1.1539(8) -0.3599(7) 0.5305(7)
H1A H 1.23780 -0.32000 0.45060
C4A C 1.2024(9) -0.4809(7) 0.6268(8)
H2A H 1.32110 -0.52290 0.61310
C5A C 1.0797(9) -0.5433(7) 0.7448(8)
H3A H 1.11760 -0.62730 0.80780
C6A C 0.9060(9) -0.4848(7) 0.7705(7)
H4A H 0.82350 -0.52670 0.85030
C7A C 0.7644(9) 0.1517(7) 0.2272(7)
H5A H 0.66400 0.21860 0.21170
C8A C 0.925(1) 0.1691(8) 0.1288(8)
H6A H 0.93270 0.24870 0.05070
C9A C 1.0721(10) 0.0688(8) 0.1470(7)
H7A H 1.18140 0.07710 0.07980
C10A C 1.0575(8) -0.0463(7) 0.2667(7)
H8A H 1.15720 -0.11490 0.28180
C11A C 0.8948(7) -0.0577(6) 0.3625(6)
C12A C 0.4933(7) 0.2041(7) 0.7595(7)
#END
