
#######################################################################
#
#                 Cambridge Crystallographic Data Centre
#                                CCDC
#
#######################################################################
#
# If this CIF has been generated from an entry in the Cambridge
# Structural Database, then it will include bibliographic, chemical,
# crystal, experimental, refinement or atomic coordinate data resulting
# from the CCDC's data processing and validation procedures.
#
#######################################################################

data_CSD_CIF_BEXXOT01
_audit_creation_date 2013-05-19
_audit_creation_method CSD-ConQuest-V1
_database_code_CSD BEXXOT01
_database_code_depnum_ccdc_archive 'CCDC 915013'
_chemical_formula_sum 'C24 H16 Fe1 N10 Se2'
_chemical_formula_moiety
;
C24 H16 Fe1 N10 Se2
;
_journal_coden_Cambridge 1350
_journal_volume 15
_journal_year 2013
_journal_page_first 3455
_journal_name_full 'CrystEngComm '
loop_
_publ_author_name
"Z.Arcis-Castillo"
"L.Pineiro-Lopez"
"M.Carmen Munoz"
"R.Ballesteros"
"B.Abarca"
"J.A.Real"
_chemical_name_systematic
;
bis(3-(pyridin-2-yl)[1,2,3]triazolo[1,5-a]pyridine)-bis(isoselenocyanato)-iron
;
_cell_volume    591.398
_exptl_crystal_density_diffrn 1.848
_exptl_special_details
;
low-spin state

;
_diffrn_ambient_temperature 120
#These two values have been output from a single CSD field.
_refine_ls_R_factor_gt 0.0568
_refine_ls_wR_factor_gt 0.0568
_symmetry_cell_setting triclinic
_symmetry_space_group_name_H-M 'P -1'
_symmetry_Int_Tables_number 2
loop_
_symmetry_equiv_pos_site_id
_symmetry_equiv_pos_as_xyz
1 x,y,z
2 -x,-y,-z
_cell_length_a 8.0832(10)
_cell_length_b 8.7332(8)
_cell_length_c 9.2121(8)
_cell_angle_alpha 80.892(8)
_cell_angle_beta 71.071(10)
_cell_angle_gamma 74.681(9)
_cell_formula_units_Z 1
loop_
_atom_type_symbol
_atom_type_radius_bond
C 0.68
H 0.23
Fe 1.52
N 0.68
Se 1.22
loop_
_atom_site_label
_atom_site_type_symbol
_atom_site_fract_x
_atom_site_fract_y
_atom_site_fract_z
Fe1 Fe 0.00000 0.50000 0.00000
Se1 Se 0.01933(8) 0.19489(6) -0.41032(6)
N1 N 0.1828(5) 0.3315(4) 0.0669(4)
N2 N 0.1738(6) 0.2166(4) 0.1805(4)
N3 N 0.3471(6) 0.1444(4) 0.1695(4)
N4 N 0.2241(5) 0.5525(4) -0.1544(4)
N5 N -0.0011(5) 0.3661(4) -0.1504(4)
C1 C 0.3538(7) 0.3337(5) -0.0146(5)
C2 C 0.4674(7) 0.2108(5) 0.0505(5)
C3 C 0.6523(7) 0.1467(5) 0.0260(5)
H1 H 0.73700 0.18840 -0.05410
C4 C 0.7044(8) 0.0209(5) 0.1236(6)
H2 H 0.82610 -0.02260 0.11000
C5 C 0.5757(7) -0.0437(5) 0.2449(5)
H3 H 0.61420 -0.12940 0.30930
C6 C 0.3984(7) 0.0169(5) 0.2685(5)
H4 H 0.31360 -0.02510 0.34810
C7 C 0.2353(8) 0.6680(5) -0.2721(5)
H5 H 0.12990 0.73590 -0.28430
C8 C 0.3976(8) 0.6886(5) -0.3746(6)
H6 H 0.39930 0.76990 -0.45330
C9 C 0.5552(8) 0.5908(5) -0.3612(5)
H7 H 0.66490 0.60420 -0.42940
C10 C 0.5466(7) 0.4701(5) -0.2423(5)
H8 H 0.65120 0.40040 -0.23040
C11 C 0.3830(7) 0.4550(4) -0.1429(5)
C12 C 0.0093(7) 0.3002(5) -0.2534(5)
Se1A Se -0.01933(8) 0.80511(6) 0.41032(6)
N1A N -0.1828(5) 0.6685(4) -0.0669(4)
N2A N -0.1738(6) 0.7834(4) -0.1805(4)
N3A N -0.3471(6) 0.8556(4) -0.1695(4)
N4A N -0.2241(5) 0.4475(4) 0.1544(4)
N5A N 0.0011(5) 0.6339(4) 0.1504(4)
C1A C -0.3538(7) 0.6663(5) 0.0146(5)
C2A C -0.4674(7) 0.7892(5) -0.0505(5)
C3A C -0.6523(7) 0.8533(5) -0.0260(5)
H1A H -0.73700 0.81160 0.05410
C4A C -0.7044(8) 0.9791(5) -0.1236(6)
H2A H -0.82610 1.02260 -0.11000
C5A C -0.5757(7) 1.0437(5) -0.2449(5)
H3A H -0.61420 1.12940 -0.30930
C6A C -0.3984(7) 0.9831(5) -0.2685(5)
H4A H -0.31360 1.02510 -0.34810
C7A C -0.2353(8) 0.3320(5) 0.2721(5)
H5A H -0.12990 0.26410 0.28430
C8A C -0.3976(8) 0.3114(5) 0.3746(6)
H6A H -0.39930 0.23010 0.45330
C9A C -0.5552(8) 0.4092(5) 0.3612(5)
H7A H -0.66490 0.39580 0.42940
C10A C -0.5466(7) 0.5299(5) 0.2423(5)
H8A H -0.65120 0.59960 0.23040
C11A C -0.3830(7) 0.5450(4) 0.1429(5)
C12A C -0.0093(7) 0.6998(5) 0.2534(5)
#END
