
#######################################################################
#
#                 Cambridge Crystallographic Data Centre
#                                CCDC
#
#######################################################################
#
# If this CIF has been generated from an entry in the Cambridge
# Structural Database, then it will include bibliographic, chemical,
# crystal, experimental, refinement or atomic coordinate data resulting
# from the CCDC's data processing and validation procedures.
#
#######################################################################

data_CSD_CIF_BIBJUS
_audit_creation_date 2004-11-11
_audit_creation_method CSD-ConQuest-V1
_database_code_CSD BIBJUS
_database_code_depnum_ccdc_archive 'CCDC 235092'
_chemical_formula_sum 'C13 H6 Cr1 O5'
_chemical_formula_moiety
;
C13 H6 Cr1 O5
;
_journal_coden_Cambridge 182
_journal_year 2004
_journal_page_first 1548
_journal_name_full 'Chem.Commun. '
loop_
_publ_author_name
"E.P.Kundig"
"T.Lomberget"
"R.Bragg"
"C.Poulard"
"G.Bernardinelli"
_chemical_name_systematic
;
Tricarbonyl-(\h^6^-5,8-naphthaquinone)-chromium
;
_cell_volume    571.900
_exptl_crystal_colour 'dark violet'
_exptl_crystal_density_diffrn 1.708
_exptl_crystal_description 'prism'
_diffrn_ambient_temperature 200
#These two values have been output from a single CSD field.
_refine_ls_R_factor_gt 0.041
_refine_ls_wR_factor_gt 0.041
_symmetry_cell_setting triclinic
_symmetry_space_group_name_H-M 'P -1'
_symmetry_Int_Tables_number 2
loop_
_symmetry_equiv_pos_site_id
_symmetry_equiv_pos_as_xyz
1 x,y,z
2 -x,-y,-z
_cell_length_a 7.1180(8)
_cell_length_b 7.6777(9)
_cell_length_c 10.9461(14)
_cell_angle_alpha 87.055(15)
_cell_angle_beta 73.479(14)
_cell_angle_gamma 86.175(14)
_cell_formula_units_Z 2
loop_
_atom_type_symbol
_atom_type_radius_bond
C 0.68
H 0.23
Cr 1.35
O 0.68
loop_
_atom_site_label
_atom_site_type_symbol
_atom_site_fract_x
_atom_site_fract_y
_atom_site_fract_z
Cr1 Cr 0.43152(8) 0.11420(8) 0.26603(5)
O1 O 0.2344(4) 0.3468(4) -0.0049(3)
O2 O 0.2338(4) 0.5587(4) 0.4534(3)
O3 O 0.1682(4) 0.0747(4) 0.5341(3)
O4 O 0.6154(4) -0.2464(4) 0.2947(3)
O5 O 0.1203(4) -0.0367(4) 0.1731(3)
C1 C 0.4061(5) 0.3994(4) 0.2718(3)
C2 C 0.5625(5) 0.3407(5) 0.3232(4)
C3 C 0.7146(5) 0.2309(5) 0.2531(4)
C4 C 0.7162(5) 0.1795(5) 0.1300(4)
C5 C 0.5662(5) 0.2390(5) 0.0779(4)
C6 C 0.4073(5) 0.3477(5) 0.1493(3)
C7 C 0.2395(5) 0.3993(5) 0.0977(4)
C8 C 0.0817(5) 0.5143(5) 0.1743(4)
C9 C 0.0802(5) 0.5642(5) 0.2892(4)
C10 C 0.2379(5) 0.5103(5) 0.3481(4)
C11 C 0.2699(5) 0.0888(5) 0.4317(4)
C12 C 0.5448(5) -0.1107(5) 0.2839(4)
C13 C 0.2402(5) 0.0188(5) 0.2097(4)
H1 H 0.553(6) 0.383(6) 0.409(4)
H2 H 0.809(6) 0.185(6) 0.298(4)
H3 H 0.815(6) 0.107(6) 0.089(4)
H4 H 0.555(6) 0.207(6) 0.008(5)
H5 H -0.026(6) 0.552(6) 0.131(4)
H6 H -0.019(6) 0.633(6) 0.337(4)
#END
