
#######################################################################
#
#                 Cambridge Crystallographic Data Centre
#                                CCDC
#
#######################################################################
#
# If this CIF has been generated from an entry in the Cambridge
# Structural Database, then it will include bibliographic, chemical,
# crystal, experimental, refinement or atomic coordinate data resulting
# from the CCDC's data processing and validation procedures.
#
#######################################################################

data_CSD_CIF_BICNEG
_audit_creation_date 1983-02-19
_audit_creation_method CSD-ConQuest-V1
_database_code_CSD BICNEG
_chemical_formula_sum 'C14 H10 Cl2 Co1 N2 S2'
_chemical_formula_moiety
;
C14 H10 Cl2 Co1 N2 S2
;
_journal_coeditor_code "IUCr A21368"
_journal_coden_Cambridge 107
_journal_volume 38
_journal_year 1982
_journal_page_first 2044
_journal_name_full 'Acta Crystallogr.,Sect.B:Struct.Crystallogr.Cryst.Chem. '
loop_
_publ_author_name
"R.E.Oughtred"
"E.S.Raper"
"I.W.Nowell"
"L.A.March"
_chemical_name_systematic
;
bis(1,3-Benzothiazole)-dichloro-cobalt(ii)
;
_cell_volume   1544.217
_exptl_crystal_colour 'blue'
_exptl_crystal_density_diffrn 1.72
_diffrn_ambient_temperature ?
_diffrn_special_details
;
The study was carried out at room temperature,in the range 283-303K

;
#These two values have been output from a single CSD field.
_refine_ls_R_factor_gt 0.048
_refine_ls_wR_factor_gt 0.048
_symmetry_cell_setting monoclinic
_symmetry_space_group_name_H-M 'C 2/c'
_symmetry_Int_Tables_number 15
loop_
_symmetry_equiv_pos_site_id
_symmetry_equiv_pos_as_xyz
1 x,y,z
2 1/2+x,1/2+y,z
3 -x,y,1/2-z
4 1/2-x,1/2+y,1/2-z
5 -x,-y,-z
6 -1/2-x,-1/2-y,-z
7 x,-y,-1/2+z
8 -1/2+x,-1/2-y,-1/2+z
_cell_length_a 7.901(4)
_cell_length_b 12.994(6)
_cell_length_c 15.042(6)
_cell_angle_alpha 90
_cell_angle_beta 90.58(5)
_cell_angle_gamma 90
_cell_formula_units_Z 4
loop_
_atom_type_symbol
_atom_type_radius_bond
C 0.68
H 0.23
Cl 0.99
Co 1.33
N 0.68
S 1.02
loop_
_atom_site_label
_atom_site_type_symbol
_atom_site_fract_x
_atom_site_fract_y
_atom_site_fract_z
Co1 Co 0.00000 0.85610 0.75000
Cl1 Cl 0.23820 0.94870 0.75390
S1 S 0.12370 0.60140 0.55360
N1 N 0.02560 0.75800 0.64360
C1 C 0.09780 0.66750 0.64940
C2 C -0.01190 0.78080 0.55540
C3 C 0.03320 0.70280 0.49520
C4 C 0.00270 0.71380 0.40560
C5 C -0.07380 0.80250 0.37620
C6 C -0.11870 0.88130 0.43620
C7 C -0.08810 0.87100 0.52530
H1 H 0.14000 0.64810 0.70390
H2 H 0.03810 0.65410 0.35950
H3 H -0.10000 0.81210 0.30610
H4 H -0.17800 0.95060 0.41130
H5 H -0.12210 0.93120 0.57130
Cl1B Cl -0.23820 0.94870 0.74610
N1B N -0.02560 0.75800 0.85640
C1B C -0.09780 0.66750 0.85060
C2B C 0.01190 0.78080 0.94460
S1B S -0.12370 0.60140 0.94640
H1B H -0.14000 0.64810 0.79610
C3B C -0.03320 0.70280 1.00480
C7B C 0.08810 0.87100 0.97470
C4B C -0.00270 0.71380 1.09440
C6B C 0.11870 0.88130 1.06380
H5B H 0.12210 0.93120 0.92870
C5B C 0.07380 0.80250 1.12380
H2B H -0.03810 0.65410 1.14050
H4B H 0.17800 0.95060 1.08870
H3B H 0.10000 0.81210 1.19390
#END
