
#######################################################################
#
#                 Cambridge Crystallographic Data Centre
#                                CCDC
#
#######################################################################
#
# If this CIF has been generated from an entry in the Cambridge
# Structural Database, then it will include bibliographic, chemical,
# crystal, experimental, refinement or atomic coordinate data resulting
# from the CCDC's data processing and validation procedures.
#
#######################################################################

data_CSD_CIF_BIGNOU01
_audit_creation_date 1993-03-04
_audit_creation_method CSD-ConQuest-V1
_database_code_CSD BIGNOU01
_chemical_formula_sum 'C12 H30 Cl3 Co1 N6'
_chemical_formula_moiety
;
C12 H30 Co1 N6 3+,3(Cl1 1-)
;
_journal_coeditor_code "IUCr AS0590"
_journal_coden_Cambridge 622
_journal_volume 48
_journal_year 1992
_journal_page_first 459
_journal_name_full 'Acta Crystallogr.,Sect.B:Struct.Sci. '
loop_
_publ_author_name
"M.Morooka"
"S.Ohba"
_chemical_name_systematic
;
meso-(1,4,7,10,13,16-Hexa-azacyclo-octadecane)-cobalt(iii) trichloride
;
_cell_volume   1238.629
_exptl_crystal_density_diffrn 1.7
_diffrn_ambient_temperature 106
#These two values have been output from a single CSD field.
_refine_ls_R_factor_gt 0.02
_refine_ls_wR_factor_gt 0.02
_symmetry_cell_setting rhombohedral
_symmetry_space_group_name_H-M 'R -3'
_symmetry_Int_Tables_number 148
loop_
_symmetry_equiv_pos_site_id
_symmetry_equiv_pos_as_xyz
1 x,y,z
2 1/3+x,2/3+y,2/3+z
3 2/3+x,1/3+y,1/3+z
4 -y,x-y,z
5 -x+y,-x,z
6 1/3-y,2/3+x-y,2/3+z
7 1/3-x+y,2/3-x,2/3+z
8 2/3-y,1/3+x-y,1/3+z
9 2/3-x+y,1/3-x,1/3+z
10 -x,-y,-z
11 -1/3-x,-2/3-y,-2/3-z
12 -2/3-x,-1/3-y,-1/3-z
13 y,-x+y,-z
14 x-y,x,-z
15 -1/3+y,-2/3-x+y,-2/3-z
16 -1/3+x-y,-2/3+x,-2/3-z
17 -2/3+y,-1/3-x+y,-1/3-z
18 -2/3+x-y,-1/3+x,-1/3-z
_cell_length_a 9.2536(1)
_cell_length_b 9.2536(1)
_cell_length_c 16.7028(5)
_cell_angle_alpha 90
_cell_angle_beta 90
_cell_angle_gamma 120
_cell_formula_units_Z 3
loop_
_atom_type_symbol
_atom_type_radius_bond
C 0.68
H 0.23
Cl 0.99
Co 1.33
N 0.68
loop_
_atom_site_label
_atom_site_type_symbol
_atom_site_fract_x
_atom_site_fract_y
_atom_site_fract_z
Co1 Co 0.00000 0.00000 0.00000
Cl1 Cl 0.00000 0.00000 0.50000
Cl2 Cl 0.00000 0.00000 0.22379(1)
N1 N 0.21367(3) 0.12017(3) 0.06100(1)
C1 C 0.29173(3) 0.01357(3) 0.06045(2)
C2 C 0.33030(3) 0.28851(3) 0.02538(2)
H1 H 0.1903(13) 0.1303(13) 0.1129(7)
H2 H 0.2281(15) -0.0834(15) 0.0973(7)
H3 H 0.4103(16) 0.0767(15) 0.0820(8)
H4 H 0.4511(15) 0.3142(14) 0.0272(7)
H5 H 0.3265(14) 0.3796(15) 0.0564(7)
N1I N -0.21367(3) -0.12017(3) -0.06100(1)
N1C N -0.12017(3) 0.09350(3) 0.06100(1)
N1L N 0.12017(3) -0.09350(3) -0.06100(1)
N1D N -0.09350(3) -0.21367(3) 0.06100(1)
N1M N 0.09350(3) 0.21367(3) -0.06100(1)
C2L C 0.28851(3) -0.04179(3) -0.02538(2)
C1M C 0.27816(3) 0.29173(3) -0.06045(2)
C1I C -0.29173(3) -0.01357(3) -0.06045(2)
C2I C -0.33030(3) -0.28851(3) -0.02538(2)
H1I H -0.1903(13) -0.1303(13) -0.1129(7)
C1C C -0.01357(3) 0.27816(3) 0.06045(2)
C2C C -0.28851(3) 0.04179(3) 0.02538(2)
H1C H -0.1303(13) 0.0600(13) 0.1129(7)
C1L C 0.01357(3) -0.27816(3) -0.06045(2)
H1L H 0.1303(13) -0.0600(13) -0.1129(7)
C1D C -0.27816(3) -0.29173(3) 0.06045(2)
C2D C -0.04179(3) -0.33030(3) 0.02538(2)
H1D H -0.0600(13) -0.1903(13) 0.1129(7)
C2M C 0.04179(3) 0.33030(3) -0.02538(2)
H1M H 0.0600(13) 0.1903(13) -0.1129(7)
H4L H 0.3142(15) -0.1369(14) -0.0272(7)
H5L H 0.3796(14) 0.0531(15) -0.0564(7)
H2M H 0.3115(15) 0.2281(15) -0.0973(7)
H3M H 0.3336(16) 0.4103(15) -0.0820(8)
H2I H -0.2281(15) 0.0834(15) -0.0973(7)
H3I H -0.4103(16) -0.0767(15) -0.0820(8)
H4I H -0.4511(15) -0.3142(14) -0.0272(7)
H5I H -0.3265(14) -0.3796(15) -0.0564(7)
H2C H 0.0834(15) 0.3115(15) 0.0973(7)
H3C H -0.0767(16) 0.3336(15) 0.0820(8)
H4C H -0.3142(15) 0.1369(14) 0.0272(7)
H5C H -0.3796(14) -0.0531(15) 0.0564(7)
H2L H -0.0834(15) -0.3115(15) -0.0973(7)
H3L H 0.0767(16) -0.3336(15) -0.0820(8)
H2D H -0.3115(15) -0.2281(15) 0.0973(7)
H3D H -0.3336(16) -0.4103(15) 0.0820(8)
H4D H -0.1369(15) -0.4511(14) 0.0272(7)
H5D H 0.0531(14) -0.3265(15) 0.0564(7)
H4M H 0.1369(15) 0.4511(14) -0.0272(7)
H5M H -0.0531(14) 0.3265(15) -0.0564(7)
#END
