
#######################################################################
#
#                 Cambridge Crystallographic Data Centre
#                                CCDC
#
#######################################################################
#
# If this CIF has been generated from an entry in the Cambridge
# Structural Database, then it will include bibliographic, chemical,
# crystal, experimental, refinement or atomic coordinate data resulting
# from the CCDC's data processing and validation procedures.
#
#######################################################################

data_CSD_CIF_BIGNOU
_audit_creation_date 1983-03-10
_audit_creation_method CSD-ConQuest-V1
_database_code_CSD BIGNOU
_database_code_depnum_ccdc_archive 'CCDC 1110575'
_chemical_formula_sum 'C12 H30 Cl3 Co1 N6'
_chemical_formula_moiety
;
C12 H30 Co1 N6 3+,3(Cl1 1-)
;
_journal_coden_Cambridge 7
_journal_volume 55
_journal_year 1982
_journal_page_first 1422
_journal_name_full 'Bull.Chem.Soc.Jpn. '
loop_
_publ_author_name
"Y.Yoshikawa"
"K.Toriumi"
"T.Ito"
"H.Yamatera"
_chemical_name_systematic
;
meso-(1,4,7,10,13,16-Hexa-azacyclo-octadecane)-cobalt(iii) trichloride
;
_cell_volume   1261.531
_exptl_crystal_colour 'orange-red'
_exptl_crystal_density_diffrn 1.67
_diffrn_ambient_temperature ?
_diffrn_special_details
;
The study was carried out at room temperature,in the range 283-303K

;
#These two values have been output from a single CSD field.
_refine_ls_R_factor_gt 0.021
_refine_ls_wR_factor_gt 0.021
_symmetry_cell_setting rhombohedral
_symmetry_space_group_name_H-M 'R -3'
_symmetry_Int_Tables_number 148
loop_
_symmetry_equiv_pos_site_id
_symmetry_equiv_pos_as_xyz
1 x,y,z
2 1/3+x,2/3+y,2/3+z
3 2/3+x,1/3+y,1/3+z
4 -y,x-y,z
5 -x+y,-x,z
6 1/3-y,2/3+x-y,2/3+z
7 1/3-x+y,2/3-x,2/3+z
8 2/3-y,1/3+x-y,1/3+z
9 2/3-x+y,1/3-x,1/3+z
10 -x,-y,-z
11 -1/3-x,-2/3-y,-2/3-z
12 -2/3-x,-1/3-y,-1/3-z
13 y,-x+y,-z
14 x-y,x,-z
15 -1/3+y,-2/3-x+y,-2/3-z
16 -1/3+x-y,-2/3+x,-2/3-z
17 -2/3+y,-1/3-x+y,-1/3-z
18 -2/3+x-y,-1/3+x,-1/3-z
_cell_length_a 9.2976(10)
_cell_length_b 9.2976(10)
_cell_length_c 16.851(2)
_cell_angle_alpha 90
_cell_angle_beta 90
_cell_angle_gamma 120
_cell_formula_units_Z 3
loop_
_atom_type_symbol
_atom_type_radius_bond
C 0.68
H 0.23
Cl 0.99
Co 1.33
N 0.68
loop_
_atom_site_label
_atom_site_type_symbol
_atom_site_fract_x
_atom_site_fract_y
_atom_site_fract_z
Co1 Co 0.00000 0.00000 0.00000
N1 N 0.21287 0.11952 0.06033
C1 C 0.29154 0.01391 0.05946
C2 C 0.32874 0.28799 0.02559
H1 H 0.19600 0.12500 0.10900
H2 H 0.22900 -0.07500 0.09300
H3 H 0.40900 0.08400 0.07600
H4 H 0.43400 0.30700 0.03000
H5 H 0.31800 0.37200 0.05600
Cl1 Cl 0.00000 0.00000 0.50000
Cl2 Cl 0.00000 0.00000 0.22293
N1I N -0.21287 -0.11952 -0.06033
N1C N -0.11952 0.09335 0.06033
N1L N 0.11952 -0.09335 -0.06033
N1D N -0.09335 -0.21287 0.06033
N1M N 0.09335 0.21287 -0.06033
C2L C 0.28799 -0.04075 -0.02559
C1M C 0.27763 0.29154 -0.05946
C1I C -0.29154 -0.01391 -0.05946
C2I C -0.32874 -0.28799 -0.02559
H1I H -0.19600 -0.12500 -0.10900
C1C C -0.01391 0.27763 0.05946
C2C C -0.28799 0.04075 0.02559
H1C H -0.12500 0.07100 0.10900
C1L C 0.01391 -0.27763 -0.05946
H1L H 0.12500 -0.07100 -0.10900
C1D C -0.27763 -0.29154 0.05946
C2D C -0.04075 -0.32874 0.02559
H1D H -0.07100 -0.19600 0.10900
C2M C 0.04075 0.32874 -0.02559
H1M H 0.07100 0.19600 -0.10900
H4L H 0.30700 -0.12700 -0.03000
H5L H 0.37200 0.05400 -0.05600
H2M H 0.30400 0.22900 -0.09300
H3M H 0.32500 0.40900 -0.07600
H2I H -0.22900 0.07500 -0.09300
H3I H -0.40900 -0.08400 -0.07600
H4I H -0.43400 -0.30700 -0.03000
H5I H -0.31800 -0.37200 -0.05600
H2C H 0.07500 0.30400 0.09300
H3C H -0.08400 0.32500 0.07600
H4C H -0.30700 0.12700 0.03000
H5C H -0.37200 -0.05400 0.05600
H2L H -0.07500 -0.30400 -0.09300
H3L H 0.08400 -0.32500 -0.07600
H2D H -0.30400 -0.22900 0.09300
H3D H -0.32500 -0.40900 0.07600
H4D H -0.12700 -0.43400 0.03000
H5D H 0.05400 -0.31800 0.05600
H4M H 0.12700 0.43400 -0.03000
H5M H -0.05400 0.31800 -0.05600
#END
