
#######################################################################
#
#                 Cambridge Crystallographic Data Centre
#                                CCDC
#
#######################################################################
#
# If this CIF has been generated from an entry in the Cambridge
# Structural Database, then it will include bibliographic, chemical,
# crystal, experimental, refinement or atomic coordinate data resulting
# from the CCDC's data processing and validation procedures.
#
#######################################################################

data_CSD_CIF_BIJSOF
_audit_creation_date 2018-07-12
_audit_creation_method CSD-ConQuest-V1
_database_code_CSD BIJSOF
_database_code_depnum_ccdc_archive 'CCDC 1841955'
_chemical_formula_sum 'C14 H12 Cr1 N4 S2'
_chemical_formula_moiety
;
C12 H12 Cr1 1+,C2 N4 S2 1-
;
_journal_coden_Cambridge 222
_journal_volume 47
_journal_year 2018
_journal_page_first 9897
_journal_name_full 'Dalton Trans. '
loop_
_publ_author_name
"Yoshiaki Shuku"
"Y.Hirai"
"N.A.Semenov"
"E.Kadilenko"
"N.P.Gritsan"
"A.V.Zibarev"
"O.A.Rakitin"
"K.Awaga"
_chemical_name_systematic
;
bis(\h^6^-benzene)-chromium [1,2,5]thiadiazolo[3,4-c][1,2,5]thiadiazol-4-ide
;
_cell_volume    674.743
_exptl_crystal_colour 'red'
_exptl_crystal_density_diffrn 1.734
_exptl_special_details
;
Magnetic properties
Air-sensitive

;
_exptl_crystal_description 'block'
_diffrn_ambient_temperature 123
#These two values have been output from a single CSD field.
_refine_ls_R_factor_gt 0.0285
_refine_ls_wR_factor_gt 0.0285
_symmetry_cell_setting monoclinic
_symmetry_space_group_name_H-M 'P 21/c'
_symmetry_Int_Tables_number 14
loop_
_symmetry_equiv_pos_site_id
_symmetry_equiv_pos_as_xyz
1 x,y,z
2 -x,1/2+y,1/2-z
3 -x,-y,-z
4 x,-1/2-y,-1/2+z
_cell_length_a 7.911(2)
_cell_length_b 7.6175(18)
_cell_length_c 11.328(3)
_cell_angle_alpha 90
_cell_angle_beta 98.728(3)
_cell_angle_gamma 90
_cell_formula_units_Z 2
loop_
_atom_type_symbol
_atom_type_radius_bond
C 0.68
H 0.23
Cr 1.39
N 0.68
S 1.02
loop_
_atom_site_label
_atom_site_type_symbol
_atom_site_fract_x
_atom_site_fract_y
_atom_site_fract_z
Cr1 Cr 1.00000 1.00000 0.00000
C1 C 0.7467(2) 0.9022(2) 0.00764(16)
C2 C 0.8451(2) 0.7685(2) -0.03671(16)
C3 C 1.0067(2) 0.7228(2) 0.02719(16)
C4 C 1.0683(2) 0.8075(2) 0.13670(16)
C5 C 0.9691(2) 0.9394(3) 0.18111(15)
C6 C 0.8084(2) 0.9883(2) 0.11609(16)
H1 H 0.809(3) 0.716(3) -0.1112(19)
H2 H 0.649(3) 0.943(3) -0.0377(19)
H3 H 0.750(3) 1.080(3) 0.1421(19)
H4 H 1.015(3) 1.004(3) 0.252(2)
H5 H 1.178(3) 0.785(3) 0.1748(18)
H6 H 1.078(3) 0.651(3) -0.0038(19)
S1 S 0.55377(6) 0.57356(7) 0.19651(4)
N1 N 0.4326(2) 0.6752(2) 0.08477(14)
N2 N 0.6257(2) 0.4036(2) 0.12602(15)
C7 C 0.4455(2) 0.5764(2) -0.01143(16)
C1B C 1.2533(2) 1.0978(2) -0.00764(16)
C2B C 1.1549(2) 1.2315(2) 0.03671(16)
C3B C 0.9933(2) 1.2772(2) -0.02719(16)
C4B C 0.9317(2) 1.1925(2) -0.13670(16)
C5B C 1.0309(2) 1.0606(3) -0.18111(15)
C6B C 1.1916(2) 1.0117(2) -0.11609(16)
H1B H 1.191(3) 1.284(3) 0.1112(19)
H2B H 1.351(3) 1.057(3) 0.0377(19)
H3B H 1.250(3) 0.920(3) -0.1421(19)
H4B H 0.985(3) 0.996(3) -0.252(2)
H5B H 0.822(3) 1.215(3) -0.1748(18)
H6B H 0.922(3) 1.349(3) 0.0038(19)
S1B S 0.44623(6) 0.42644(7) -0.19651(4)
N1B N 0.5674(2) 0.3248(2) -0.08477(14)
N2B N 0.3743(2) 0.5964(2) -0.12602(15)
C7B C 0.5545(2) 0.4236(2) 0.01143(16)
#END
