
#######################################################################
#
#                 Cambridge Crystallographic Data Centre
#                                CCDC
#
#######################################################################
#
# If this CIF has been generated from an entry in the Cambridge
# Structural Database, then it will include bibliographic, chemical,
# crystal, experimental, refinement or atomic coordinate data resulting
# from the CCDC's data processing and validation procedures.
#
#######################################################################

data_CSD_CIF_BILDIJ
_audit_creation_date 1983-04-12
_audit_creation_method CSD-ConQuest-V1
_database_code_CSD BILDIJ
_chemical_formula_sum 'C27 H36 Cr1 N3'
_chemical_formula_moiety
;
C27 H36 Cr1 N3
;
_journal_coden_Cambridge 579
_journal_volume 1
_journal_year 1982
_journal_page_first 38
_journal_name_full 'Organometallics '
loop_
_publ_author_name
"F.A.Cotton"
"G.N.Mott"
_chemical_name_systematic
;
tris(2-((Dimethylamino)-methyl)-phenyl-C^1^,N)-chromium(iii)
;
_cell_volume   1776.948
_exptl_crystal_colour 'orange'
_exptl_crystal_density_diffrn 1.274
_diffrn_ambient_temperature ?
_diffrn_special_details
;
The study was carried out at room temperature,in the range 283-303K

;
#These two values have been output from a single CSD field.
_refine_ls_R_factor_gt 0.03
_refine_ls_wR_factor_gt 0.03
_symmetry_cell_setting rhombohedral
_symmetry_space_group_name_H-M 'R 3'
_symmetry_Int_Tables_number 146
loop_
_symmetry_equiv_pos_site_id
_symmetry_equiv_pos_as_xyz
1 x,y,z
2 1/3+x,2/3+y,2/3+z
3 2/3+x,1/3+y,1/3+z
4 -y,x-y,z
5 -x+y,-x,z
6 1/3-y,2/3+x-y,2/3+z
7 1/3-x+y,2/3-x,2/3+z
8 2/3-y,1/3+x-y,1/3+z
9 2/3-x+y,1/3-x,1/3+z
_cell_length_a 12.462(2)
_cell_length_b 12.462(2)
_cell_length_c 13.212(2)
_cell_angle_alpha 90
_cell_angle_beta 90
_cell_angle_gamma 120
_cell_formula_units_Z 3
loop_
_atom_type_symbol
_atom_type_radius_bond
C 0.68
H 0.23
Cr 1.35
N 0.68
loop_
_atom_site_label
_atom_site_type_symbol
_atom_site_fract_x
_atom_site_fract_y
_atom_site_fract_z
Cr1 Cr 0.00000 0.00000 0.00000
N1 N 0.04270 -0.13740 0.09020
C1 C -0.09200 -0.16210 -0.08420
C2 C -0.13360 -0.17850 -0.18480
C3 C -0.19190 -0.29170 -0.23220
C4 C -0.21120 -0.39690 -0.18200
C5 C -0.17030 -0.38590 -0.08120
C6 C -0.11170 -0.27010 -0.03590
C7 C -0.07370 -0.25940 0.07480
C8 C 0.06760 -0.12430 0.20080
C9 C 0.14430 -0.14690 0.04010
H1 H -0.12070 -0.10770 -0.22200
H2 H -0.21930 -0.29760 -0.30010
H3 H -0.25140 -0.47520 -0.21480
H4 H -0.18260 -0.45690 -0.04480
H5 H -0.05920 -0.32510 0.09180
H6 H -0.13770 -0.26340 0.11650
H7 H 0.14100 -0.04790 0.21400
H8 H -0.00020 -0.12590 0.23520
H9 H 0.07780 -0.19080 0.22400
H10 H 0.22000 -0.07110 0.04820
H11 H 0.15150 -0.21240 0.07000
H12 H 0.12640 -0.16330 -0.03000
N1C N 0.13740 0.18010 0.09020
N1D N -0.18010 -0.04270 0.09020
C1C C 0.16210 0.07010 -0.08420
C1D C -0.07010 0.09200 -0.08420
C7C C 0.25940 0.18570 0.07480
C8C C 0.12430 0.19190 0.20080
C9C C 0.14690 0.29120 0.04010
C7D C -0.18570 0.07370 0.07480
C8D C -0.19190 -0.06760 0.20080
C9D C -0.29120 -0.14430 0.04010
C2C C 0.17850 0.04490 -0.18480
C6C C 0.27010 0.15840 -0.03590
C2D C -0.04490 0.13360 -0.18480
C6D C -0.15840 0.11170 -0.03590
H5C H 0.32510 0.26590 0.09180
H6C H 0.26340 0.12570 0.11650
H7C H 0.04790 0.18890 0.21400
H8C H 0.12590 0.12570 0.23520
H9C H 0.19080 0.26860 0.22400
H10C H 0.07110 0.29110 0.04820
H11C H 0.21240 0.36390 0.07000
H12C H 0.16330 0.28970 -0.03000
H5D H -0.26590 0.05920 0.09180
H6D H -0.12570 0.13770 0.11650
H7D H -0.18890 -0.14100 0.21400
H8D H -0.12570 0.00020 0.23520
H9D H -0.26860 -0.07780 0.22400
H10D H -0.29110 -0.22000 0.04820
H11D H -0.36390 -0.15150 0.07000
H12D H -0.28970 -0.12640 -0.03000
C3C C 0.29170 0.09980 -0.23220
H1C H 0.10770 -0.01300 -0.22200
C5C C 0.38590 0.21560 -0.08120
C3D C -0.09980 0.19190 -0.23220
H1D H 0.01300 0.12070 -0.22200
C5D C -0.21560 0.17030 -0.08120
C4C C 0.39690 0.18570 -0.18200
H2C H 0.29760 0.07830 -0.30010
H4C H 0.45690 0.27430 -0.04480
C4D C -0.18570 0.21120 -0.18200
H2D H -0.07830 0.21930 -0.30010
H4D H -0.27430 0.18260 -0.04480
H3C H 0.47520 0.22380 -0.21480
H3D H -0.22380 0.25140 -0.21480
#END
