
#######################################################################
#
#                 Cambridge Crystallographic Data Centre
#                                CCDC
#
#######################################################################
#
# If this CIF has been generated from an entry in the Cambridge
# Structural Database, then it will include bibliographic, chemical,
# crystal, experimental, refinement or atomic coordinate data resulting
# from the CCDC's data processing and validation procedures.
#
#######################################################################

data_CSD_CIF_BIPTOJ
_audit_creation_date 1999-12-03
_audit_creation_method CSD-ConQuest-V1
_database_code_CSD BIPTOJ
_database_code_depnum_ccdc_archive 'CCDC 112439'
_chemical_formula_sum 'C18 H20 Fe1 Ge1'
_chemical_formula_moiety
;
C18 H20 Fe1 Ge1
;
_journal_coden_Cambridge 155
_journal_volume 291
_journal_year 1999
_journal_page_first 355
_journal_name_full 'Inorg.Chim.Acta '
loop_
_publ_author_name
"S.Zurcher"
"V.Gramlich"
"A.Togni"
_chemical_name_systematic
;
(2,3,4,5-Tetramethylbuta-1,3-dien-1,4-diyl)-germa-(1)ferrocenophane
;
_chemical_melting_point 443.15
_cell_volume   1549.418
_exptl_crystal_colour 'red'
_exptl_crystal_density_diffrn 1.564
_exptl_crystal_description 'prism'
_diffrn_ambient_temperature ?
_diffrn_special_details
;
The study was carried out at room temperature,in the range 283-303K

;
#These two values have been output from a single CSD field.
_refine_ls_R_factor_gt 0.0236
_refine_ls_wR_factor_gt 0.0236
_symmetry_cell_setting monoclinic
_symmetry_space_group_name_H-M 'C 2/c'
_symmetry_Int_Tables_number 15
loop_
_symmetry_equiv_pos_site_id
_symmetry_equiv_pos_as_xyz
1 x,y,z
2 x,-y,1/2+z
3 1/2+x,1/2+y,z
4 1/2+x,1/2-y,1/2+z
5 -x,-y,-z
6 -x,y,-1/2-z
7 -1/2-x,-1/2-y,-z
8 -1/2-x,-1/2+y,-1/2-z
_cell_length_a 10.907(4)
_cell_length_b 11.040(4)
_cell_length_c 13.771(5)
_cell_angle_alpha 90
_cell_angle_beta 110.87(3)
_cell_angle_gamma 90
_cell_formula_units_Z 4
loop_
_atom_type_symbol
_atom_type_radius_bond
C 0.68
H 0.23
Fe 1.34
Ge 1.05
loop_
_atom_site_label
_atom_site_type_symbol
_atom_site_fract_x
_atom_site_fract_y
_atom_site_fract_z
Fe1 Fe 0.50000 0.64609(7) 0.25000
Ge1 Ge 0.50000 0.89966(5) 0.25000
C1 C 0.6076(4) 0.7760(3) 0.2147(3)
C2 C 0.5442(4) 0.6990(4) 0.1266(3)
H1 H 0.4822(4) 0.7256(4) 0.0612(3)
C3 C 0.5881(5) 0.5784(4) 0.1513(4)
H2 H 0.5588(5) 0.5088(4) 0.1073(4)
C4 C 0.6780(4) 0.5768(4) 0.2539(4)
H3 H 0.7208(4) 0.5067(4) 0.2923(4)
C5 C 0.6903(4) 0.6962(4) 0.2928(3)
H4 H 0.7440(4) 0.7209(4) 0.3617(3)
C6 C 0.5788(3) 1.0213(4) 0.3539(3)
C7 C 0.5420(4) 1.1291(3) 0.3073(3)
C8 C 0.6628(5) 1.0011(5) 0.4660(3)
H5 H 0.6986(32) 1.0741(19) 0.5031(28)
H6 H 0.6082(30) 0.9621(27) 0.4981(29)
H7 H 0.7329(24) 0.9476(23) 0.4677(32)
C9 C 0.5812(6) 1.2487(4) 0.3620(4)
H8 H 0.5028(25) 1.2958(37) 0.3484(29)
H9 H 0.6243(32) 1.2392(32) 0.4357(6)
H10 H 0.6389(28) 1.2894(38) 0.3339(27)
C1E C 0.3924(4) 0.7760(3) 0.2853(3)
C2E C 0.4558(4) 0.6990(4) 0.3734(3)
C5E C 0.3097(4) 0.6962(4) 0.2072(3)
C3E C 0.4119(5) 0.5784(4) 0.3487(4)
H1E H 0.5178(4) 0.7256(4) 0.4388(3)
H2E H 0.4412(5) 0.5088(4) 0.3927(4)
C4E C 0.3220(4) 0.5768(4) 0.2461(4)
H3E H 0.2792(4) 0.5067(4) 0.2077(4)
H4E H 0.2560(4) 0.7209(4) 0.1383(3)
C7E C 0.4580(4) 1.1291(3) 0.1927(3)
C6E C 0.4212(3) 1.0213(4) 0.1461(3)
C8E C 0.3372(5) 1.0011(5) 0.0340(3)
H5E H 0.3014(32) 1.0741(19) -0.0031(28)
H6E H 0.3918(30) 0.9621(27) 0.0019(29)
H7E H 0.2671(24) 0.9476(23) 0.0323(32)
C9E C 0.4188(6) 1.2487(4) 0.1380(4)
H8E H 0.4972(25) 1.2958(37) 0.1516(29)
H9E H 0.3757(32) 1.2392(32) 0.0643(6)
H10E H 0.3611(28) 1.2894(38) 0.1661(27)
#END
