
#######################################################################
#
#                 Cambridge Crystallographic Data Centre
#                                CCDC
#
#######################################################################
#
# If this CIF has been generated from an entry in the Cambridge
# Structural Database, then it will include bibliographic, chemical,
# crystal, experimental, refinement or atomic coordinate data resulting
# from the CCDC's data processing and validation procedures.
#
#######################################################################

data_CSD_CIF_BIPZEF
_audit_creation_date 1999-12-03
_audit_creation_method CSD-ConQuest-V1
_database_code_CSD BIPZEF
_database_code_depnum_ccdc_archive 'CCDC 112445'
_chemical_formula_sum 'C18 H20 Fe1 Ge1 S2'
_chemical_formula_moiety
;
C18 H20 Fe1 Ge1 S2
;
_journal_coden_Cambridge 155
_journal_volume 291
_journal_year 1999
_journal_page_first 355
_journal_name_full 'Inorg.Chim.Acta '
loop_
_publ_author_name
"S.Zurcher"
"V.Gramlich"
"A.Togni"
_chemical_name_systematic
;
2-(2,3,4,5-Tetramethylbuta-1,3-dien-1,4-diyl)-1,3-dithia-2-germa-(1)ferrocenop
hane
;
_chemical_melting_point 511.15
_cell_volume    881.625
_exptl_crystal_colour 'orange'
_exptl_crystal_density_diffrn 1.616
_exptl_special_details
;
Melting point range 511.15-513.15K

;
_exptl_crystal_description 'platelet'
_diffrn_ambient_temperature ?
_diffrn_special_details
;
The study was carried out at room temperature,in the range 283-303K

;
#These two values have been output from a single CSD field.
_refine_ls_R_factor_gt 0.03
_refine_ls_wR_factor_gt 0.03
_symmetry_cell_setting triclinic
_symmetry_space_group_name_H-M 'P -1'
_symmetry_Int_Tables_number 2
loop_
_symmetry_equiv_pos_site_id
_symmetry_equiv_pos_as_xyz
1 x,y,z
2 -x,-y,-z
_cell_length_a 8.104(3)
_cell_length_b 8.953(4)
_cell_length_c 13.177(6)
_cell_angle_alpha 70.79(4)
_cell_angle_beta 77.56(3)
_cell_angle_gamma 85.80(3)
_cell_formula_units_Z 2
loop_
_atom_type_symbol
_atom_type_radius_bond
C 0.68
H 0.23
Fe 1.34
Ge 1.17
S 1.02
loop_
_atom_site_label
_atom_site_type_symbol
_atom_site_fract_x
_atom_site_fract_y
_atom_site_fract_z
Fe1 Fe 0.05767(9) 0.39029(8) 0.27468(6)
Ge1 Ge 0.36370(7) 0.69996(6) 0.27485(4)
S1 S 0.3655(2) 0.4617(2) 0.39890(11)
S2 S 0.0977(2) 0.7767(2) 0.26524(12)
C1 C 0.2514(7) 0.3391(6) 0.3582(4)
C2 C 0.2950(7) 0.2950(6) 0.2612(5)
H1 H 0.3888(7) 0.3344(6) 0.2014(5)
C3 C 0.1753(8) 0.1815(7) 0.2684(5)
H2 H 0.1733(8) 0.1317(7) 0.2143(5)
C4 C 0.0589(9) 0.1570(7) 0.3677(5)
H3 H -0.0363(9) 0.0871(7) 0.3933(5)
C5 C 0.1026(7) 0.2537(6) 0.4232(5)
H4 H 0.0438(7) 0.2600(6) 0.4932(5)
C6 C 0.0081(6) 0.6274(6) 0.2349(4)
C7 C 0.0509(7) 0.5816(6) 0.1395(4)
H5 H 0.1437(7) 0.6216(6) 0.0791(4)
C8 C -0.0690(8) 0.4657(7) 0.1493(5)
H6 H -0.0702(8) 0.4142(7) 0.0960(5)
C9 C -0.1835(7) 0.4419(7) 0.2486(5)
H7 H -0.2763(7) 0.3690(7) 0.2757(5)
C10 C -0.1382(7) 0.5387(6) 0.3030(5)
H8 H -0.1959(7) 0.5446(6) 0.3734(5)
C11 C 0.4688(8) 0.8489(6) 0.3186(5)
C12 C 0.5947(7) 0.9165(6) 0.2351(5)
C13 C 0.6248(7) 0.8622(7) 0.1359(5)
C14 C 0.5239(7) 0.7494(7) 0.1361(4)
C15 C 0.4127(10) 0.8790(9) 0.4280(6)
H9 H 0.5189(38) 0.8884(58) 0.4465(54)
H10 H 0.3449(50) 0.9710(35) 0.4298(47)
H11 H 0.3547(57) 0.7864(37) 0.4799(45)
C16 C 0.7035(10) 1.0453(9) 0.2359(11)
H12 H 0.684(11) 1.048(10) 0.3098(24)
H13 H 0.8196(34) 1.0184(78) 0.2141(52)
H14 H 0.6793(77) 1.1472(47) 0.1876(47)
C17 C 0.7704(9) 0.9318(10) 0.0419(7)
H15 H 0.7668(70) 0.8733(54) -0.0069(38)
H16 H 0.7537(76) 1.0422(17) 0.0055(43)
H17 H 0.8784(39) 0.9167(62) 0.0627(50)
C18 C 0.5380(9) 0.6775(9) 0.0454(5)
H18 H 0.5083(69) 0.7579(49) -0.0170(34)
H19 H 0.6514(24) 0.6421(58) 0.0258(52)
H20 H 0.4617(50) 0.5900(39) 0.0685(46)
#END
