
#######################################################################
#
#                 Cambridge Crystallographic Data Centre
#                                CCDC
#
#######################################################################
#
# If this CIF has been generated from an entry in the Cambridge
# Structural Database, then it will include bibliographic, chemical,
# crystal, experimental, refinement or atomic coordinate data resulting
# from the CCDC's data processing and validation procedures.
#
#######################################################################

data_CSD_CIF_BISHIX
_audit_creation_date 2018-12-07
_audit_creation_method CSD-ConQuest-V1
_database_code_CSD BISHIX
_database_code_depnum_ccdc_archive 'CCDC 1843388'
_chemical_formula_sum 'C20 H30 Mn1 O2 P1'
_chemical_formula_moiety
;
C20 H30 Mn1 O2 P1
;
_journal_coden_Cambridge 579
_journal_volume 37
_journal_year 2018
_journal_page_first 3670
_journal_name_full 'Organometallics '
loop_
_publ_author_name
"T.Heurich"
"N.R.Naz"
"Zheng-Wang Qu"
"G.Schnakenburg"
"R.Streubel"
_chemical_name_systematic
;
(1-methylcyclopentadienyl)-dicarbonyl-dicyclohexylphosphane-manganese(i)
;
_cell_volume   1938.698
_exptl_crystal_colour 'yellow'
_exptl_crystal_density_diffrn 1.33
_exptl_crystal_description 'plank'
_diffrn_ambient_temperature 100
_diffrn_special_details
;
twin

;
#These two values have been output from a single CSD field.
_refine_ls_R_factor_gt 0.0621
_refine_ls_wR_factor_gt 0.0621
_symmetry_cell_setting monoclinic
_symmetry_space_group_name_H-M 'C c'
_symmetry_Int_Tables_number 9
loop_
_symmetry_equiv_pos_site_id
_symmetry_equiv_pos_as_xyz
1 x,y,z
2 x,-y,1/2+z
3 1/2+x,1/2+y,z
4 1/2+x,1/2-y,1/2+z
_cell_length_a 17.983(6)
_cell_length_b 10.532(3)
_cell_length_c 13.121(4)
_cell_angle_alpha 90
_cell_angle_beta 128.727(7)
_cell_angle_gamma 90
_cell_formula_units_Z 4
loop_
_atom_type_symbol
_atom_type_radius_bond
C 0.68
H 0.23
Mn 1.61
O 0.68
P 1.05
loop_
_atom_site_label
_atom_site_type_symbol
_atom_site_fract_x
_atom_site_fract_y
_atom_site_fract_z
Mn1 Mn 0.76074(7) 0.55134(10) 0.43525(8)
P1 P 0.62479(15) 0.62973(17) 0.37905(19)
H1 H 0.557(6) 0.626(7) 0.250(8)
O1 O 0.7336(4) 0.6833(6) 0.2184(6)
O2 O 0.6653(5) 0.3289(6) 0.2676(6)
C1 C 0.5648(5) 0.5450(7) 0.4352(8)
H2 H 0.60660 0.55190 0.53250
C2 C 0.5544(6) 0.4036(7) 0.3995(9)
H3 H 0.51650 0.39490 0.30370
H4 H 0.61820 0.36670 0.44150
C3 C 0.5056(7) 0.3303(8) 0.4437(10)
H5 H 0.49510 0.24150 0.41270
H6 H 0.54800 0.32890 0.54030
C4 C 0.4103(7) 0.3891(8) 0.3918(9)
H7 H 0.36460 0.37980 0.29560
H8 H 0.38410 0.34370 0.42910
C5 C 0.4223(7) 0.5287(8) 0.4276(10)
H9 H 0.46260 0.53720 0.52370
H10 H 0.35920 0.56610 0.38890
C6 C 0.4682(6) 0.6017(7) 0.3787(9)
H11 H 0.42610 0.59790 0.28210
H12 H 0.47620 0.69190 0.40480
C7 C 0.6171(5) 0.8016(7) 0.4048(7)
H13 H 0.54830 0.82250 0.35650
C8 C 0.6704(6) 0.8371(7) 0.5477(8)
H14 H 0.73880 0.81590 0.59830
H15 H 0.64500 0.78690 0.58360
C9 C 0.6603(6) 0.9796(7) 0.5629(8)
H16 H 0.59260 0.99980 0.51890
H17 H 0.69790 1.00070 0.65670
C10 C 0.6954(7) 1.0584(7) 0.5032(9)
H18 H 0.68550 1.14960 0.50960
H19 H 0.76460 1.04420 0.55320
C11 C 0.6436(7) 1.0240(7) 0.3617(8)
H20 H 0.67000 1.07430 0.32720
H21 H 0.57530 1.04590 0.31010
C12 C 0.6531(6) 0.8831(7) 0.3458(8)
H22 H 0.72070 0.86270 0.38990
H23 H 0.61570 0.86280 0.25180
C13 C 0.8927(6) 0.4505(8) 0.5662(8)
C14 C 0.8426(6) 0.4488(8) 0.6170(8)
H24 H 0.82100 0.37470 0.63260
C15 C 0.8301(6) 0.5736(8) 0.6404(8)
H25 H 0.79910 0.59830 0.67510
C16 C 0.8720(6) 0.6578(8) 0.6029(7)
H26 H 0.87350 0.74790 0.60690
C17 C 0.9109(6) 0.5788(8) 0.5587(8)
H27 H 0.94410 0.60810 0.52870
C18 C 0.9249(8) 0.3399(10) 0.5319(11)
H28 H 0.87970 0.26970 0.50130
H29 H 0.98820 0.31290 0.60920
H30 H 0.92800 0.36440 0.46260
C19 C 0.7439(6) 0.6342(7) 0.3049(8)
C20 C 0.7021(6) 0.4181(7) 0.3341(8)
#END
