
#######################################################################
#
#                 Cambridge Crystallographic Data Centre
#                                CCDC
#
#######################################################################
#
# If this CIF has been generated from an entry in the Cambridge
# Structural Database, then it will include bibliographic, chemical,
# crystal, experimental, refinement or atomic coordinate data resulting
# from the CCDC's data processing and validation procedures.
#
#######################################################################

data_CSD_CIF_BIVWIM
_audit_creation_date 1983-05-14
_audit_creation_method CSD-ConQuest-V1
_database_code_CSD BIVWIM
_database_code_depnum_ccdc_archive 'CCDC 1111929'
_chemical_formula_sum 'C12 H12 Mn1 N2 O8'
_chemical_formula_moiety
;
C12 H12 Mn1 N2 O8
;
_journal_coden_Cambridge 3
_journal_volume 36
_journal_year 1982
_journal_page_first 767
_journal_name_full 'Acta Chem.Scand. '
loop_
_publ_author_name
"P.Knuuttila"
_chemical_name_systematic
;
Diaqua-bis(picolinato-N-oxido)-manganese(ii)
;
_cell_volume    675.438
_exptl_special_details
;
Isostructural with cobalt and nickel analogues
H2 removed for suspected coord. error
;
_diffrn_ambient_temperature ?
_diffrn_special_details
;
The study was carried out at room temperature,in the range 283-303K

;
#These two values have been output from a single CSD field.
_refine_ls_R_factor_gt 0.033
_refine_ls_wR_factor_gt 0.033
_symmetry_cell_setting monoclinic
_symmetry_space_group_name_H-M 'P 21/c'
_symmetry_Int_Tables_number 14
loop_
_symmetry_equiv_pos_site_id
_symmetry_equiv_pos_as_xyz
1 x,y,z
2 -x,1/2+y,1/2-z
3 -x,-y,-z
4 x,-1/2-y,-1/2+z
_cell_length_a 6.682(2)
_cell_length_b 15.812(4)
_cell_length_c 7.006(3)
_cell_angle_alpha 90
_cell_angle_beta 114.15(2)
_cell_angle_gamma 90
_cell_formula_units_Z 2
loop_
_atom_type_symbol
_atom_type_radius_bond
C 0.68
H 0.20
Mn 1.35
N 0.68
O 0.65
loop_
_atom_site_label
_atom_site_type_symbol
_atom_site_fract_x
_atom_site_fract_y
_atom_site_fract_z
Mn1 Mn 0.00000 0.50000 0.50000
O1 O -0.09081 0.61570 0.32255
O2 O 0.34338 0.51799 0.62314
O3 O 0.67530 0.49296 0.86982
O4 O 0.00425 0.43197 0.22350
N1 N -0.26088 0.66063 0.31496
C1 C -0.45910 0.62508 0.27754
C2 C -0.63354 0.67665 0.25875
C3 C -0.60958 0.76344 0.27607
C4 C -0.40572 0.79760 0.31644
C5 C -0.23466 0.74594 0.33407
C6 C 0.49144 0.46974 0.74059
H1 H -0.73600 0.79800 0.27500
H2 H -0.37400 0.85900 0.36600
H3 H -0.09200 0.76400 0.34300
H4 H 0.07200 0.44100 0.21600
H5 H -0.12600 0.44800 0.10900
O1B O 0.09081 0.38430 0.67745
O2B O -0.34338 0.48201 0.37686
O4B O -0.00425 0.56803 0.77650
C6B C -0.49144 0.53026 0.25941
C1B C 0.45910 0.37492 0.72246
N1B N 0.26088 0.33937 0.68504
H4B H -0.07200 0.55900 0.78400
H5B H 0.12600 0.55200 0.89100
O3B O -0.67530 0.50704 0.13018
C2B C 0.63354 0.32335 0.74125
C5B C 0.23466 0.25406 0.66593
C3B C 0.60958 0.23656 0.72393
C4B C 0.40572 0.20240 0.68356
H3B H 0.09200 0.23600 0.65700
H1B H 0.73600 0.20200 0.72500
H2B H 0.37400 0.14100 0.63400
#END
