
#######################################################################
#
#                 Cambridge Crystallographic Data Centre
#                                CCDC
#
#######################################################################
#
# If this CIF has been generated from an entry in the Cambridge
# Structural Database, then it will include bibliographic, chemical,
# crystal, experimental, refinement or atomic coordinate data resulting
# from the CCDC's data processing and validation procedures.
#
#######################################################################

data_CSD_CIF_BIZYIV
_audit_creation_date 2019-04-18
_audit_creation_method CSD-ConQuest-V1
_database_code_CSD BIZYIV
_database_code_depnum_ccdc_archive 'CCDC 1844079'
_chemical_formula_sum 'C15 H10 Br1 Mn1 N2 O4'
_chemical_formula_moiety
;
C15 H10 Br1 Mn1 N2 O4
;
_journal_coden_Cambridge 1499
_journal_volume 9
_journal_year 2019
_journal_page_first 2091
_journal_name_full 'ACS Catalysis '
loop_
_publ_author_name
"C.Steinlechner"
"A.F.Roesel"
"E.Oberem"
"A.Papcke"
"N.Rockstroh"
"F.Gloaguen"
"S.Lochbrunner"
"R.Ludwig"
"A.Spannenberg"
"Henrik Junge"
"R.Francke"
"M.Beller"
_chemical_name_systematic
;
bromo-tricarbonyl-(2-(4,5-dihydro-1,3-oxazol-2-yl)quinoline)-manganese
;
_cell_volume    753.699
_exptl_crystal_colour 'red'
_exptl_crystal_density_diffrn 1.838
_exptl_crystal_description 'prism'
_diffrn_ambient_temperature 150
#These two values have been output from a single CSD field.
_refine_ls_R_factor_gt 0.0186
_refine_ls_wR_factor_gt 0.0186
_symmetry_cell_setting triclinic
_symmetry_space_group_name_H-M 'P -1'
_symmetry_Int_Tables_number 2
loop_
_symmetry_equiv_pos_site_id
_symmetry_equiv_pos_as_xyz
1 x,y,z
2 -x,-y,-z
_cell_length_a 7.1769(4)
_cell_length_b 9.2213(5)
_cell_length_c 11.5716(6)
_cell_angle_alpha 85.6351(18)
_cell_angle_beta 84.0784(18)
_cell_angle_gamma 82.5090(17)
_cell_formula_units_Z 2
loop_
_atom_type_symbol
_atom_type_radius_bond
C 0.68
H 0.23
Br 1.21
Mn 1.61
N 0.68
O 0.68
loop_
_atom_site_label
_atom_site_type_symbol
_atom_site_fract_x
_atom_site_fract_y
_atom_site_fract_z
Br1 Br 0.28841(2) 0.39117(2) 0.10611(2)
C1 C 0.8091(2) 0.30283(17) 0.14999(14)
H1 H 0.88200 0.32710 0.21250
H2 H 0.76390 0.39430 0.10540
C2 C 0.9284(2) 0.19317(17) 0.06988(14)
H3 H 0.94900 0.23780 -0.01020
H4 H 1.05250 0.16010 0.09950
C3 C 0.6667(2) 0.10289(16) 0.14882(12)
C4 C 0.5207(2) 0.00544(15) 0.17290(12)
C5 C 0.5420(2) -0.13187(16) 0.12530(13)
H5 H 0.65230 -0.16390 0.07670
C6 C 0.4007(2) -0.21838(16) 0.15050(13)
H6 H 0.41060 -0.31180 0.11940
C7 C 0.2401(2) -0.16693(15) 0.22328(12)
C8 C 0.0888(2) -0.25252(16) 0.25222(13)
H7 H 0.09690 -0.34690 0.22310
C9 C -0.0679(2) -0.20089(17) 0.32125(14)
H8 H -0.16860 -0.25860 0.33940
C10 C -0.0791(2) -0.06164(17) 0.36535(13)
H9 H -0.18850 -0.02600 0.41330
C11 C 0.0648(2) 0.02369(16) 0.34040(13)
H10 H 0.05440 0.11690 0.37190
C12 C 0.22809(19) -0.02581(15) 0.26841(12)
C13 C 0.4811(2) 0.19977(16) 0.43349(13)
C14 C 0.1741(2) 0.34379(16) 0.36393(13)
C15 C 0.4824(2) 0.44707(17) 0.32986(13)
Mn1 Mn 0.40569(3) 0.27791(2) 0.29589(2)
N1 N 0.65041(17) 0.22323(13) 0.19823(11)
N2 N 0.37162(17) 0.06110(13) 0.24193(10)
O1 O 0.81590(15) 0.06989(12) 0.07224(9)
O2 O 0.52508(18) 0.15689(13) 0.52262(10)
O3 O 0.03056(17) 0.39507(13) 0.40537(11)
O4 O 0.5364(2) 0.55084(13) 0.35443(12)
#END
