
#######################################################################
#
#                 Cambridge Crystallographic Data Centre
#                                CCDC
#
#######################################################################
#
# If this CIF has been generated from an entry in the Cambridge
# Structural Database, then it will include bibliographic, chemical,
# crystal, experimental, refinement or atomic coordinate data resulting
# from the CCDC's data processing and validation procedures.
#
#######################################################################

data_CSD_CIF_BMPYMN
_audit_creation_date 1972-06-20
_audit_creation_method CSD-ConQuest-V1
_database_code_CSD BMPYMN
_database_code_depnum_ccdc_archive 'CCDC 1112613'
_chemical_formula_sum 'C16 H24 Br2 Mn1 N8'
_chemical_formula_moiety
;
C16 H24 Br2 Mn1 N8
;
_journal_coden_Cambridge 9
_journal_volume 10
_journal_year 1971
_journal_page_first 2594
_journal_name_full 'Inorg.Chem. '
loop_
_publ_author_name
"J.Reedijk"
"B.A.Stork-Blaisse"
"G.C.Verschoor"
_chemical_name_systematic
;
Dibromo-tetrakis(5-methylpyrazole)-manganese(ii)
;
_cell_volume    558.826
_exptl_crystal_density_diffrn 1.593
_diffrn_ambient_temperature ?
_diffrn_special_details
;
The study was carried out at room temperature,in the range 283-303K

;
#These two values have been output from a single CSD field.
_refine_ls_R_factor_gt 0.045
_refine_ls_wR_factor_gt 0.045
_symmetry_cell_setting triclinic
_symmetry_space_group_name_H-M 'P -1'
_symmetry_Int_Tables_number 2
loop_
_symmetry_equiv_pos_site_id
_symmetry_equiv_pos_as_xyz
1 x,y,z
2 -x,-y,-z
_cell_length_a 8.802(6)
_cell_length_b 9.695(5)
_cell_length_c 7.613(8)
_cell_angle_alpha 105.12(4)
_cell_angle_beta 114.98(4)
_cell_angle_gamma 92.90(3)
_cell_formula_units_Z 1
loop_
_atom_type_symbol
_atom_type_radius_bond
C 0.68
H 0.20
Br 1.12
Mn 1.22
N 0.68
loop_
_atom_site_label
_atom_site_type_symbol
_atom_site_fract_x
_atom_site_fract_y
_atom_site_fract_z
Br1 Br 0.16800 0.06730 0.41380
C1 C 0.17920 0.34490 0.16220
C2 C -0.35680 0.12790 -0.09490
C3 C -0.45200 0.18730 0.00170
C4 C -0.36830 0.18530 0.19750
C5 C -0.40330 0.23520 0.37520
C6 C 0.21790 0.45410 0.09240
C7 C 0.16620 0.39170 -0.10890
C8 C 0.17480 0.45120 -0.26420
H1 H 0.19900 0.34500 0.27600
H2 H -0.37400 0.11600 -0.22800
H3 H -0.56300 0.22500 -0.06000
H4 H -0.16300 0.09400 0.31000
H5 H 0.07800 0.19000 -0.25200
H6 H 0.26400 0.55100 0.16300
Mn1 Mn 0.00000 0.00000 0.00000
N1 N -0.21990 0.09050 0.03170
N2 N 0.10710 0.22120 0.01410
N3 N -0.23070 0.12750 0.20970
N4 N 0.10330 0.25370 -0.14940
Br1A Br -0.16800 -0.06730 -0.41380
N1A N 0.21990 -0.09050 -0.03170
N2A N -0.10710 -0.22120 -0.01410
C2A C 0.35680 -0.12790 0.09490
N3A N 0.23070 -0.12750 -0.20970
C1A C -0.17920 -0.34490 -0.16220
N4A N -0.10330 -0.25370 0.14940
C3A C 0.45200 -0.18730 -0.00170
H2A H 0.37400 -0.11600 0.22800
C4A C 0.36830 -0.18530 -0.19750
H4A H 0.16300 -0.09400 -0.31000
C6A C -0.21790 -0.45410 -0.09240
H1A H -0.19900 -0.34500 -0.27600
C7A C -0.16620 -0.39170 0.10890
H5A H -0.07800 -0.19000 0.25200
H3A H 0.56300 -0.22500 0.06000
C5A C 0.40330 -0.23520 -0.37520
H6A H -0.26400 -0.55100 -0.16300
C8A C -0.17480 -0.45120 0.26420
#END
