
#######################################################################
#
#                 Cambridge Crystallographic Data Centre
#                                CCDC
#
#######################################################################
#
# If this CIF has been generated from an entry in the Cambridge
# Structural Database, then it will include bibliographic, chemical,
# crystal, experimental, refinement or atomic coordinate data resulting
# from the CCDC's data processing and validation procedures.
#
#######################################################################

data_CSD_CIF_BOFFIL
_audit_creation_date 1983-06-14
_audit_creation_method CSD-ConQuest-V1
_database_code_CSD BOFFIL
_database_code_depnum_ccdc_archive 'CCDC 1113045'
_chemical_formula_sum 'C10 H10 Fe1 N4 O6'
_chemical_formula_moiety
;
C10 H10 Fe1 N4 O6
;
_journal_coden_Cambridge 186
_journal_year 1982
_journal_page_first 2419
_journal_name_full 'J.Chem.Soc.,Dalton Trans. '
loop_
_publ_author_name
"C.L.Klein"
"C.J.O'Connor"
"R.J.Majeste"
"L.M.Trefonas"
_chemical_name_systematic
;
Diaqua-bis(pyrazinecarboxylato)-iron(ii)
;
_cell_volume    595.697
_exptl_crystal_density_diffrn 1.79
_exptl_special_details
;
z(C7)=.3383, not .3210

;
_diffrn_ambient_temperature ?
_diffrn_special_details
;
The study was carried out at room temperature,in the range 283-303K

;
#These two values have been output from a single CSD field.
_refine_ls_R_factor_gt 0.077
_refine_ls_wR_factor_gt 0.077
_symmetry_cell_setting monoclinic
_symmetry_space_group_name_H-M 'P 21/c'
_symmetry_Int_Tables_number 14
loop_
_symmetry_equiv_pos_site_id
_symmetry_equiv_pos_as_xyz
1 x,y,z
2 -x,1/2+y,1/2-z
3 -x,-y,-z
4 x,-1/2-y,-1/2+z
_cell_length_a 5.238(2)
_cell_length_b 11.198(2)
_cell_length_c 10.337(3)
_cell_angle_alpha 90
_cell_angle_beta 100.74(5)
_cell_angle_gamma 90
_cell_formula_units_Z 2
loop_
_atom_type_symbol
_atom_type_radius_bond
C 0.68
H 0.23
Fe 1.34
N 0.68
O 0.68
loop_
_atom_site_label
_atom_site_type_symbol
_atom_site_fract_x
_atom_site_fract_y
_atom_site_fract_z
Fe1 Fe 0.00000 0.50000 0.50000
O1 O 0.22670 0.57620 0.37300
O2 O 0.30360 0.74190 0.26820
O3 O -0.30790 0.47160 0.33490
N1 N -0.11210 0.68230 0.49880
N2 N -0.24920 0.92290 0.44480
C1 C -0.00980 0.74820 0.40710
C2 C -0.08330 0.86570 0.38770
C3 C -0.35110 0.85100 0.52710
C4 C -0.28390 0.73830 0.55900
C5 C 0.18180 0.68480 0.33830
H1 H 0.00000 0.91300 0.32100
H2 H -0.49200 0.88900 0.57200
H3 H -0.36100 0.69500 0.62900
H4 H -0.48000 0.52000 0.32000
H5 H -0.27000 0.40000 0.28000
O1B O -0.22670 0.42380 0.62700
O3B O 0.30790 0.52840 0.66510
N1B N 0.11210 0.31770 0.50120
C5B C -0.18180 0.31520 0.66170
H4B H 0.48000 0.48000 0.68000
H5B H 0.27000 0.60000 0.72000
C1B C 0.00980 0.25180 0.59290
C4B C 0.28390 0.26170 0.44100
O2B O -0.30360 0.25810 0.73180
C2B C 0.08330 0.13430 0.61230
C3B C 0.35110 0.14900 0.47290
H3B H 0.36100 0.30500 0.37100
N2B N 0.24920 0.07710 0.55520
H1B H 0.00000 0.08700 0.67900
H2B H 0.49200 0.11100 0.42800
#END
