
#######################################################################
#
#                 Cambridge Crystallographic Data Centre
#                                CCDC
#
#######################################################################
#
# If this CIF has been generated from an entry in the Cambridge
# Structural Database, then it will include bibliographic, chemical,
# crystal, experimental, refinement or atomic coordinate data resulting
# from the CCDC's data processing and validation procedures.
#
#######################################################################

data_CSD_CIF_BOFMIU
_audit_creation_date 2014-05-12
_audit_creation_method CSD-ConQuest-V1
_database_code_CSD BOFMIU
_database_code_depnum_ccdc_archive 'CCDC 968432'
_chemical_formula_sum 'C18 H22 Mn1 N4 O8'
_chemical_formula_moiety
;
C18 H18 Mn1 N4 O6,2(H2 O1)
;
_journal_coden_Cambridge 580
_journal_volume 75
_journal_year 2014
_journal_page_first 9
_journal_name_full 'Polyhedron '
loop_
_publ_author_name
"A.Dylong"
"M.Sowa"
"W.Goldeman"
"K.Slepokura"
"M.Duczmal"
"A.Wojciechowska"
"E.Matczak-Jon"
_chemical_name_systematic
;
diaqua-bis((imidazo[1,2-a]pyridin-2-yl)acetato)-manganese(ii) dihydrate
;
_cell_volume    471.909
_exptl_crystal_colour 'pale pink'
_exptl_crystal_density_diffrn 1.68
_exptl_crystal_description 'plate'
_diffrn_ambient_temperature 110
#These two values have been output from a single CSD field.
_refine_ls_R_factor_gt 0.0354
_refine_ls_wR_factor_gt 0.0354
_symmetry_cell_setting triclinic
_symmetry_space_group_name_H-M 'P -1'
_symmetry_Int_Tables_number 2
loop_
_symmetry_equiv_pos_site_id
_symmetry_equiv_pos_as_xyz
1 x,y,z
2 -x,-y,-z
_cell_length_a 6.993(3)
_cell_length_b 7.988(3)
_cell_length_c 9.426(3)
_cell_angle_alpha 98.39(3)
_cell_angle_beta 100.42(3)
_cell_angle_gamma 110.63(3)
_cell_formula_units_Z 1
loop_
_atom_type_symbol
_atom_type_radius_bond
C 0.68
H 0.23
Mn 1.61
N 0.68
O 0.68
loop_
_atom_site_label
_atom_site_type_symbol
_atom_site_fract_x
_atom_site_fract_y
_atom_site_fract_z
Mn1 Mn 0.50000 0.50000 0.50000
O1 O 0.67545(13) 0.32543(11) 0.47946(9)
O2 O 0.82821(13) 0.13391(11) 0.53816(9)
N1 N 0.59779(14) 0.51488(12) 0.74118(9)
N2 N 0.74434(14) 0.60767(12) 0.98493(9)
C1 C 0.65264(15) 0.38029(13) 0.79220(11)
C2 C 0.74172(16) 0.43364(14) 0.94155(11)
H1 H 0.79140 0.36540 1.00270
C3 C 0.82276(17) 0.72540(15) 1.12257(12)
H2 H 0.88160 0.68960 1.20610
C4 C 0.81411(17) 0.89451(15) 1.13632(12)
H3 H 0.87070 0.97920 1.22990
C5 C 0.72099(17) 0.94490(14) 1.01168(12)
H4 H 0.71440 1.06270 1.02280
C6 C 0.64038(17) 0.82537(14) 0.87528(12)
H5 H 0.57550 0.85850 0.79240
C7 C 0.65542(16) 0.65285(14) 0.86027(11)
C8 C 0.62011(17) 0.20318(14) 0.69389(11)
H6 H 0.46660 0.12960 0.65680
H7 H 0.68140 0.13370 0.75360
C9 C 0.71662(16) 0.22339(14) 0.56151(11)
O3 O 0.79151(13) 0.76236(11) 0.53492(10)
H8 H 0.789(3) 0.865(3) 0.546(2)
H9 H 0.893(4) 0.777(3) 0.512(2)
O4 O 0.90136(15) 0.37120(14) 0.25834(10)
H10 H 1.016(4) 0.377(3) 0.291(2)
H11 H 0.834(3) 0.356(3) 0.320(2)
O1A O 0.32455(13) 0.67457(11) 0.52054(9)
O2A O 0.17179(13) 0.86609(11) 0.46184(9)
N1A N 0.40221(14) 0.48512(12) 0.25882(9)
N2A N 0.25566(14) 0.39233(12) 0.01507(9)
C1A C 0.34736(15) 0.61971(13) 0.20780(11)
C2A C 0.25828(16) 0.56636(14) 0.05845(11)
H1A H 0.20860 0.63460 -0.00270
C3A C 0.17724(17) 0.27460(15) -0.12257(12)
H2A H 0.11840 0.31040 -0.20610
C4A C 0.18589(17) 0.10549(15) -0.13632(12)
H3A H 0.12930 0.02080 -0.22990
C5A C 0.27901(17) 0.05510(14) -0.01168(12)
H4A H 0.28560 -0.06270 -0.02280
C6A C 0.35962(17) 0.17463(14) 0.12472(12)
H5A H 0.42450 0.14150 0.20760
C7A C 0.34458(16) 0.34715(14) 0.13973(11)
C8A C 0.37989(17) 0.79682(14) 0.30611(11)
H6A H 0.53340 0.87040 0.34320
H7A H 0.31860 0.86630 0.24640
C9A C 0.28338(16) 0.77661(14) 0.43849(11)
O3A O 0.20849(13) 0.23764(11) 0.46508(10)
H8A H 0.211(3) 0.135(3) 0.454(2)
H9A H 0.107(4) 0.223(3) 0.488(2)
#END
