
#######################################################################
#
#                 Cambridge Crystallographic Data Centre
#                                CCDC
#
#######################################################################
#
# If this CIF has been generated from an entry in the Cambridge
# Structural Database, then it will include bibliographic, chemical,
# crystal, experimental, refinement or atomic coordinate data resulting
# from the CCDC's data processing and validation procedures.
#
#######################################################################

data_CSD_CIF_BOHFAG
_audit_creation_date 2009-04-15
_audit_creation_method CSD-ConQuest-V1
_database_code_CSD BOHFAG
_database_code_depnum_ccdc_archive 'CCDC 701002'
_chemical_formula_sum 'C16 H10 Cr1 O6 S1'
_chemical_formula_moiety
;
C16 H10 Cr1 O6 S1
;
_journal_coden_Cambridge 579
_journal_volume 27
_journal_year 2008
_journal_page_first 2447
_journal_name_full 'Organometallics '
loop_
_publ_author_name
"D.I.Bezuidenhout"
"E.van der Watt"
"D.C.Liles"
"M.Landman"
"S.Lotz"
_chemical_name_systematic
;
((Benzo(b)thien-2-yl)(ethoxy)methylidene)-pentacarbonyl-chromium
;
_cell_volume    855.336
_exptl_crystal_colour 'dark red'
_exptl_crystal_density_diffrn 1.484
_exptl_crystal_description 'plate'
_exptl_crystal_preparation 'dichloromethane/hexane'
_diffrn_ambient_temperature 293
#These two values have been output from a single CSD field.
_refine_ls_R_factor_gt 0.0324
_refine_ls_wR_factor_gt 0.0324
_symmetry_cell_setting monoclinic
_symmetry_space_group_name_H-M 'P 21/m'
_symmetry_Int_Tables_number 11
loop_
_symmetry_equiv_pos_site_id
_symmetry_equiv_pos_as_xyz
1 x,y,z
2 -x,1/2+y,-z
3 -x,-y,-z
4 x,-1/2-y,z
_cell_length_a 9.2928(11)
_cell_length_b 7.6330(9)
_cell_length_c 12.4413(15)
_cell_angle_alpha 90
_cell_angle_beta 104.249(2)
_cell_angle_gamma 90
_cell_formula_units_Z 2
loop_
_atom_type_symbol
_atom_type_radius_bond
C 0.68
H 0.23
Cr 1.35
O 0.68
S 1.02
loop_
_atom_site_label
_atom_site_type_symbol
_atom_site_fract_x
_atom_site_fract_y
_atom_site_fract_z
Cr1 Cr 0.27434(4) 0.25000 0.84374(3)
C1 C 0.4476(3) 0.25000 0.9591(2)
O1 O 0.5522(3) 0.25000 1.0305(2)
C2 C 0.3584(2) 0.0669(3) 0.77421(15)
O2 O 0.4089(2) -0.0437(2) 0.73577(15)
C3 C 0.19890(19) 0.0777(3) 0.92558(15)
O3 O 0.16497(17) -0.0226(2) 0.98209(13)
C4 C 0.0949(3) 0.25000 0.7072(2)
O4 O -0.04857(19) 0.25000 0.70196(14)
S1 S -0.05800(7) 0.25000 0.48444(5)
C5 C 0.1053(3) 0.25000 0.5918(2)
C6 C 0.2285(3) 0.25000 0.5502(2)
H1 H 0.32480 0.25000 0.59500
C7 C 0.1964(3) 0.25000 0.4325(2)
C8 C 0.2958(3) 0.25000 0.3636(2)
H2 H 0.39780 0.25000 0.39400
C9 C 0.2397(4) 0.25000 0.2508(3)
H3 H 0.30430 0.25000 0.20440
C10 C 0.0877(4) 0.25000 0.2050(2)
H4 H 0.05260 0.25000 0.12820
C11 C -0.0121(4) 0.25000 0.2695(2)
H5 H -0.11380 0.25000 0.23760
C12 C 0.0433(3) 0.25000 0.3852(2)
C13 C -0.1081(3) 0.25000 0.7991(2)
H6 H -0.07510 0.35320 0.84390
C14 C -0.2733(3) 0.25000 0.7585(3)
H7 H -0.31720 0.25000 0.82080
H8 H -0.30450 0.14730 0.71440
C2C C 0.3584(2) 0.4331(3) 0.77421(15)
O2C O 0.4089(2) 0.5437(2) 0.73577(15)
C3C C 0.19890(19) 0.4223(3) 0.92558(15)
O3C O 0.16497(17) 0.5226(2) 0.98209(13)
H6C H -0.07510 0.14680 0.84390
H8C H -0.30450 0.35270 0.71440
#END
