
#######################################################################
#
#                 Cambridge Crystallographic Data Centre
#                                CCDC
#
#######################################################################
#
# If this CIF has been generated from an entry in the Cambridge
# Structural Database, then it will include bibliographic, chemical,
# crystal, experimental, refinement or atomic coordinate data resulting
# from the CCDC's data processing and validation procedures.
#
#######################################################################

data_CSD_CIF_BOHGAG
_audit_creation_date 1983-06-14
_audit_creation_method CSD-ConQuest-V1
_database_code_CSD BOHGAG
_database_code_depnum_ccdc_archive 'CCDC 1113238'
_chemical_formula_sum 'C10 H35 Br3 Co1 N4 O1.5 P2'
_chemical_formula_moiety
;
C10 H32 Co1 N4 P2 3+,3(Br1 1-),1.5(H2 O1)
;
_journal_coeditor_code "IUCr A22226"
_journal_coden_Cambridge 591
_journal_volume 39
_journal_year 1983
_journal_page_first 49
_journal_name_full 'Acta Crystallogr.,Sect.C:Cryst.Struct.Commun. '
loop_
_publ_author_name
"S.Ohba"
"Y.Saito"
"T.Ohishi"
"K.Kashiwabara"
"J.Fujita"
_chemical_name_systematic
;
(+)~589~-(1,2-bis(Dimethylphosphino)-ethane)-bis(ethylenediamine)-cobalt(iii) 
tribromide sesquihydrate
;
_cell_volume   2178.011
_exptl_crystal_colour 'orange'
_exptl_crystal_density_diffrn 1.82
_exptl_special_details
;
Absolute configuration

;
_diffrn_ambient_temperature ?
_diffrn_special_details
;
The study was carried out at room temperature,in the range 283-303K

;
#These two values have been output from a single CSD field.
_refine_ls_R_factor_gt 0.058
_refine_ls_wR_factor_gt 0.058
_symmetry_cell_setting monoclinic
_symmetry_space_group_name_H-M 'C 2'
_symmetry_Int_Tables_number 5
loop_
_symmetry_equiv_pos_site_id
_symmetry_equiv_pos_as_xyz
1 x,y,z
2 1/2+x,1/2+y,z
3 -x,y,-z
4 1/2-x,1/2+y,-z
_cell_length_a 16.399(2)
_cell_length_b 8.785(1)
_cell_length_c 15.679(2)
_cell_angle_alpha 90
_cell_angle_beta 105.37(2)
_cell_angle_gamma 90
_cell_formula_units_Z 4
loop_
_atom_type_symbol
_atom_type_radius_bond
C 0.68
H 0.23
Br 1.21
Co 1.33
N 0.68
O 0.68
P 1.05
loop_
_atom_site_label
_atom_site_type_symbol
_atom_site_fract_x
_atom_site_fract_y
_atom_site_fract_z
Br1 Br 0.61530 0.50000 0.41530
O1 O 0.50000 0.72710 0.50000
H1 H 0.52000 0.64500 0.47900
O2 O 0.95640 0.68550 0.69720
H2 H 0.94900 0.73300 0.66600
H3 H 0.92200 0.58000 0.64600
Br2 Br 0.86360 0.63860 0.85090
Br3 Br 0.64650 0.57510 0.91370
Co1 Co 0.77760 0.60750 0.20960
N1 N 0.87200 0.71010 0.17640
N2 N 0.77990 0.46280 0.10900
N3 N 0.69670 0.74830 0.12470
N4 N 0.67200 0.50640 0.22130
P1 P 0.79100 0.76610 0.32630
P2 P 0.85880 0.45020 0.31010
C1 C 0.87740 0.65870 0.08680
C2 C 0.85680 0.48990 0.07710
C3 C 0.60740 0.72630 0.13020
C4 C 0.59850 0.55780 0.14660
C5 C 0.83660 0.65830 0.42790
C6 C 0.90480 0.55650 0.41200
C7 C 0.70050 0.86350 0.34660
C8 C 0.86580 0.91960 0.32830
C9 C 0.94560 0.34760 0.28360
C10 C 0.79900 0.30210 0.34770
H4 H 0.94200 0.67900 0.08100
H5 H 0.83400 0.72500 0.03600
H6 H 0.84400 0.45600 0.00800
H7 H 0.90900 0.42300 0.11700
H8 H 0.56400 0.76400 0.06900
H9 H 0.59800 0.79500 0.18500
H10 H 0.54000 0.53600 0.16400
H11 H 0.59900 0.49300 0.08700
H12 H 0.78800 0.59100 0.44400
H13 H 0.86300 0.73800 0.48200
H14 H 0.95900 0.62500 0.40400
H15 H 0.92700 0.47800 0.46700
H16 H 0.66900 0.93300 0.28900
H17 H 0.65600 0.78200 0.36000
H18 H 0.72200 0.94000 0.40400
H19 H 0.84300 0.99200 0.27100
H20 H 0.87100 0.98900 0.38800
H21 H 0.92700 0.87400 0.33000
H22 H 0.92100 0.28200 0.22400
H23 H 0.99200 0.42800 0.27500
H24 H 0.97400 0.27100 0.33800
H25 H 0.76800 0.22900 0.29200
H26 H 0.84100 0.23200 0.39800
H27 H 0.75100 0.35300 0.37600
H28 H 0.93200 0.68200 0.22500
H29 H 0.86300 0.83300 0.17600
H30 H 0.72400 0.48200 0.05400
H31 H 0.78000 0.34600 0.13200
H32 H 0.69900 0.72300 0.05700
H33 H 0.71600 0.86600 0.14000
H34 H 0.66000 0.53800 0.28400
H35 H 0.67900 0.38300 0.21900
H1B H 0.48000 0.64500 0.52100
#END
