
#######################################################################
#
#                 Cambridge Crystallographic Data Centre
#                                CCDC
#
#######################################################################
#
# If this CIF has been generated from an entry in the Cambridge
# Structural Database, then it will include bibliographic, chemical,
# crystal, experimental, refinement or atomic coordinate data resulting
# from the CCDC's data processing and validation procedures.
#
#######################################################################

data_CSD_CIF_BOLZAG
_audit_creation_date 2019-08-21
_audit_creation_method CSD-ConQuest-V1
_database_code_CSD BOLZAG
_database_code_depnum_ccdc_archive 'CCDC 1910873'
_chemical_formula_sum 'C22 H38 F6 Mn1 N8 O4 P1'
_chemical_formula_moiety
;
C22 H38 Mn1 N8 O4 1+,F6 P1 1-
;
_journal_coden_Cambridge 222
_journal_volume 48
_journal_year 2019
_journal_page_first 13378
_journal_name_full 'Dalton Trans. '
loop_
_publ_author_name
"C.Lecourt"
"W.Madanamoothoo"
"V.Ferreol"
"N.Belanger-Desmarais"
"L.Khrouz"
"J.-B.Tommasino"
"C.Reber"
"C.Desroches"
"D.Luneau"
_chemical_name_systematic
;
bis(2-(2-imidazolyl)-4,4,5,5-tetramethylimidazoline-1-oxyl)-bis(methanol)-mang
anese(iii) hexafluorophosphate
;
_cell_volume    751.840
_exptl_crystal_colour 'brown'
_exptl_crystal_density_diffrn 1.499
_exptl_crystal_description 'needle'
_diffrn_ambient_temperature 293
#These two values have been output from a single CSD field.
_refine_ls_R_factor_gt 0.0425
_refine_ls_wR_factor_gt 0.0425
_symmetry_cell_setting triclinic
_symmetry_space_group_name_H-M 'P -1'
_symmetry_Int_Tables_number 2
loop_
_symmetry_equiv_pos_site_id
_symmetry_equiv_pos_as_xyz
1 x,y,z
2 -x,-y,-z
_cell_length_a 7.3061(4)
_cell_length_b 8.0232(5)
_cell_length_c 13.6520(11)
_cell_angle_alpha 74.747(6)
_cell_angle_beta 78.582(5)
_cell_angle_gamma 80.791(5)
_cell_formula_units_Z 1
loop_
_atom_type_symbol
_atom_type_radius_bond
C 0.68
H 0.23
F 0.64
Mn 1.61
N 0.68
O 0.68
P 1.05
loop_
_atom_site_label
_atom_site_type_symbol
_atom_site_fract_x
_atom_site_fract_y
_atom_site_fract_z
Mn1 Mn 0.00000 0.00000 0.00000
N1 N 0.1464(2) -0.2148(2) 0.17411(12)
N2 N 0.3353(3) -0.1711(3) 0.26757(14)
N3 N 0.2077(2) 0.1090(2) 0.02485(12)
N4 N 0.4515(2) 0.1294(2) 0.09821(13)
O1 O 0.0822(2) -0.21490(17) 0.08716(10)
O2 O -0.1880(2) 0.0742(2) 0.13794(12)
C1 C 0.1389(3) -0.3729(3) 0.26128(16)
C2 C 0.2189(3) -0.3039(3) 0.33933(16)
C3 C -0.0610(4) -0.4195(4) 0.29537(19)
H1 H -0.06393 -0.52117 0.35135
H2 H -0.14074 -0.32434 0.31744
H3 H -0.10480 -0.44227 0.23887
C4 C 0.2679(4) -0.5195(3) 0.2231(2)
H4 H 0.26653 -0.62368 0.27735
H5 H 0.22490 -0.53934 0.16547
H6 H 0.39364 -0.48804 0.20224
C5 C 0.3392(4) -0.4391(3) 0.4071(2)
H7 H 0.26250 -0.52347 0.45279
H8 H 0.43691 -0.49597 0.36490
H9 H 0.39427 -0.38361 0.44666
C6 C 0.0646(4) -0.2087(4) 0.4052(2)
H10 H -0.01278 -0.29103 0.45229
H11 H 0.12111 -0.15133 0.44315
H12 H -0.01116 -0.12412 0.36142
C7 C 0.2659(3) -0.1136(3) 0.17959(15)
C8 C 0.3111(3) 0.0398(2) 0.10114(15)
C9 C 0.2898(3) 0.2532(3) -0.03074(16)
H13 H 0.25145 0.33080 -0.08870
C10 C 0.4380(3) 0.2637(3) 0.01348(17)
H14 H 0.51825 0.35000 -0.01060
C11 C -0.1738(4) 0.2182(4) 0.1774(2)
H15 H -0.26967 0.22177 0.23633
H16 H -0.05239 0.20604 0.19712
H17 H -0.18966 0.32390 0.12537
H18 H 0.378(4) -0.097(3) 0.291(2)
H19 H -0.302(4) 0.074(4) 0.137(2)
P1 P -0.50000 0.00000 -0.50000
F1 F -0.4217(3) -0.1160(3) -0.57960(18)
F2 F -0.3632(3) 0.1393(3) -0.56134(15)
F3 F -0.3450(3) -0.0938(3) -0.4322(2)
N1A N -0.1464(2) 0.2148(2) -0.17411(12)
N2A N -0.3353(3) 0.1711(3) -0.26757(14)
N3A N -0.2077(2) -0.1090(2) -0.02485(12)
N4A N -0.4515(2) -0.1294(2) -0.09821(13)
O1A O -0.0822(2) 0.21490(17) -0.08716(10)
O2A O 0.1880(2) -0.0742(2) -0.13794(12)
C1A C -0.1389(3) 0.3729(3) -0.26128(16)
C2A C -0.2189(3) 0.3039(3) -0.33933(16)
C3A C 0.0610(4) 0.4195(4) -0.29537(19)
H1A H 0.06393 0.52117 -0.35135
H2A H 0.14074 0.32434 -0.31744
H3A H 0.10480 0.44227 -0.23887
C4A C -0.2679(4) 0.5195(3) -0.2231(2)
H4A H -0.26653 0.62368 -0.27735
H5A H -0.22490 0.53934 -0.16547
H6A H -0.39364 0.48804 -0.20224
C5A C -0.3392(4) 0.4391(3) -0.4071(2)
H7A H -0.26250 0.52347 -0.45279
H8A H -0.43691 0.49597 -0.36490
H9A H -0.39427 0.38361 -0.44666
C6A C -0.0646(4) 0.2087(4) -0.4052(2)
H10A H 0.01278 0.29103 -0.45229
H11A H -0.12111 0.15133 -0.44315
H12A H 0.01116 0.12412 -0.36142
C7A C -0.2659(3) 0.1136(3) -0.17959(15)
C8A C -0.3111(3) -0.0398(2) -0.10114(15)
C9A C -0.2898(3) -0.2532(3) 0.03074(16)
H13A H -0.25145 -0.33080 0.08870
C10A C -0.4380(3) -0.2637(3) -0.01348(17)
H14A H -0.51825 -0.35000 0.01060
C11A C 0.1738(4) -0.2182(4) -0.1774(2)
H15A H 0.26967 -0.22177 -0.23633
H16A H 0.05239 -0.20604 -0.19712
H17A H 0.18966 -0.32390 -0.12537
H18A H -0.378(4) 0.097(3) -0.291(2)
H19A H 0.302(4) -0.074(4) -0.137(2)
F1A F -0.5783(3) 0.1160(3) -0.42040(18)
F2A F -0.6368(3) -0.1393(3) -0.43866(15)
F3A F -0.6550(3) 0.0938(3) -0.5678(2)
#END
