
#######################################################################
#
#                 Cambridge Crystallographic Data Centre
#                                CCDC
#
#######################################################################
#
# If this CIF has been generated from an entry in the Cambridge
# Structural Database, then it will include bibliographic, chemical,
# crystal, experimental, refinement or atomic coordinate data resulting
# from the CCDC's data processing and validation procedures.
#
#######################################################################

data_CSD_CIF_BOMXAC10
_audit_creation_date 1985-03-02
_audit_creation_method CSD-ConQuest-V1
_database_code_CSD BOMXAC10
_chemical_formula_sum 'C15 H15 Cl2 Fe1 N2 O3'
_chemical_formula_moiety
;
C15 H15 Cl2 Fe1 N2 O3
;
_journal_coeditor_code "IUCr A23725"
_journal_coden_Cambridge 591
_journal_volume 40
_journal_year 1984
_journal_page_first 1164
_journal_name_full 'Acta Crystallogr.,Sect.C:Cryst.Struct.Commun. '
loop_
_publ_author_name
"A.A.Aruffo"
"T.B.Murphy"
"D.K.Johnson"
"N.J.Rose"
"V.Schomaker"
_chemical_name_systematic
;
cis-Dichloro-methanol-(salicylaldehyde-benzoylhydrazonato)-iron(iii)
;
_cell_volume    836.912
_exptl_crystal_colour 'dark green'
_exptl_crystal_density_diffrn 1.58
_diffrn_ambient_temperature ?
_diffrn_special_details
;
The study was carried out at room temperature,in the range 283-303K

;
#These two values have been output from a single CSD field.
_refine_ls_R_factor_gt 0.036
_refine_ls_wR_factor_gt 0.036
_symmetry_cell_setting triclinic
_symmetry_space_group_name_H-M 'P -1'
_symmetry_Int_Tables_number 2
loop_
_symmetry_equiv_pos_site_id
_symmetry_equiv_pos_as_xyz
1 x,y,z
2 -x,-y,-z
_cell_length_a 6.665(2)
_cell_length_b 13.818(6)
_cell_length_c 10.122(4)
_cell_angle_alpha 108.40(2)
_cell_angle_beta 73.23(2)
_cell_angle_gamma 103.32(2)
_cell_formula_units_Z 2
loop_
_atom_type_symbol
_atom_type_radius_bond
C 0.68
H 0.23
Cl 0.99
Fe 1.34
N 0.68
O 0.68
loop_
_atom_site_label
_atom_site_type_symbol
_atom_site_fract_x
_atom_site_fract_y
_atom_site_fract_z
Fe1 Fe 0.15045 0.21569 0.09484
Cl1 Cl 0.06411 0.37712 0.12180
Cl2 Cl -0.19182 0.13442 0.15789
O1 O 0.20080 0.26740 0.29970
O2 O 0.21110 0.17320 -0.10570
O3 O 0.25290 0.07460 0.08420
N1 N 0.53840 0.31540 0.19830
N2 N 0.47990 0.27040 0.06960
C1 C 0.42990 0.35370 0.45840
C2 C 0.63310 0.38350 0.47930
C3 C 0.66400 0.42430 0.61690
C4 C 0.49350 0.43390 0.73290
C5 C 0.29110 0.40440 0.71280
C6 C 0.25840 0.36470 0.57620
C7 C 0.38370 0.31000 0.31520
C8 C 0.62900 0.25810 -0.04630
C9 C 0.58900 0.21040 -0.18610
C10 C 0.76690 0.20360 -0.30380
C11 C 0.74270 0.16280 -0.44140
C12 C 0.54110 0.12850 -0.46500
C13 C 0.36610 0.13190 -0.35310
C14 C 0.38440 0.17190 -0.21100
C15 C 0.21840 0.02770 0.19850
H1 H 0.68400 0.33700 0.19700
H2 H 0.74500 0.37500 0.40100
H3 H 0.80400 0.44600 0.63100
H4 H 0.51600 0.46100 0.82700
H5 H 0.17400 0.41100 0.79300
H6 H 0.11800 0.34500 0.56300
H7 H 0.77100 0.28000 -0.03800
H8 H 0.89800 0.22200 -0.28200
H9 H 0.86300 0.15900 -0.51900
H10 H 0.51800 0.09600 -0.55900
H11 H 0.23000 0.10700 -0.37200
H12 H 0.27300 0.01700 0.00000
H13 H 0.08000 -0.01300 0.20900
H14 H 0.32200 -0.01600 0.17600
H15 H 0.22700 0.07900 0.28500
#END
