
#######################################################################
#
#                 Cambridge Crystallographic Data Centre
#                                CCDC
#
#######################################################################
#
# If this CIF has been generated from an entry in the Cambridge
# Structural Database, then it will include bibliographic, chemical,
# crystal, experimental, refinement or atomic coordinate data resulting
# from the CCDC's data processing and validation procedures.
#
#######################################################################

data_CSD_CIF_BONMAV
_audit_creation_date 2019-08-22
_audit_creation_method CSD-ConQuest-V1
_database_code_CSD BONMAV
_database_code_depnum_ccdc_archive 'CCDC 1917192'
_chemical_formula_sum 'C15 H11 Fe1 N1 O6 S1'
_chemical_formula_moiety
;
C15 H11 Fe1 N1 O6 S1
;
_journal_coden_Cambridge 920
_journal_year 2019
_journal_name_full 'Chem.Asian J. '
loop_
_publ_author_name
"Lin Huang"
"Yiting Gu"
"A.Furstner"
_chemical_name_systematic
;
tricarbonyl-(1-(4-methylbenzene-1-sulfonyl)pyridin-2(1H)-one)-iron
;
_cell_volume    754.716
_exptl_crystal_colour 'yellow'
_exptl_crystal_density_diffrn 1.712
_exptl_special_details
;
Air-and Moisture-sensitive

;
_exptl_crystal_description 'needle'
_exptl_crystal_preparation 'Re-crystallisation from solvent'
_diffrn_ambient_temperature 100
#These two values have been output from a single CSD field.
_refine_ls_R_factor_gt 0.0401
_refine_ls_wR_factor_gt 0.0401
_symmetry_cell_setting triclinic
_symmetry_space_group_name_H-M 'P -1'
_symmetry_Int_Tables_number 2
loop_
_symmetry_equiv_pos_site_id
_symmetry_equiv_pos_as_xyz
1 x,y,z
2 -x,-y,-z
_cell_length_a 6.3777(5)
_cell_length_b 6.9416(3)
_cell_length_c 18.0314(19)
_cell_angle_alpha 96.474(7)
_cell_angle_beta 93.427(8)
_cell_angle_gamma 107.045(5)
_cell_formula_units_Z 2
loop_
_atom_type_symbol
_atom_type_radius_bond
C 0.68
H 0.23
Fe 1.52
N 0.68
O 0.68
S 1.02
loop_
_atom_site_label
_atom_site_type_symbol
_atom_site_fract_x
_atom_site_fract_y
_atom_site_fract_z
Fe1 Fe 0.46726(4) 0.18867(4) 0.12522(2)
S1 S 0.92865(6) 0.72378(6) 0.27522(2)
O1 O 0.8786(2) 0.3094(2) 0.31467(8)
O2 O 0.8975(2) 0.1707(3) 0.08297(10)
O3 O 0.2056(3) -0.2440(2) 0.09203(9)
O4 O 0.2983(2) 0.2965(2) -0.01398(8)
O5 O 0.8641(2) 0.86799(19) 0.23548(8)
O6 O 1.1535(2) 0.7248(2) 0.27950(8)
N1 N 0.7718(2) 0.4971(2) 0.23114(8)
C1 C 0.7463(3) 0.3219(3) 0.26607(10)
C2 C 0.5367(3) 0.1640(3) 0.23753(10)
H1 H 0.51638 0.02424 0.25103
C3 C 0.3422(3) 0.2258(3) 0.22606(10)
H2 H 0.19335 0.14043 0.23611
C4 C 0.3722(3) 0.4020(3) 0.19215(10)
H3 H 0.24873 0.45486 0.17659
C5 C 0.5947(3) 0.4866(3) 0.17485(10)
H4 H 0.62233 0.59433 0.14105
C6 C 0.7280(3) 0.1742(3) 0.09814(11)
C7 C 0.3032(3) -0.0767(3) 0.10407(10)
C8 C 0.3626(3) 0.2529(3) 0.03971(10)
C9 C 0.8475(3) 0.7393(3) 0.36642(10)
C10 C 0.9774(3) 0.7039(3) 0.42464(10)
H5 H 1.10862 0.67093 0.41515
C11 C 0.9144(3) 0.7170(3) 0.49667(10)
H6 H 1.00482 0.69591 0.53687
C12 C 0.7201(3) 0.7606(3) 0.51085(10)
C13 C 0.5912(3) 0.7939(3) 0.45112(11)
H7 H 0.45825 0.82383 0.46031
C14 C 0.6529(3) 0.7843(3) 0.37886(10)
H8 H 0.56439 0.80781 0.33868
C15 C 0.6493(3) 0.7712(3) 0.58880(11)
H9 H 0.73064 0.70494 0.61999
H10 H 0.49097 0.70175 0.58690
H11 H 0.68024 0.91390 0.61035
#END
