
#######################################################################
#
#                 Cambridge Crystallographic Data Centre
#                                CCDC
#
#######################################################################
#
# If this CIF has been generated from an entry in the Cambridge
# Structural Database, then it will include bibliographic, chemical,
# crystal, experimental, refinement or atomic coordinate data resulting
# from the CCDC's data processing and validation procedures.
#
#######################################################################

data_CSD_CIF_BOQPED
_audit_creation_date 2009-08-25
_audit_creation_method CSD-ConQuest-V1
_database_code_CSD BOQPED
_database_code_depnum_ccdc_archive 'CCDC 709198'
_chemical_formula_sum 'C22 H30 Mn1 N12 O8'
_chemical_formula_moiety
;
C10 H18 Mn1 N2 O4 2+,2(C6 H6 N5 O2 1-)
;
_journal_coden_Cambridge 580
_journal_volume 28
_journal_year 2009
_journal_page_first 911
_journal_name_full 'Polyhedron '
loop_
_publ_author_name
"C.R.Maldonado"
"M.Quiros"
"J.M.Salas"
_chemical_name_systematic
;
trans-Tetraaqua-bis(pyridine)-manganese(ii) 
bis(4,6-dimethyl-(1,2,3)triazolo(4,5-d)pyrimidine-5,7(4H,6H)-dionate)
;
_chemical_name_common
;
trans-Tetraaqua-bis(pyridine)-manganese(ii) bis(1,3-dimethyl-8-azaxanthinate)
;
_cell_volume    714.566
_exptl_crystal_colour 'colorless'
_exptl_crystal_density_diffrn 1.5
_exptl_special_details
;
isostructural with the Co, Zn and Cd analogues

;
_exptl_crystal_description 'irregular'
_diffrn_ambient_temperature 298
#These two values have been output from a single CSD field.
_refine_ls_R_factor_gt 0.0354
_refine_ls_wR_factor_gt 0.0354
_symmetry_cell_setting triclinic
_symmetry_space_group_name_H-M 'P -1'
_symmetry_Int_Tables_number 2
loop_
_symmetry_equiv_pos_site_id
_symmetry_equiv_pos_as_xyz
1 x,y,z
2 -x,-y,-z
_cell_length_a 8.4735(6)
_cell_length_b 9.1517(7)
_cell_length_c 10.2500(8)
_cell_angle_alpha 89.138(1)
_cell_angle_beta 88.455(1)
_cell_angle_gamma 64.069(1)
_cell_formula_units_Z 1
loop_
_atom_type_symbol
_atom_type_radius_bond
C 0.68
H 0.23
Mn 1.61
N 0.68
O 0.68
loop_
_atom_site_label
_atom_site_type_symbol
_atom_site_fract_x
_atom_site_fract_y
_atom_site_fract_z
Mn1 Mn 0.50000 0.50000 0.50000
O1 O 0.53474(16) 0.46962(17) 0.28773(11)
H1 H 0.489(3) 0.430(2) 0.2358(17)
H2 H 0.6323(17) 0.455(3) 0.2544(19)
O2 O 0.27399(16) 0.45179(18) 0.48530(11)
H3 H 0.203(2) 0.462(3) 0.5468(16)
H4 H 0.214(2) 0.473(3) 0.4181(14)
N1 N 0.33319(19) 0.77191(17) 0.46889(14)
C1 C 0.2180(3) 0.8268(2) 0.37300(18)
H5 H 0.20220 0.75120 0.32110
C2 C 0.1211(3) 0.9892(3) 0.3463(2)
H6 H 0.04200 1.02370 0.27780
C3 C 0.1420(3) 1.1010(2) 0.4225(2)
H7 H 0.07830 1.21310 0.40710
C4 C 0.2581(3) 1.0467(3) 0.5229(2)
H8 H 0.27500 1.11980 0.57700
C5 C 0.3503(3) 0.8828(2) 0.5427(2)
H9 H 0.42930 0.84580 0.61130
N2 N 0.09437(18) 0.46973(18) 0.25839(13)
N3 N -0.06811(18) 0.49837(19) 0.29063(13)
N4 N -0.13427(17) 0.42694(18) 0.20577(13)
C6 C -0.00586(19) 0.35201(19) 0.11911(14)
N5 N -0.00655(18) 0.26053(18) 0.01459(13)
C7 C -0.1630(2) 0.2379(3) -0.01247(19)
H10 H -0.20070 0.20070 0.06520
H11 H -0.13490 0.15730 -0.07970
H12 H -0.25630 0.33990 -0.04130
C8 C 0.1391(2) 0.1930(2) -0.06580(15)
O3 O 0.14681(19) 0.11009(18) -0.15883(13)
N6 N 0.28360(17) 0.22313(17) -0.03495(13)
C9 C 0.4334(3) 0.1579(3) -0.12698(19)
H13 H 0.40640 0.22730 -0.20320
H14 H 0.45590 0.04870 -0.15200
H15 H 0.53630 0.15500 -0.08640
C10 C 0.2949(2) 0.3118(2) 0.07121(16)
O4 O 0.42889(17) 0.32730(19) 0.08983(14)
C11 C 0.1377(2) 0.37698(19) 0.14934(14)
O1A O 0.46526(16) 0.53038(17) 0.71227(11)
H1A H 0.511(3) 0.570(2) 0.7642(17)
H2A H 0.3677(17) 0.545(3) 0.7456(19)
O2A O 0.72601(16) 0.54821(18) 0.51470(11)
H3A H 0.797(2) 0.538(3) 0.4532(16)
H4A H 0.786(2) 0.527(3) 0.5819(14)
N1A N 0.66681(19) 0.22809(17) 0.53111(14)
C1A C 0.7820(3) 0.1732(2) 0.62700(18)
H5A H 0.79780 0.24880 0.67890
C2A C 0.8789(3) 0.0108(3) 0.6537(2)
H6A H 0.95800 -0.02370 0.72220
C3A C 0.8580(3) -0.1010(2) 0.5775(2)
H7A H 0.92170 -0.21310 0.59290
C4A C 0.7419(3) -0.0467(3) 0.4771(2)
H8A H 0.72500 -0.11980 0.42300
C5A C 0.6497(3) 0.1172(2) 0.4573(2)
H9A H 0.57070 0.15420 0.38870
#END
