
#######################################################################
#
#                 Cambridge Crystallographic Data Centre
#                                CCDC
#
#######################################################################
#
# If this CIF has been generated from an entry in the Cambridge
# Structural Database, then it will include bibliographic, chemical,
# crystal, experimental, refinement or atomic coordinate data resulting
# from the CCDC's data processing and validation procedures.
#
#######################################################################

data_CSD_CIF_BOTHIB
_audit_creation_date 1983-08-31
_audit_creation_method CSD-ConQuest-V1
_database_code_CSD BOTHIB
_chemical_formula_sum 'C12 H18 Fe1 N3 O6'
_chemical_formula_moiety
;
C12 H18 Fe1 N3 O6
;
_journal_coden_Cambridge 9
_journal_volume 21
_journal_year 1982
_journal_page_first 4308
_journal_name_full 'Inorg.Chem. '
loop_
_publ_author_name
"K.Wieghardt"
"U.Bossek"
"P.Chaudhuri"
"W.Herrmann"
"B.C.Menke"
"J.Weiss"
_chemical_name_systematic
;
(1,4,7-Triazacyclononane-N,N',N''-triacetato-N,N',N'',O,O',O'')-iron(iii)
;
_cell_volume   2117.448
_exptl_crystal_colour 'yellow'
_exptl_special_details
;
Atom H21 attached to C2 is suspect and has been deleted

;
_diffrn_ambient_temperature ?
_diffrn_special_details
;
The study was carried out at room temperature,in the range 283-303K

;
#These two values have been output from a single CSD field.
_refine_ls_R_factor_gt 0.027
_refine_ls_wR_factor_gt 0.027
_symmetry_cell_setting rhombohedral
_symmetry_space_group_name_H-M 'R 3 c'
_symmetry_Int_Tables_number 161
loop_
_symmetry_equiv_pos_site_id
_symmetry_equiv_pos_as_xyz
1 x,y,z
2 1/3+x,2/3+y,2/3+z
3 2/3+x,1/3+y,1/3+z
4 -y,x-y,z
5 -x+y,-x,z
6 1/3-y,2/3+x-y,2/3+z
7 1/3-x+y,2/3-x,2/3+z
8 2/3-y,1/3+x-y,1/3+z
9 2/3-x+y,1/3-x,1/3+z
10 -y,-x,1/2+z
11 1/3-y,2/3-x,1/6+z
12 2/3-y,1/3-x,5/6+z
13 -x+y,y,1/2+z
14 x,x-y,1/2+z
15 1/3-x+y,2/3+y,1/6+z
16 1/3+x,2/3+x-y,1/6+z
17 2/3-x+y,1/3+y,5/6+z
18 2/3+x,1/3+x-y,5/6+z
_cell_length_a 13.577(3)
_cell_length_b 13.577(3)
_cell_length_c 13.264(4)
_cell_angle_alpha 90
_cell_angle_beta 90
_cell_angle_gamma 120
_cell_formula_units_Z 6
loop_
_atom_type_symbol
_atom_type_radius_bond
C 0.68
H 0.23
Fe 1.34
N 0.68
O 0.68
loop_
_atom_site_label
_atom_site_type_symbol
_atom_site_fract_x
_atom_site_fract_y
_atom_site_fract_z
Fe1 Fe 0.00000 0.00000 0.00000
N1 N 0.12330 0.01040 -0.11100
O1 O 0.05030 0.13920 0.07920
O2 O 0.01780 0.28260 0.10780
C1 C 0.01350 0.20850 0.05450
C2 C 0.22650 0.03830 -0.05050
C3 C 0.14550 0.09780 -0.19050
C4 C 0.07140 -0.10720 -0.15400
H1 H 0.26940 0.11940 -0.04240
H2 H 0.10440 0.06340 -0.25140
H3 H 0.22500 0.14390 -0.20550
H4 H 0.11300 -0.11070 -0.21100
H5 H 0.06880 -0.15820 -0.10250
N1C N -0.01040 0.11290 -0.11100
N1D N -0.11290 -0.12330 -0.11100
O1C O -0.13920 -0.08890 0.07920
O1D O 0.08890 -0.05030 0.07920
C2C C -0.03830 0.18820 -0.05050
C1D C 0.19500 -0.01350 0.05450
C4C C 0.10720 0.17860 -0.15400
C3D C -0.04770 -0.14550 -0.19050
C3C C -0.09780 0.04770 -0.19050
C2D C -0.18820 -0.22650 -0.05050
C4D C -0.17860 -0.07140 -0.15400
C1C C -0.20850 -0.19500 0.05450
H1C H -0.11940 0.15000 -0.04240
O2D O 0.26480 -0.01780 0.10780
H4C H 0.11070 0.22370 -0.21100
H5C H 0.15820 0.22700 -0.10250
H2D H -0.04100 -0.10440 -0.25140
H3D H -0.08110 -0.22500 -0.20550
H2C H -0.06340 0.04100 -0.25140
H3C H -0.14390 0.08110 -0.20550
H1D H -0.15000 -0.26940 -0.04240
H4D H -0.22370 -0.11300 -0.21100
H5D H -0.22700 -0.06880 -0.10250
O2C O -0.28260 -0.26480 0.10780
#END
