
#######################################################################
#
#                 Cambridge Crystallographic Data Centre
#                                CCDC
#
#######################################################################
#
# If this CIF has been generated from an entry in the Cambridge
# Structural Database, then it will include bibliographic, chemical,
# crystal, experimental, refinement or atomic coordinate data resulting
# from the CCDC's data processing and validation procedures.
#
#######################################################################

data_CSD_CIF_BOYFIG
_audit_creation_date 2015-03-07
_audit_creation_method CSD-ConQuest-V1
_database_code_CSD BOYFIG
_database_code_depnum_ccdc_archive 'CCDC 1021431'
_chemical_formula_sum 'C24 H60 Fe1 K1 N2 O6 Si4'
_chemical_formula_moiety
;
C12 H36 Fe1 N2 Si4 1-,C12 H24 K1 O6 1+
;
_journal_coden_Cambridge 179
_journal_volume 54
_journal_year 2015
_journal_page_first 245
_journal_name_full 'Angew.Chem.,Int.Ed. '
loop_
_publ_author_name
"C.Gunnar Werncke"
"P.C.Bunting"
"C.Duhayon"
"J.R.Long"
"S.Bontemps"
"S.Sabo-Etienne"
_chemical_name_systematic
;
(1,4,7,10,13,16-Hexaoxacyclo-octadecane)-potassium 
bis(bis(trimethylsilyl)amide)-iron
;
_cell_volume    925.672
_exptl_crystal_colour 'green'
_exptl_crystal_density_diffrn 1.22
_exptl_crystal_description 'stick'
_diffrn_ambient_temperature 100
#These two values have been output from a single CSD field.
_refine_ls_R_factor_gt 0.0209
_refine_ls_wR_factor_gt 0.0209
_symmetry_cell_setting triclinic
_symmetry_space_group_name_H-M 'P -1'
_symmetry_Int_Tables_number 2
loop_
_symmetry_equiv_pos_site_id
_symmetry_equiv_pos_as_xyz
1 x,y,z
2 -x,-y,-z
_cell_length_a 9.5765(2)
_cell_length_b 10.0297(3)
_cell_length_c 11.0537(3)
_cell_angle_alpha 63.120(3)
_cell_angle_beta 78.099(2)
_cell_angle_gamma 82.356(2)
_cell_formula_units_Z 1
loop_
_atom_type_symbol
_atom_type_radius_bond
C 0.68
H 0.23
Fe 1.52
K 2.03
N 0.68
O 0.68
Si 1.20
loop_
_atom_site_label
_atom_site_type_symbol
_atom_site_fract_x
_atom_site_fract_y
_atom_site_fract_z
C1 C -0.02805(12) 0.25135(12) 0.98609(9)
C2 C -0.12497(8) 0.56268(9) 0.80940(9)
C3 C -0.24497(10) 0.29629(11) 0.81243(9)
C4 C 0.30176(11) 0.22152(12) 0.82839(10)
C5 C 0.17315(10) 0.09290(9) 0.67937(10)
C6 C 0.34662(9) 0.3656(1) 0.52220(9)
Fe1 Fe 0.00000 0.50000 0.50000
Si1 Si -0.07586(2) 0.37470(2) 0.810840(19)
Si2 Si 0.20779(2) 0.27399(2) 0.67780(2)
N1 N 0.05591(7) 0.38391(7) 0.67743(6)
H1 H -0.00250 0.14960 0.99850
H2 H -0.11100 0.24880 1.05480
H3 H 0.05050 0.28990 1.00190
H4 H -0.19940 0.55520 0.88560
H5 H -0.15500 0.63340 0.72580
H6 H -0.04350 0.59960 0.81900
H7 H -0.27360 0.33950 0.72280
H8 H -0.22840 0.19090 0.84310
H9 H -0.32370 0.31380 0.87450
H10 H 0.39940 0.18800 0.80670
H11 H 0.30660 0.30360 0.84880
H12 H 0.25590 0.14270 0.90950
H13 H 0.09160 0.04960 0.74920
H14 H 0.15230 0.11190 0.59130
H15 H 0.25220 0.02230 0.69930
H16 H 0.31830 0.37300 0.44080
H17 H 0.43640 0.30700 0.53490
H18 H 0.36270 0.46410 0.50770
C7 C 0.20212(8) -0.24281(9) 0.60290(8)
C8 C 0.29815(8) -0.33995(8) 0.70433(8)
C9 C 0.46223(9) -0.32865(8) 0.83228(8)
C10 C 0.53241(9) -0.22008(9) 0.85776(7)
C11 C 0.29694(9) 0.03476(10) 0.24492(8)
C12 C 0.20180(8) -0.05404(10) 0.37744(8)
O1 O 0.37412(6) -0.24568(6) 0.73126(6)
O2 O 0.37741(6) 0.13040(6) 0.26572(5)
O3 O 0.28801(6) -0.14747(6) 0.47805(6)
K1 K 0.50000 0.00000 0.50000
H19 H 0.14850 -0.30470 0.58530
H20 H 0.13570 -0.18200 0.63950
H21 H 0.36480 -0.39990 0.66860
H22 H 0.23990 -0.40530 0.78850
H23 H 0.53430 -0.38860 0.79940
H24 H 0.40600 -0.39430 0.91650
H25 H 0.46110 -0.15750 0.88720
H26 H 0.58840 -0.27610 0.92950
H27 H 0.36080 -0.03170 0.21560
H28 H 0.23740 0.09410 0.17600
H29 H 0.14270 -0.11600 0.36400
H30 H 0.14000 0.01340 0.40880
C1A C 0.02805(12) 0.74865(12) 0.01391(9)
C2A C 0.12497(8) 0.43732(9) 0.19060(9)
C3A C 0.24497(10) 0.70371(11) 0.18757(9)
C4A C -0.30176(11) 0.77848(12) 0.17161(10)
C5A C -0.17315(10) 0.90710(9) 0.32063(10)
C6A C -0.34662(9) 0.6344(1) 0.47780(9)
Si1A Si 0.07586(2) 0.62530(2) 0.189160(19)
Si2A Si -0.20779(2) 0.72601(2) 0.32220(2)
N1A N -0.05591(7) 0.61609(7) 0.32257(6)
H1A H 0.00250 0.85040 0.00150
H2A H 0.11100 0.75120 -0.05480
H3A H -0.05050 0.71010 -0.00190
H4A H 0.19940 0.44480 0.11440
H5A H 0.15500 0.36660 0.27420
H6A H 0.04350 0.40040 0.18100
H7A H 0.27360 0.66050 0.27720
H8A H 0.22840 0.80910 0.15690
H9A H 0.32370 0.68620 0.12550
H10A H -0.39940 0.81200 0.19330
H11A H -0.30660 0.69640 0.15120
H12A H -0.25590 0.85730 0.09050
H13A H -0.09160 0.95040 0.25080
H14A H -0.15230 0.88810 0.40870
H15A H -0.25220 0.97770 0.30070
H16A H -0.31830 0.62700 0.55920
H17A H -0.43640 0.69300 0.46510
H18A H -0.36270 0.53590 0.49230
C7A C 0.79788(8) 0.24281(9) 0.39710(8)
C8A C 0.70185(8) 0.33995(8) 0.29567(8)
C9A C 0.53777(9) 0.32865(8) 0.16772(8)
C10A C 0.46759(9) 0.22008(9) 0.14224(7)
C11A C 0.70306(9) -0.03476(10) 0.75508(8)
C12A C 0.79820(8) 0.05404(10) 0.62256(8)
O1A O 0.62588(6) 0.24568(6) 0.26874(6)
O2A O 0.62259(6) -0.13040(6) 0.73428(5)
O3A O 0.71199(6) 0.14747(6) 0.52195(6)
H19A H 0.85150 0.30470 0.41470
H20A H 0.86430 0.18200 0.36050
H21A H 0.63520 0.39990 0.33140
H22A H 0.76010 0.40530 0.21150
H23A H 0.46570 0.38860 0.20060
H24A H 0.59400 0.39430 0.08350
H25A H 0.53890 0.15750 0.11280
H26A H 0.41160 0.27610 0.07050
H27A H 0.63920 0.03170 0.78440
H28A H 0.76260 -0.09410 0.82400
H29A H 0.85730 0.11600 0.63600
H30A H 0.86000 -0.01340 0.59120
#END
