
#######################################################################
#
#                 Cambridge Crystallographic Data Centre
#                                CCDC
#
#######################################################################
#
# If this CIF has been generated from an entry in the Cambridge
# Structural Database, then it will include bibliographic, chemical,
# crystal, experimental, refinement or atomic coordinate data resulting
# from the CCDC's data processing and validation procedures.
#
#######################################################################

data_CSD_CIF_BOZNIP
_audit_creation_date 2015-03-09
_audit_creation_method CSD-ConQuest-V1
_database_code_CSD BOZNIP
_database_code_depnum_ccdc_archive 'CCDC 1052805'
_chemical_formula_sum 'C12 H18 Co1 N4 O10'
_chemical_formula_moiety
;
C12 H18 Co1 N4 O10
;
_journal_coden_Cambridge 1078
_journal_year 2015
_journal_name_full 'CSD Communication(Private Communication) '
loop_
_publ_author_name
"Miha Trdin"
"Nina Lah"
_chemical_name_systematic
;
diaqua-bis(nitrato)-bis(pyridin-3-ylmethanol)-cobalt(ii)
;
_cell_volume    441.619
_exptl_crystal_colour 'red'
_exptl_crystal_density_diffrn 1.644
_exptl_crystal_description 'prismatic'
_diffrn_ambient_temperature 150
#These two values have been output from a single CSD field.
_refine_ls_R_factor_gt 0.0393
_refine_ls_wR_factor_gt 0.0393
_symmetry_cell_setting triclinic
_symmetry_space_group_name_H-M 'P -1'
_symmetry_Int_Tables_number 2
loop_
_symmetry_equiv_pos_site_id
_symmetry_equiv_pos_as_xyz
1 x,y,z
2 -x,-y,-z
_cell_length_a 7.5552(7)
_cell_length_b 8.0402(6)
_cell_length_c 8.8534(10)
_cell_angle_alpha 104.540(9)
_cell_angle_beta 116.019(7)
_cell_angle_gamma 100.188(7)
_cell_formula_units_Z 1
loop_
_atom_type_symbol
_atom_type_radius_bond
C 0.68
H 0.23
Co 1.26
N 0.68
O 0.68
loop_
_atom_site_label
_atom_site_type_symbol
_atom_site_fract_x
_atom_site_fract_y
_atom_site_fract_z
Co1 Co 0.00000 0.00000 0.00000
O1 O 0.4504(2) 0.5268(2) 0.70242(18)
H1 H 0.346(4) 0.529(3) 0.707(3)
O2 O -0.1188(3) 0.4583(2) 0.2368(2)
O3 O -0.0325(2) 0.26465(18) 0.08867(17)
O4 O -0.3076(2) 0.1745(2) 0.10910(19)
N1 N -0.1538(3) 0.2987(2) 0.1452(2)
N2 N 0.1459(2) 0.0209(2) 0.2742(2)
C1 C 0.3708(3) 0.1967(3) 0.5923(2)
C2 C 0.5123(4) 0.3790(3) 0.7428(3)
H2 H 0.51310 0.37830 0.85250
H3 H 0.65340 0.39710 0.76560
C3 C 0.2700(3) 0.1807(3) 0.4132(2)
H4 H 0.28900 0.28560 0.38760
C4 C 0.2134(3) -0.1259(3) 0.4872(3)
H5 H 0.19220 -0.23250 0.50970
C5 C 0.1179(3) -0.1298(3) 0.3128(3)
H6 H 0.03080 -0.24070 0.21810
C6 C 0.3414(3) 0.0390(3) 0.6283(3)
H7 H 0.40760 0.04430 0.74690
O5 O -0.2703(2) -0.1556(2) -0.0358(2)
H8 H -0.327(4) -0.096(3) -0.015(3)
H9 H -0.359(4) -0.256(4) -0.121(4)
O1A O -0.4504(2) -0.5268(2) -0.70242(18)
H1A H -0.346(4) -0.529(3) -0.707(3)
O2A O 0.1188(3) -0.4583(2) -0.2368(2)
O3A O 0.0325(2) -0.26465(18) -0.08867(17)
O4A O 0.3076(2) -0.1745(2) -0.10910(19)
N1A N 0.1538(3) -0.2987(2) -0.1452(2)
N2A N -0.1459(2) -0.0209(2) -0.2742(2)
C1A C -0.3708(3) -0.1967(3) -0.5923(2)
C2A C -0.5123(4) -0.3790(3) -0.7428(3)
H2A H -0.51310 -0.37830 -0.85250
H3A H -0.65340 -0.39710 -0.76560
C3A C -0.2700(3) -0.1807(3) -0.4132(2)
H4A H -0.28900 -0.28560 -0.38760
C4A C -0.2134(3) 0.1259(3) -0.4872(3)
H5A H -0.19220 0.23250 -0.50970
C5A C -0.1179(3) 0.1298(3) -0.3128(3)
H6A H -0.03080 0.24070 -0.21810
C6A C -0.3414(3) -0.0390(3) -0.6283(3)
H7A H -0.40760 -0.04430 -0.74690
O5A O 0.2703(2) 0.1556(2) 0.0358(2)
H8A H 0.327(4) 0.096(3) 0.015(3)
H9A H 0.359(4) 0.256(4) 0.121(4)
#END
