
#######################################################################
#
#                 Cambridge Crystallographic Data Centre
#                                CCDC
#
#######################################################################
#
# If this CIF has been generated from an entry in the Cambridge
# Structural Database, then it will include bibliographic, chemical,
# crystal, experimental, refinement or atomic coordinate data resulting
# from the CCDC's data processing and validation procedures.
#
#######################################################################

data_CSD_CIF_BRURMN10
_audit_creation_date 1987-10-26
_audit_creation_method CSD-ConQuest-V1
_database_code_CSD BRURMN10
_chemical_formula_sum 'C9 H24 Br2 Mn1 N6 O3'
_chemical_formula_moiety
;
C9 H24 Br2 Mn1 N6 O3
;
_journal_coden_Cambridge 9
_journal_volume 25
_journal_year 1986
_journal_page_first 3957
_journal_name_full 'Inorg.Chem. '
loop_
_publ_author_name
"J.Delaunay"
"R.P.Hugel"
_chemical_name_systematic
;
Dibromo-tris(N,N'-dimethylurea-O)-manganese(ii)
;
_cell_volume   1824.810
_exptl_crystal_density_diffrn 1.739
_exptl_special_details
;
Moisture-sensitive

;
_diffrn_ambient_temperature ?
_diffrn_special_details
;
The study was carried out at room temperature,in the range 283-303K

;
#These two values have been output from a single CSD field.
_refine_ls_R_factor_gt 0.0513
_refine_ls_wR_factor_gt 0.0513
_symmetry_cell_setting monoclinic
_symmetry_space_group_name_H-M 'C 2/c'
_symmetry_Int_Tables_number 15
loop_
_symmetry_equiv_pos_site_id
_symmetry_equiv_pos_as_xyz
1 x,y,z
2 1/2+x,1/2+y,z
3 -x,y,1/2-z
4 1/2-x,1/2+y,1/2-z
5 -x,-y,-z
6 -1/2-x,-1/2-y,-z
7 x,-y,-1/2+z
8 -1/2+x,-1/2-y,-1/2+z
_cell_length_a 13.211(3)
_cell_length_b 8.670(3)
_cell_length_c 16.593(4)
_cell_angle_alpha 90
_cell_angle_beta 106.23(3)
_cell_angle_gamma 90
_cell_formula_units_Z 4
loop_
_atom_type_symbol
_atom_type_radius_bond
C 0.68
H 0.23
Br 1.21
Mn 1.35
N 0.68
O 0.68
loop_
_atom_site_label
_atom_site_type_symbol
_atom_site_fract_x
_atom_site_fract_y
_atom_site_fract_z
Br1 Br -0.05212(7) 0.19582(1) 0.11512(9)
Mn1 Mn 0.00000 0.35683(28) 0.25000
O1 O 0.1629(6) 0.3696(9) 0.2460(5)
C1 C 0.2193(10) 0.4873(17) 0.2434(9)
N1 N 0.2817(10) 0.5453(13) 0.3147(9)
C2 C 0.2981(11) 0.4736(18) 0.3983(8)
N2 N 0.2209(9) 0.5537(13) 0.1717(8)
C3 C 0.1671(12) 0.489(2) 0.0929(10)
O2 O 0.00000 0.5915(13) 0.25000
C4 C 0.00000 0.7356(21) 0.25000
N3 N 0.0319(10) 0.8144(13) 0.3214(8)
C5 C 0.0698(17) 0.7428(20) 0.4024(11)
H1 H 0.31720 0.63290 0.31450
H2 H 0.24760 0.51390 0.42540
H3 H 0.36650 0.49650 0.43370
H4 H 0.28950 0.36460 0.39360
H5 H 0.25760 0.64010 0.17070
H6 H 0.21370 0.42790 0.07040
H7 H 0.13440 0.56640 0.05400
H8 H 0.11290 0.41850 0.09920
H9 H 0.02910 0.91660 0.32000
H10 H 0.01580 0.73940 0.43080
H11 H 0.12820 0.80060 0.43640
H12 H 0.09300 0.63960 0.39800
Br1B Br 0.05212(7) 0.19582(1) 0.38488(9)
O1B O -0.1629(6) 0.3696(9) 0.2540(5)
N3B N -0.0319(10) 0.8144(13) 0.1786(8)
C1B C -0.2193(10) 0.4873(17) 0.2566(9)
C5B C -0.0698(17) 0.7428(20) 0.0976(11)
H9B H -0.02910 0.91660 0.18000
N1B N -0.2817(10) 0.5453(13) 0.1853(9)
N2B N -0.2209(9) 0.5537(13) 0.3283(8)
H10B H -0.01580 0.73940 0.06920
H11B H -0.12820 0.80060 0.06360
H12B H -0.09300 0.63960 0.10200
C2B C -0.2981(11) 0.4736(18) 0.1017(8)
H1B H -0.31720 0.63290 0.18550
C3B C -0.1671(12) 0.489(2) 0.4071(10)
H5B H -0.25760 0.64010 0.32930
H2B H -0.24760 0.51390 0.07460
H3B H -0.36650 0.49650 0.06630
H4B H -0.28950 0.36460 0.10640
H6B H -0.21370 0.42790 0.42960
H7B H -0.13440 0.56640 0.44600
H8B H -0.11290 0.41850 0.40080
#END
