
#######################################################################
#
#                 Cambridge Crystallographic Data Centre
#                                CCDC
#
#######################################################################
#
# If this CIF has been generated from an entry in the Cambridge
# Structural Database, then it will include bibliographic, chemical,
# crystal, experimental, refinement or atomic coordinate data resulting
# from the CCDC's data processing and validation procedures.
#
#######################################################################

data_CSD_CIF_BUBGIP
_audit_creation_date 2009-12-08
_audit_creation_method CSD-ConQuest-V1
_database_code_CSD BUBGIP
_database_code_depnum_ccdc_archive 'CCDC 700165'
_chemical_formula_sum 'C18 H26 Mn1'
_chemical_formula_moiety
;
C18 H26 Mn1
;
_journal_coden_Cambridge 579
_journal_volume 28
_journal_year 2009
_journal_page_first 2005
_journal_name_full 'Organometallics '
loop_
_publ_author_name
"M.D.Walter"
"C.D.Sofield"
"C.H.Booth"
"R.A.Andersen"
_chemical_name_systematic
;
bis(\h^5^-t-Butyl-cyclopentadienyl)-manganese
;
_chemical_melting_point 332.15
_cell_volume    782.787
_exptl_crystal_colour 'orange-red'
_exptl_crystal_density_diffrn 1.261
_exptl_special_details
;
Melting point range 332.15-333.15K
magnetic study
isostructural and isomiorphous with the magnesium analogue
;
_exptl_crystal_description 'block'
_diffrn_ambient_temperature 151
#These two values have been output from a single CSD field.
_refine_ls_R_factor_gt 0.0366
_refine_ls_wR_factor_gt 0.0366
_symmetry_cell_setting monoclinic
_symmetry_space_group_name_H-M 'P 21/n'
_symmetry_Int_Tables_number 14
loop_
_symmetry_equiv_pos_site_id
_symmetry_equiv_pos_as_xyz
1 x,y,z
2 1/2-x,1/2+y,1/2-z
3 -x,-y,-z
4 -1/2+x,-1/2-y,-1/2+z
_cell_length_a 6.1011(9)
_cell_length_b 11.1405(16)
_cell_length_c 11.5594(16)
_cell_angle_alpha 90
_cell_angle_beta 94.922(2)
_cell_angle_gamma 90
_cell_formula_units_Z 2
loop_
_atom_type_symbol
_atom_type_radius_bond
C 0.68
H 0.23
Mn 1.61
loop_
_atom_site_label
_atom_site_type_symbol
_atom_site_fract_x
_atom_site_fract_y
_atom_site_fract_z
Mn1 Mn 0.00000 0.00000 0.50000
C1 C 0.1194(4) -0.0525(2) 0.3343(2)
C2 C 0.2593(4) -0.0980(2) 0.4288(2)
H1 H 0.41120 -0.07990 0.44400
C3 C 0.1366(4) -0.1745(2) 0.4966(2)
H2 H 0.19120 -0.21650 0.56470
C4 C -0.0819(4) -0.1773(2) 0.4448(2)
H3 H -0.20040 -0.22170 0.47160
C5 C -0.0925(4) -0.1021(2) 0.3457(2)
H4 H -0.22050 -0.08710 0.29510
C6 C 0.1870(4) 0.0271(2) 0.2368(2)
C7 C 0.3708(4) 0.1132(2) 0.2804(2)
H5 H 0.31870 0.16550 0.34040
H6 H 0.41340 0.16230 0.21560
H7 H 0.49820 0.06710 0.31300
C8 C -0.0084(4) 0.1007(3) 0.1831(2)
H8 H -0.12570 0.04630 0.15250
H9 H 0.03910 0.15030 0.11980
H10 H -0.06360 0.15260 0.24260
C9 C 0.2698(5) -0.0544(3) 0.1428(2)
H11 H 0.39120 -0.10420 0.17690
H12 H 0.32150 -0.00500 0.08050
H13 H 0.14960 -0.10630 0.11100
C1B C -0.1194(4) 0.0525(2) 0.6657(2)
C2B C -0.2593(4) 0.0980(2) 0.5712(2)
H1B H -0.41120 0.07990 0.55600
C3B C -0.1366(4) 0.1745(2) 0.5034(2)
H2B H -0.19120 0.21650 0.43530
C4B C 0.0819(4) 0.1773(2) 0.5552(2)
H3B H 0.20040 0.22170 0.52840
C5B C 0.0925(4) 0.1021(2) 0.6543(2)
H4B H 0.22050 0.08710 0.70490
C6B C -0.1870(4) -0.0271(2) 0.7632(2)
C7B C -0.3708(4) -0.1132(2) 0.7196(2)
H5B H -0.31870 -0.16550 0.65960
H6B H -0.41340 -0.16230 0.78440
H7B H -0.49820 -0.06710 0.68700
C8B C 0.0084(4) -0.1007(3) 0.8169(2)
H8B H 0.12570 -0.04630 0.84750
H9B H -0.03910 -0.15030 0.88020
H10B H 0.06360 -0.15260 0.75740
C9B C -0.2698(5) 0.0544(3) 0.8572(2)
H11B H -0.39120 0.10420 0.82310
H12B H -0.32150 0.00500 0.91950
H13B H -0.14960 0.10630 0.88900
#END
