
#######################################################################
#
#                 Cambridge Crystallographic Data Centre
#                                CCDC
#
#######################################################################
#
# If this CIF has been generated from an entry in the Cambridge
# Structural Database, then it will include bibliographic, chemical,
# crystal, experimental, refinement or atomic coordinate data resulting
# from the CCDC's data processing and validation procedures.
#
#######################################################################

data_CSD_CIF_BUBPIX
_audit_creation_date 1983-10-06
_audit_creation_method CSD-ConQuest-V1
_database_code_CSD BUBPIX
_database_code_depnum_ccdc_archive 'CCDC 1115797'
_chemical_formula_sum 'C44 H60 Cl1 Fe1 N4 O6'
_chemical_formula_moiety
;
C44 H60 Fe1 N4 O2 1+,Cl1 O4 1-
;
_journal_coden_Cambridge 7
_journal_volume 55
_journal_year 1982
_journal_page_first 3891
_journal_name_full 'Bull.Chem.Soc.Jpn. '
loop_
_publ_author_name
"H.Masuda"
"T.Taga"
"K.Osaki"
"H.Sugimoto"
"Z.Yoshida"
"H.Ogoshi"
_chemical_name_systematic
;
Octaethylporphinato-bis(tetrahydrofuran)-iron(iii) perchlorate
;
_cell_volume   2158.531
_exptl_crystal_colour 'dark violet'
_exptl_crystal_density_diffrn 1.28
_diffrn_ambient_temperature ?
_diffrn_special_details
;
The study was carried out at room temperature,in the range 283-303K

;
_refine_special_details
;
The perchlorate anion is disordered around the centre of symmetry. No 
positions retained. The tetrahydrofuran molecule lies approximately on the 
mirror plane x0z. The O(T) atom exactly lies on the mirror plane, but atoms 
C(11), C(12), C(13) and C(14) are disordered out of the mirror plane with 0.5 
occupancy. No coord. have been retained.
;
#These two values have been output from a single CSD field.
_refine_ls_R_factor_gt 0.079
_refine_ls_wR_factor_gt 0.079
_symmetry_cell_setting monoclinic
_symmetry_space_group_name_H-M 'C 2/m'
_symmetry_Int_Tables_number 12
loop_
_symmetry_equiv_pos_site_id
_symmetry_equiv_pos_as_xyz
1 x,y,z
2 1/2+x,1/2+y,z
3 -x,y,-z
4 1/2-x,1/2+y,-z
5 -x,-y,-z
6 -1/2-x,-1/2-y,-z
7 x,-y,z
8 -1/2+x,-1/2-y,z
_cell_length_a 13.916(3)
_cell_length_b 16.509(3)
_cell_length_c 10.659(5)
_cell_angle_alpha 90
_cell_angle_beta 118.18(1)
_cell_angle_gamma 90
_cell_formula_units_Z 2
loop_
_atom_type_symbol
_atom_type_radius_bond
C 0.68
H 0.23
Fe 1.34
N 0.68
loop_
_atom_site_label
_atom_site_type_symbol
_atom_site_fract_x
_atom_site_fract_y
_atom_site_fract_z
Fe1 Fe 0.00000 0.00000 0.00000
N1 N -0.06100 0.08440 0.07390
C1 C -0.05250 0.16730 0.06700
C2 C -0.10860 0.20840 0.13550
C3 C -0.15360 0.15030 0.17880
C4 C -0.12450 0.07680 0.14010
C5 C -0.15180 0.00000 0.16580
C6 C 0.00000 0.20300 0.00000
C7 C -0.10760 0.29830 0.15370
C8 C -0.22500 0.16300 0.24920
C9 C -0.00470 0.32830 0.28430
C10 C -0.16230 0.16420 0.40540
H1 H -0.20100 0.00000 0.22000
H2 H 0.00000 0.26900 0.00000
H3 H -0.11300 0.32900 0.07400
H4 H -0.17200 0.31600 0.17200
H5 H -0.26400 0.21600 0.21700
H6 H -0.27900 0.11900 0.22000
H7 H -0.00600 0.39000 0.29400
H8 H 0.05700 0.31400 0.27800
H9 H 0.00100 0.30500 0.37400
H10 H -0.21200 0.17400 0.45400
H11 H -0.11100 0.20600 0.43800
H12 H -0.12600 0.10900 0.44200
N1B N 0.06100 0.08440 -0.07390
C1B C 0.05250 0.16730 -0.06700
C2B C 0.10860 0.20840 -0.13550
C3B C 0.15360 0.15030 -0.17880
C4B C 0.12450 0.07680 -0.14010
C5B C 0.15180 0.00000 -0.16580
C7B C 0.10760 0.29830 -0.15370
C8B C 0.22500 0.16300 -0.24920
C9B C 0.00470 0.32830 -0.28430
C10B C 0.16230 0.16420 -0.40540
H1B H 0.20100 0.00000 -0.22000
H3B H 0.11300 0.32900 -0.07400
H4B H 0.17200 0.31600 -0.17200
H5B H 0.26400 0.21600 -0.21700
H6B H 0.27900 0.11900 -0.22000
H7B H 0.00600 0.39000 -0.29400
H8B H -0.05700 0.31400 -0.27800
H9B H -0.00100 0.30500 -0.37400
H10B H 0.21200 0.17400 -0.45400
H11B H 0.11100 0.20600 -0.43800
H12B H 0.12600 0.10900 -0.44200
N1D N 0.06100 -0.08440 -0.07390
C1D C 0.05250 -0.16730 -0.06700
C2D C 0.10860 -0.20840 -0.13550
C3D C 0.15360 -0.15030 -0.17880
C4D C 0.12450 -0.07680 -0.14010
C6D C 0.00000 -0.20300 0.00000
C7D C 0.10760 -0.29830 -0.15370
C8D C 0.22500 -0.16300 -0.24920
C9D C 0.00470 -0.32830 -0.28430
C10D C 0.16230 -0.16420 -0.40540
H2D H 0.00000 -0.26900 0.00000
H3D H 0.11300 -0.32900 -0.07400
H4D H 0.17200 -0.31600 -0.17200
H5D H 0.26400 -0.21600 -0.21700
H6D H 0.27900 -0.11900 -0.22000
H7D H 0.00600 -0.39000 -0.29400
H8D H -0.05700 -0.31400 -0.27800
H9D H -0.00100 -0.30500 -0.37400
H10D H 0.21200 -0.17400 -0.45400
H11D H 0.11100 -0.20600 -0.43800
H12D H 0.12600 -0.10900 -0.44200
N1F N -0.06100 -0.08440 0.07390
C1F C -0.05250 -0.16730 0.06700
C2F C -0.10860 -0.20840 0.13550
C3F C -0.15360 -0.15030 0.17880
C4F C -0.12450 -0.07680 0.14010
C7F C -0.10760 -0.29830 0.15370
C8F C -0.22500 -0.16300 0.24920
C9F C -0.00470 -0.32830 0.28430
C10F C -0.16230 -0.16420 0.40540
H3F H -0.11300 -0.32900 0.07400
H4F H -0.17200 -0.31600 0.17200
H5F H -0.26400 -0.21600 0.21700
H6F H -0.27900 -0.11900 0.22000
H7F H -0.00600 -0.39000 0.29400
H8F H 0.05700 -0.31400 0.27800
H9F H 0.00100 -0.30500 0.37400
H10F H -0.21200 -0.17400 0.45400
H11F H -0.11100 -0.20600 0.43800
H12F H -0.12600 -0.10900 0.44200
#END
