
#######################################################################
#
#                 Cambridge Crystallographic Data Centre
#                                CCDC
#
#######################################################################
#
# If this CIF has been generated from an entry in the Cambridge
# Structural Database, then it will include bibliographic, chemical,
# crystal, experimental, refinement or atomic coordinate data resulting
# from the CCDC's data processing and validation procedures.
#
#######################################################################

data_CSD_CIF_BUCZOO
_audit_creation_date 1983-11-09
_audit_creation_method CSD-ConQuest-V1
_database_code_CSD BUCZOO
_database_code_depnum_ccdc_archive 'CCDC 1115955'
_chemical_formula_sum 'C8 H14 B2 Fe1 N2'
_chemical_formula_moiety
;
C8 H14 B2 Fe1 N2
;
_journal_coden_Cambridge 48
_journal_volume 116
_journal_year 1983
_journal_page_first 951
_journal_name_full 'Chem.Ber. '
loop_
_publ_author_name
"G.Schmid"
"U.Hohner"
"D.Kampmann"
"D.Zaika"
"R.Boese"
_chemical_name_systematic
;
bis(\h^5^-2-Methyl-1,2-azaborolinyl)-iron
;
_cell_volume    515.516
_exptl_crystal_colour 'orange-red'
_exptl_crystal_density_diffrn 1.21
_exptl_special_details
;
dx=1.21,dc=1.39

;
_diffrn_ambient_temperature ?
_diffrn_special_details
;
The study was carried out at room temperature,in the range 283-303K

;
#These two values have been output from a single CSD field.
_refine_ls_R_factor_gt 0.033
_refine_ls_wR_factor_gt 0.033
_symmetry_cell_setting monoclinic
_symmetry_space_group_name_H-M 'P 21/c'
_symmetry_Int_Tables_number 14
loop_
_symmetry_equiv_pos_site_id
_symmetry_equiv_pos_as_xyz
1 x,y,z
2 -x,1/2+y,1/2-z
3 -x,-y,-z
4 x,-1/2-y,-1/2+z
_cell_length_a 7.238(3)
_cell_length_b 7.541(2)
_cell_length_c 9.887(5)
_cell_angle_alpha 90
_cell_angle_beta 107.20(3)
_cell_angle_gamma 90
_cell_formula_units_Z 2
loop_
_atom_type_symbol
_atom_type_radius_bond
C 0.68
H 0.23
B 0.83
Fe 1.34
N 0.68
loop_
_atom_site_label
_atom_site_type_symbol
_atom_site_fract_x
_atom_site_fract_y
_atom_site_fract_z
Fe1 Fe 0.50000 0.00000 0.00000
N1 N 0.49080 0.04580 0.19840
B1 B 0.66780 0.13590 0.18860
C1 C 0.58740 0.25900 0.06560
C2 C 0.38500 0.24290 0.01830
C3 C 0.32520 0.11260 0.09640
C4 C 0.87400 0.09600 0.29110
H1 H 0.20390 0.05740 0.09160
H2 H 0.30510 0.30380 -0.06340
H3 H 0.65720 0.33420 0.01940
H4 H 0.46870 -0.04240 0.26600
H5 H 0.89230 -0.02760 0.31430
H6 H 0.89090 0.16370 0.37610
H7 H 0.96710 0.13350 0.24500
N1B N 0.50920 -0.04580 -0.19840
B1B B 0.33220 -0.13590 -0.18860
C1B C 0.41260 -0.25900 -0.06560
C2B C 0.61500 -0.24290 -0.01830
C3B C 0.67480 -0.11260 -0.09640
H4B H 0.53130 0.04240 -0.26600
C4B C 0.12600 -0.09600 -0.29110
H3B H 0.34280 -0.33420 -0.01940
H2B H 0.69490 -0.30380 0.06340
H1B H 0.79610 -0.05740 -0.09160
H5B H 0.10770 0.02760 -0.31430
H6B H 0.10910 -0.16370 -0.37610
H7B H 0.03290 -0.13350 -0.24500
#END
