
#######################################################################
#
#                 Cambridge Crystallographic Data Centre
#                                CCDC
#
#######################################################################
#
# If this CIF has been generated from an entry in the Cambridge
# Structural Database, then it will include bibliographic, chemical,
# crystal, experimental, refinement or atomic coordinate data resulting
# from the CCDC's data processing and validation procedures.
#
#######################################################################

data_CSD_CIF_BUKPAA
_audit_creation_date 2015-07-31
_audit_creation_method CSD-ConQuest-V1
_database_code_CSD BUKPAA
_database_code_depnum_ccdc_archive 'CCDC 1416271'
_chemical_formula_sum 'C15 H23 Fe1 N1 Si2'
_chemical_formula_moiety
;
C15 H23 Fe1 N1 Si2
;
_journal_coden_Cambridge 579
_journal_volume 34
_journal_year 2015
_journal_page_first 3039
_journal_name_full 'Organometallics '
loop_
_publ_author_name
"Subhayan Dey"
"J.Wilson Quail"
"J.Muller"
_chemical_name_systematic
;
(3-[2-(cyclopentadienyl)-1,1,3,3,3-pentamethyldisilazanyl]cyclopentadienyl)-ir
on
;
_cell_volume    812.699
_exptl_crystal_colour 'orange'
_exptl_crystal_density_diffrn 1.346
_exptl_crystal_description 'block'
_diffrn_ambient_temperature 173
#These two values have been output from a single CSD field.
_refine_ls_R_factor_gt 0.0346
_refine_ls_wR_factor_gt 0.0346
_symmetry_cell_setting triclinic
_symmetry_space_group_name_H-M 'P -1'
_symmetry_Int_Tables_number 2
loop_
_symmetry_equiv_pos_site_id
_symmetry_equiv_pos_as_xyz
1 x,y,z
2 -x,-y,-z
_cell_length_a 6.5140(5)
_cell_length_b 10.7849(8)
_cell_length_c 11.7791(9)
_cell_angle_alpha 96.347(2)
_cell_angle_beta 90.913(2)
_cell_angle_gamma 98.624(2)
_cell_formula_units_Z 2
loop_
_atom_type_symbol
_atom_type_radius_bond
C 0.68
H 0.23
Fe 1.52
N 0.68
Si 1.20
loop_
_atom_site_label
_atom_site_type_symbol
_atom_site_fract_x
_atom_site_fract_y
_atom_site_fract_z
Fe1 Fe 0.78572(5) 0.56999(3) 0.82498(2)
Si1 Si 0.66282(9) 0.71306(5) 0.62230(5)
Si2 Si 0.81996(9) 0.98260(5) 0.75723(5)
N1 N 0.7575(3) 0.81808(15) 0.74239(14)
C1 C 0.8082(3) 0.75832(18) 0.84060(17)
C2 C 1.0060(4) 0.72378(19) 0.86661(18)
H1 H 1.13670 0.74560 0.82490
C3 C 0.9835(4) 0.6504(2) 0.96036(18)
H2 H 1.09490 0.61050 0.99490
C4 C 0.7749(4) 0.6409(2) 0.99401(19)
H3 H 0.71330 0.59310 1.05650
C5 C 0.6655(4) 0.7088(2) 0.92138(18)
H4 H 0.51530 0.71820 0.92530
C6 C 0.6817(3) 0.55124(19) 0.66198(17)
C7 C 0.8717(4) 0.49902(19) 0.66940(18)
H5 H 1.00370 0.52910 0.63190
C8 C 0.8437(4) 0.4000(2) 0.74121(19)
H6 H 0.95220 0.35000 0.76370
C9 C 0.6364(4) 0.3877(2) 0.7776(2)
H7 H 0.57290 0.32760 0.83070
C10 C 0.5363(4) 0.47875(19) 0.72904(19)
H8 H 0.38910 0.49170 0.74110
C11 C 1.1065(4) 1.0311(2) 0.7588(2)
H9 H 1.17060 0.99770 0.82240
H10 H 1.13880 1.12340 0.76830
H11 H 1.16120 0.99770 0.68660
C12 C 0.7191(4) 1.0483(2) 0.8936(2)
H12 H 0.56730 1.02740 0.89180
H13 H 0.75900 1.14030 0.90390
H14 H 0.77760 1.01210 0.95720
C13 C 0.6998(4) 1.0450(2) 0.6351(2)
H15 H 0.75690 1.01210 0.56340
H16 H 0.73010 1.13740 0.64450
H17 H 0.54900 1.01830 0.63300
C14 C 0.3860(3) 0.7226(2) 0.5882(2)
H18 H 0.30170 0.70270 0.65380
H19 H 0.33690 0.66200 0.52160
H20 H 0.37370 0.80820 0.57120
C15 C 0.8199(4) 0.7415(2) 0.49463(18)
H21 H 0.81130 0.82640 0.47440
H22 H 0.76590 0.67880 0.43040
H23 H 0.96500 0.73440 0.51180
#END
