
#######################################################################
#
#                 Cambridge Crystallographic Data Centre
#                                CCDC
#
#######################################################################
#
# If this CIF has been generated from an entry in the Cambridge
# Structural Database, then it will include bibliographic, chemical,
# crystal, experimental, refinement or atomic coordinate data resulting
# from the CCDC's data processing and validation procedures.
#
#######################################################################

data_CSD_CIF_BUNYEP
_audit_creation_date 2010-09-05
_audit_creation_method CSD-ConQuest-V1
_database_code_CSD BUNYEP
_database_code_depnum_ccdc_archive 'CCDC 723660'
_chemical_formula_sum 'C30 H24 Cl4 Co1 N2 O2'
_chemical_formula_moiety
;
C30 H24 Cl4 Co1 N2 O2
;
_journal_coden_Cambridge 580
_journal_volume 29
_journal_year 2010
_journal_page_first 477
_journal_name_full 'Polyhedron '
loop_
_publ_author_name
"T.Akitsu"
"T.Itoh"
_chemical_name_systematic
;
bis(2,4-dichloro-6-(((1-phenylethyl)imino)methyl)phenolato)-cobalt(ii)
;
_cell_volume   1369.589
_exptl_crystal_colour 'red violet'
_exptl_crystal_density_diffrn 1.565
_exptl_crystal_description 'prism'
_diffrn_ambient_temperature 296
#These two values have been output from a single CSD field.
_refine_ls_R_factor_gt 0.0272
_refine_ls_wR_factor_gt 0.0272
_symmetry_cell_setting monoclinic
_symmetry_space_group_name_H-M 'C 2'
_symmetry_Int_Tables_number 5
loop_
_symmetry_equiv_pos_site_id
_symmetry_equiv_pos_as_xyz
1 x,y,z
2 -x,y,-z
3 1/2+x,1/2+y,z
4 1/2-x,1/2+y,-z
_cell_length_a 14.005(4)
_cell_length_b 10.895(3)
_cell_length_c 10.222(3)
_cell_angle_alpha 90
_cell_angle_beta 118.586(3)
_cell_angle_gamma 90
_cell_formula_units_Z 2
loop_
_atom_type_symbol
_atom_type_radius_bond
C 0.68
H 0.23
Cl 0.99
Co 1.26
N 0.68
O 0.68
loop_
_atom_site_label
_atom_site_type_symbol
_atom_site_fract_x
_atom_site_fract_y
_atom_site_fract_z
Co1 Co 0.00000 0.53722(4) 0.50000
Cl1 Cl 0.33140(6) 0.70189(9) 0.87022(8)
Cl2 Cl 0.54818(6) 0.37156(12) 0.71891(10)
O1 O 0.14157(14) 0.6109(2) 0.6099(2)
N1 N 0.03929(16) 0.4500(2) 0.3582(2)
C1 C 0.1386(2) 0.4262(3) 0.3974(3)
H1 H 0.15120 0.37770 0.33230
C2 C 0.42878(18) 0.5382(4) 0.7744(3)
H2 H 0.49380 0.56350 0.85490
C3 C 0.22981(17) 0.5576(3) 0.6265(3)
C4 C 0.3326(2) 0.4108(3) 0.5598(3)
H3 H 0.33330 0.35000 0.49650
C5 C 0.4278(2) 0.4464(4) 0.6806(3)
C6 C 0.3319(2) 0.5916(3) 0.7468(3)
C7 C 0.23379(19) 0.4658(3) 0.5313(3)
C8 C -0.0850(2) 0.5247(4) 0.1090(3)
H4 H -0.11790 0.57860 0.15030
H5 H -0.13820 0.50130 0.01000
H6 H -0.02580 0.56620 0.10550
C9 C -0.0426(2) 0.4108(3) 0.2058(3)
H7 H -0.00590 0.35920 0.16490
C10 C -0.1299(2) 0.3341(3) 0.2144(3)
C11 C -0.2402(2) 0.3554(3) 0.1262(3)
H8 H -0.26380 0.41990 0.05830
C12 C -0.3151(2) 0.2808(4) 0.1390(4)
H9 H -0.38900 0.29510 0.07820
C13 C -0.2831(3) 0.1872(5) 0.2384(5)
H10 H -0.33440 0.13930 0.24790
C14 C -0.0981(3) 0.2361(4) 0.3122(4)
H11 H -0.02450 0.21860 0.37010
C15 C -0.1737(3) 0.1640(4) 0.3251(4)
H12 H -0.15090 0.09930 0.39260
Cl1A Cl -0.33140(6) 0.70189(9) 0.12978(8)
Cl2A Cl -0.54818(6) 0.37156(12) 0.28109(10)
O1A O -0.14157(14) 0.6109(2) 0.3901(2)
N1A N -0.03929(16) 0.4500(2) 0.6418(2)
C1A C -0.1386(2) 0.4262(3) 0.6026(3)
H1A H -0.15120 0.37770 0.66770
C2A C -0.42878(18) 0.5382(4) 0.2256(3)
H2A H -0.49380 0.56350 0.14510
C3A C -0.22981(17) 0.5576(3) 0.3735(3)
C4A C -0.3326(2) 0.4108(3) 0.4402(3)
H3A H -0.33330 0.35000 0.50350
C5A C -0.4278(2) 0.4464(4) 0.3194(3)
C6A C -0.3319(2) 0.5916(3) 0.2532(3)
C7A C -0.23379(19) 0.4658(3) 0.4687(3)
C8A C 0.0850(2) 0.5247(4) 0.8910(3)
H4A H 0.11790 0.57860 0.84970
H5A H 0.13820 0.50130 0.99000
H6A H 0.02580 0.56620 0.89450
C9A C 0.0426(2) 0.4108(3) 0.7942(3)
H7A H 0.00590 0.35920 0.83510
C10A C 0.1299(2) 0.3341(3) 0.7856(3)
C11A C 0.2402(2) 0.3554(3) 0.8738(3)
H8A H 0.26380 0.41990 0.94170
C12A C 0.3151(2) 0.2808(4) 0.8610(4)
H9A H 0.38900 0.29510 0.92180
C13A C 0.2831(3) 0.1872(5) 0.7616(5)
H10A H 0.33440 0.13930 0.75210
C14A C 0.0981(3) 0.2361(4) 0.6878(4)
H11A H 0.02450 0.21860 0.62990
C15A C 0.1737(3) 0.1640(4) 0.6749(4)
H12A H 0.15090 0.09930 0.60740
#END
