
#######################################################################
#
#                 Cambridge Crystallographic Data Centre
#                                CCDC
#
#######################################################################
#
# If this CIF has been generated from an entry in the Cambridge
# Structural Database, then it will include bibliographic, chemical,
# crystal, experimental, refinement or atomic coordinate data resulting
# from the CCDC's data processing and validation procedures.
#
#######################################################################

data_CSD_CIF_BUPNIK
_audit_creation_date 2010-08-24
_audit_creation_method CSD-ConQuest-V1
_database_code_CSD BUPNIK
_database_code_depnum_ccdc_archive 'CCDC 739760'
_chemical_formula_sum 'C10 H8 Fe1 N4 O2'
_chemical_formula_moiety
;
C10 H8 Fe1 N4 O2
;
_journal_coden_Cambridge 9
_journal_volume 48
_journal_year 2009
_journal_page_first 9779
_journal_name_full 'Inorg.Chem. '
loop_
_publ_author_name
"Rongming Wang"
"Ximeng Wang"
"E.B.Sundberg"
"Phuongmei Nguyen"
"G.P.G.Grant"
"C.Sheth"
"Qiang Zhao"
"S.Herron"
"K.A.Kantardjieff"
"Lijuan Li"
_chemical_name_systematic
;
(2,2'-Bipyridine)-dinitrosyl-iron
;
_cell_volume    548.908
_exptl_crystal_colour 'red'
_exptl_crystal_density_diffrn 1.646
_exptl_crystal_description 'plate'
_diffrn_ambient_temperature 293
#These two values have been output from a single CSD field.
_refine_ls_R_factor_gt 0.046
_refine_ls_wR_factor_gt 0.046
_symmetry_cell_setting triclinic
_symmetry_space_group_name_H-M 'P -1'
_symmetry_Int_Tables_number 2
loop_
_symmetry_equiv_pos_site_id
_symmetry_equiv_pos_as_xyz
1 x,y,z
2 -x,-y,-z
_cell_length_a 7.556(3)
_cell_length_b 8.991(3)
_cell_length_c 9.222(3)
_cell_angle_alpha 75.979(5)
_cell_angle_beta 70.327(5)
_cell_angle_gamma 70.099(5)
_cell_formula_units_Z 2
loop_
_atom_type_symbol
_atom_type_radius_bond
C 0.68
H 0.23
Fe 1.36
N 0.68
O 0.68
loop_
_atom_site_label
_atom_site_type_symbol
_atom_site_fract_x
_atom_site_fract_y
_atom_site_fract_z
Fe1 Fe 0.03446(9) 0.69280(8) 0.70587(7)
O1 O 0.2004(7) 0.8544(5) 0.8288(5)
O2 O -0.3714(5) 0.8022(5) 0.8455(5)
N1 N 0.1490(6) 0.7794(5) 0.7698(5)
N2 N -0.2055(6) 0.7446(5) 0.7788(5)
N3 N 0.1815(5) 0.4558(4) 0.6948(4)
N4 N 0.1305(5) 0.6893(4) 0.4713(4)
C1 C 0.1967(8) 0.3401(6) 0.8179(6)
H1 H 0.12370 0.36470 0.91710
C2 C 0.3158(8) 0.1877(6) 0.8024(7)
H2 H 0.32370 0.11090 0.88980
C3 C 0.4230(8) 0.1493(6) 0.6568(7)
H3 H 0.50640 0.04700 0.64420
C4 C 0.4051(7) 0.2648(6) 0.5298(6)
H4 H 0.47320 0.24030 0.42980
C5 C 0.2849(6) 0.4175(5) 0.5518(5)
C6 C 0.2577(6) 0.5517(5) 0.4243(5)
C7 C 0.3519(7) 0.5400(6) 0.2679(6)
H5 H 0.44220 0.44490 0.23730
C8 C 0.3091(8) 0.6718(7) 0.1587(6)
H6 H 0.37010 0.66660 0.05330
C9 C 0.1757(8) 0.8105(7) 0.2072(6)
H7 H 0.14380 0.90000 0.13490
C10 C 0.0900(7) 0.8156(6) 0.3631(6)
H8 H 0.00030 0.91020 0.39520
#END
