
#######################################################################
#
#                 Cambridge Crystallographic Data Centre
#                                CCDC
#
#######################################################################
#
# If this CIF has been generated from an entry in the Cambridge
# Structural Database, then it will include bibliographic, chemical,
# crystal, experimental, refinement or atomic coordinate data resulting
# from the CCDC's data processing and validation procedures.
#
#######################################################################

data_CSD_CIF_BUSXIW
_audit_creation_date 1984-02-21
_audit_creation_method CSD-ConQuest-V1
_database_code_CSD BUSXIW
_database_code_depnum_ccdc_archive 'CCDC 1117267'
_chemical_formula_sum 'C16 H23 Cr1 N1 O3 Si1'
_chemical_formula_moiety
;
C16 H23 Cr1 N1 O3 Si1
;
_journal_coden_Cambridge 194
_journal_volume 31
_journal_year 1983
_journal_page_first 466
_journal_name_full 'Chem.Pharm.Bull. '
loop_
_publ_author_name
"M.Fukui"
"T.Ikeda"
"T.Oishi"
_chemical_name_systematic
;
Tricarbonyl-(\h^6^-N-t-butyldimethylsilyl-N-methylaniline)-chromium
;
_chemical_melting_point 381.15
_cell_volume    898.173
_exptl_crystal_colour 'yellow'
_exptl_crystal_density_diffrn 1.322
_exptl_special_details
;
Melting point range 381.15-382.15K

;
_diffrn_ambient_temperature ?
_diffrn_special_details
;
The study was carried out at room temperature,in the range 283-303K

;
#These two values have been output from a single CSD field.
_refine_ls_R_factor_gt 0.032
_refine_ls_wR_factor_gt 0.032
_symmetry_cell_setting triclinic
_symmetry_space_group_name_H-M 'P -1'
_symmetry_Int_Tables_number 2
loop_
_symmetry_equiv_pos_site_id
_symmetry_equiv_pos_as_xyz
1 x,y,z
2 -x,-y,-z
_cell_length_a 7.368(3)
_cell_length_b 19.218(5)
_cell_length_c 7.316(3)
_cell_angle_alpha 93.55(3)
_cell_angle_beta 119.69(2)
_cell_angle_gamma 88.67(3)
_cell_formula_units_Z 2
loop_
_atom_type_symbol
_atom_type_radius_bond
C 0.68
H 0.23
Cr 1.35
N 0.68
O 0.68
Si 1.20
loop_
_atom_site_label
_atom_site_type_symbol
_atom_site_fract_x
_atom_site_fract_y
_atom_site_fract_z
Cr1 Cr 0.3232(1) 0.12270 0.4827(1)
Si1 Si -0.0265(1) 0.33310 0.1712(1)
O1 O 0.3952(5) 0.2293(1) 0.8272(4)
O2 O 0.7864(4) 0.1128(1) 0.6663(4)
O3 O 0.3461(4) 0.0149(1) 0.7691(4)
N1 N -0.0324(3) 0.2539(1) 0.2773(4)
C1 C 0.0473(4) 0.1907(1) 0.2483(4)
C2 C -0.0257(4) 0.1261(2) 0.2708(5)
C3 C 0.0534(5) 0.0628(2) 0.2336(5)
C4 C 0.2089(5) 0.0615(2) 0.1765(5)
C5 C 0.2894(5) 0.1251(2) 0.1644(5)
C6 C 0.2154(4) 0.1885(1) 0.2042(4)
C7 C -0.1567(5) 0.2515(2) 0.3845(5)
C8 C -0.0228(6) 0.3160(2) -0.0802(5)
C9 C -0.2762(5) 0.3791(2) 0.1037(5)
C10 C 0.1990(5) 0.3909(2) 0.3671(5)
C11 C 0.4117(5) 0.3576(2) 0.4284(6)
C12 C 0.1875(6) 0.4602(2) 0.2689(7)
C13 C 0.1853(6) 0.4061(2) 0.5679(6)
C14 C 0.3672(5) 0.1887(2) 0.6920(5)
C15 C 0.6074(5) 0.1168(2) 0.5944(5)
C16 C 0.3385(5) 0.0566(2) 0.6595(5)
H1 H -0.128(4) 0.125(1) 0.316(4)
H2 H 0.005(4) 0.019(1) 0.258(4)
H3 H 0.257(4) 0.018(1) 0.153(4)
H4 H 0.396(4) 0.126(1) 0.132(4)
H5 H 0.284(4) 0.231(1) 0.200(4)
H6 H -0.179(5) 0.300(2) 0.434(5)
H7 H -0.087(4) 0.225(1) 0.507(5)
H8 H -0.285(5) 0.231(2) 0.295(5)
H9 H 0.112(6) 0.311(2) -0.061(6)
H10 H -0.074(5) 0.352(2) -0.165(5)
H11 H -0.089(6) 0.275(2) -0.155(6)
H12 H -0.286(5) 0.417(2) 0.023(5)
H13 H -0.281(5) 0.398(2) 0.227(5)
H14 H -0.386(5) 0.350(2) 0.034(5)
H15 H 0.429(5) 0.319(2) 0.490(5)
H16 H 0.521(5) 0.389(2) 0.520(5)
H17 H 0.427(5) 0.349(2) 0.299(5)
H18 H 0.214(5) 0.451(2) 0.159(5)
H19 H 0.064(5) 0.483(2) 0.225(5)
H20 H 0.303(6) 0.493(2) 0.370(6)
H21 H 0.057(5) 0.429(2) 0.545(5)
H22 H 0.292(5) 0.439(2) 0.656(5)
H23 H 0.190(5) 0.362(2) 0.634(5)
#END
