
#######################################################################
#
#                 Cambridge Crystallographic Data Centre
#                                CCDC
#
#######################################################################
#
# If this CIF has been generated from an entry in the Cambridge
# Structural Database, then it will include bibliographic, chemical,
# crystal, experimental, refinement or atomic coordinate data resulting
# from the CCDC's data processing and validation procedures.
#
#######################################################################

data_CSD_CIF_BUTDAV
_audit_creation_date 1984-02-21
_audit_creation_method CSD-ConQuest-V1
_database_code_CSD BUTDAV
_database_code_depnum_ccdc_archive 'CCDC 1117299'
_chemical_formula_sum 'C2 H12 Cl1 Cr1 F2 N2 O2'
_chemical_formula_moiety
;
C2 H12 Cr1 F2 N2 O2 1+,Cl1 1-
;
_journal_coden_Cambridge 582
_journal_volume 13
_journal_year 1983
_journal_page_first 231
_journal_name_full 'J.Crystallogr.Spectrosc.Res. '
loop_
_publ_author_name
"J.W.Vaughn"
_chemical_name_systematic
;
trans-Difluoro-diaqua-ethylenediamine-chromium(iii) chloride
;
_cell_volume    850.974
_exptl_crystal_colour 'purple'
_exptl_crystal_density_diffrn 1.73
_diffrn_ambient_temperature ?
_diffrn_special_details
;
The study was carried out at room temperature,in the range 283-303K

;
#These two values have been output from a single CSD field.
_refine_ls_R_factor_gt 0.026
_refine_ls_wR_factor_gt 0.026
_symmetry_cell_setting monoclinic
_symmetry_space_group_name_H-M 'C 2/c'
_symmetry_Int_Tables_number 15
loop_
_symmetry_equiv_pos_site_id
_symmetry_equiv_pos_as_xyz
1 x,y,z
2 1/2+x,1/2+y,z
3 -x,y,1/2-z
4 1/2-x,1/2+y,1/2-z
5 -x,-y,-z
6 -1/2-x,-1/2-y,-z
7 x,-y,-1/2+z
8 -1/2+x,-1/2-y,-1/2+z
_cell_length_a 11.409(3)
_cell_length_b 9.319(2)
_cell_length_c 10.260(3)
_cell_angle_alpha 90
_cell_angle_beta 128.73(2)
_cell_angle_gamma 90
_cell_formula_units_Z 4
loop_
_atom_type_symbol
_atom_type_radius_bond
C 0.68
H 0.23
Cl 0.99
Cr 1.35
F 0.64
N 0.68
O 0.68
loop_
_atom_site_label
_atom_site_type_symbol
_atom_site_fract_x
_atom_site_fract_y
_atom_site_fract_z
Cr1 Cr 0.00000 0.11671 0.25000
F1 F 0.12490 0.11790 0.48520
O1 O 0.13100 0.26260 0.25510
N1 N 0.12620 -0.04750 0.26390
C1 C 0.08420 -0.18270 0.30120
H1 H 0.20300 0.29800 0.34000
H2 H 0.08500 0.33000 0.18500
H3 H 0.10700 -0.04900 0.17600
H4 H 0.21700 -0.02500 0.33800
H5 H 0.13000 -0.18600 0.41900
H6 H 0.11900 -0.27200 0.27100
Cl1 Cl 0.50000 0.00000 0.00000
F1B F -0.12490 0.11790 0.01480
O1B O -0.13100 0.26260 0.24490
N1B N -0.12620 -0.04750 0.23610
C1B C -0.08420 -0.18270 0.19880
H1B H -0.20300 0.29800 0.16000
H2B H -0.08500 0.33000 0.31500
H3B H -0.10700 -0.04900 0.32400
H4B H -0.21700 -0.02500 0.16200
H5B H -0.13000 -0.18600 0.08100
H6B H -0.11900 -0.27200 0.22900
#END
