
#######################################################################
#
#                 Cambridge Crystallographic Data Centre
#                                CCDC
#
#######################################################################
#
# If this CIF has been generated from an entry in the Cambridge
# Structural Database, then it will include bibliographic, chemical,
# crystal, experimental, refinement or atomic coordinate data resulting
# from the CCDC's data processing and validation procedures.
#
#######################################################################

data_CSD_CIF_BUTMNC
_audit_creation_date 1975-12-19
_audit_creation_method CSD-ConQuest-V1
_database_code_CSD BUTMNC
_chemical_formula_sum 'C9 H12 Mn1 O1'
_chemical_formula_moiety
;
C9 H12 Mn1 O1
;
_journal_coden_Cambridge 69
_journal_volume 87
_journal_year 1975
_journal_page_first 353
_journal_name_full 'Angew.Chem. '
loop_
_publ_author_name
"G.Huttner"
"D.Neugebauer"
"A.Razavi"
_chemical_name_systematic
;
bis(\h^2^,\h^2^-1,3-Butadiene)-carbonyl manganese
;
_cell_volume    438.656
_exptl_crystal_density_diffrn 1.446
_diffrn_ambient_temperature ?
_diffrn_special_details
;
The study was carried out at room temperature,in the range 283-303K

;
#These two values have been output from a single CSD field.
_refine_ls_R_factor_gt 0.077
_refine_ls_wR_factor_gt 0.077
_symmetry_cell_setting tetragonal
_symmetry_space_group_name_H-M 'P -4 21 m'
_symmetry_Int_Tables_number 113
loop_
_symmetry_equiv_pos_site_id
_symmetry_equiv_pos_as_xyz
1 x,y,z
2 -y,x,-z
3 -x,-y,z
4 y,-x,-z
5 1/2-x,1/2+y,-z
6 1/2+y,1/2+x,z
7 1/2+x,1/2-y,-z
8 1/2-y,1/2-x,z
_cell_length_a 7.80(1)
_cell_length_b 7.80(1)
_cell_length_c 7.21(1)
_cell_angle_alpha 90
_cell_angle_beta 90
_cell_angle_gamma 90
_cell_formula_units_Z 2
loop_
_atom_type_symbol
_atom_type_radius_bond
C 0.68
H 0.23
Mn 1.35
O 0.68
loop_
_atom_site_label
_atom_site_type_symbol
_atom_site_fract_x
_atom_site_fract_y
_atom_site_fract_z
C1 C 0.00000 0.50000 -0.46870
C2 C 0.20330 0.42890 -0.88860
C3 C 0.27410 0.47690 -0.72000
H1 H 0.20000 0.48500 -1.00100
H2 H 0.29000 0.35400 -0.67100
H3 H 0.39400 0.58900 -0.69400
Mn1 Mn 0.00000 0.50000 -0.72352
O1 O 0.00000 0.50000 -0.31240
C2B C -0.20330 0.57110 -0.88860
C2E C -0.07110 0.70330 -0.88860
C2G C 0.07110 0.29670 -0.88860
C3B C -0.27410 0.52310 -0.72000
C3E C -0.02310 0.77410 -0.72000
C3G C 0.02310 0.22590 -0.72000
H1B H -0.20000 0.51500 -1.00100
H1E H -0.01500 0.70000 -1.00100
H1G H 0.01500 0.30000 -1.00100
H2B H -0.29000 0.64600 -0.67100
H3B H -0.39400 0.41100 -0.69400
H2E H -0.14600 0.79000 -0.67100
H3E H 0.08900 0.89400 -0.69400
H2G H 0.14600 0.21000 -0.67100
H3G H -0.08900 0.10600 -0.69400
#END
