
#######################################################################
#
#                 Cambridge Crystallographic Data Centre
#                                CCDC
#
#######################################################################
#
# If this CIF has been generated from an entry in the Cambridge
# Structural Database, then it will include bibliographic, chemical,
# crystal, experimental, refinement or atomic coordinate data resulting
# from the CCDC's data processing and validation procedures.
#
#######################################################################

data_CSD_CIF_BUXHOR
_audit_creation_date 1984-02-21
_audit_creation_method CSD-ConQuest-V1
_database_code_CSD BUXHOR
_database_code_depnum_ccdc_archive 'CCDC 1117675'
_chemical_formula_sum 'C20 H22 As1 Fe1 N1'
_chemical_formula_moiety
;
C20 H22 As1 Fe1 N1
;
_journal_coden_Cambridge 579
_journal_volume 2
_journal_year 1983
_journal_page_first 128
_journal_name_full 'Organometallics '
loop_
_publ_author_name
"I.R.Butler"
"W.R.Cullen"
"F.W.B.Einstein"
"S.J.Rettig"
"A.J.Willis"
_chemical_name_systematic
;
(2-(\a-(Dimethylamino)ethyl)-1,1'-ferrocenediyl)-phenylarsine
;
_chemical_melting_point 381.15
_cell_volume    859.631
_exptl_crystal_density_diffrn 1.573
_exptl_special_details
;
Melts above 381.15K

;
_diffrn_ambient_temperature ?
_diffrn_special_details
;
The study was carried out at room temperature,in the range 283-303K

;
#These two values have been output from a single CSD field.
_refine_ls_R_factor_gt 0.024
_refine_ls_wR_factor_gt 0.024
_symmetry_cell_setting triclinic
_symmetry_space_group_name_H-M 'P -1'
_symmetry_Int_Tables_number 2
loop_
_symmetry_equiv_pos_site_id
_symmetry_equiv_pos_as_xyz
1 x,y,z
2 -x,-y,-z
_cell_length_a 9.0873(8)
_cell_length_b 10.2776(7)
_cell_length_c 11.0240(8)
_cell_angle_alpha 65.974(7)
_cell_angle_beta 66.451(6)
_cell_angle_gamma 76.959(6)
_cell_formula_units_Z 2
loop_
_atom_type_symbol
_atom_type_radius_bond
C 0.68
H 0.23
As 1.21
Fe 1.25
N 0.68
loop_
_atom_site_label
_atom_site_type_symbol
_atom_site_fract_x
_atom_site_fract_y
_atom_site_fract_z
As1 As 0.59259 0.40160 0.70728
Fe1 Fe 0.74152 0.15753 0.62550
N1 N 0.20490 0.18560 0.74730
C1 C 0.55800 0.19480 0.78730
C2 C 0.49880 0.14140 0.71300
C3 C 0.57680 0.00330 0.72100
C4 C 0.68300 -0.03110 0.79770
C5 C 0.67160 0.08610 0.83810
C6 C 0.78850 0.36190 0.55710
C7 C 0.76030 0.33560 0.44940
C8 C 0.87620 0.22780 0.41130
C9 C 0.97880 0.18740 0.49200
C10 C 0.92520 0.26820 0.58170
C11 C 0.68150 0.41040 0.83740
C12 C 0.61610 0.33510 0.98200
C13 C 0.66380 0.35650 1.07680
C14 C 0.77590 0.45390 1.02860
C15 C 0.83980 0.52860 0.88630
C16 C 0.79480 0.50690 0.79040
C17 C 0.37020 0.21680 0.64730
C18 C 0.39640 0.18710 0.51520
C19 C 0.15640 0.24690 0.85700
C20 C 0.17460 0.03540 0.81000
H1 H 0.56500 -0.04100 0.68100
H2 H 0.74900 -0.12500 0.82800
H3 H 0.72200 0.09100 0.89000
H4 H 0.67600 0.37700 0.41600
H5 H 0.89400 0.18700 0.35300
H6 H 1.07400 0.11300 0.48800
H7 H 0.97100 0.26700 0.64600
H8 H 0.54000 0.27700 1.01200
H9 H 0.60600 0.31500 1.17800
H10 H 0.80600 0.46700 1.09100
H11 H 0.91900 0.59200 0.85100
H12 H 0.84000 0.56000 0.68700
H13 H 0.37000 0.32300 0.62000
H14 H 0.38100 0.08600 0.53700
H15 H 0.50700 0.21200 0.44500
H16 H 0.31000 0.23400 0.47300
H17 H 0.22200 0.19900 0.92200
H18 H 0.04000 0.24100 0.91100
H19 H 0.16400 0.34600 0.81000
H20 H 0.20400 -0.00700 0.74000
H21 H 0.22700 -0.02900 0.87900
H22 H 0.06700 0.02700 0.85400
#END
