
#######################################################################
#
#                 Cambridge Crystallographic Data Centre
#                                CCDC
#
#######################################################################
#
# If this CIF has been generated from an entry in the Cambridge
# Structural Database, then it will include bibliographic, chemical,
# crystal, experimental, refinement or atomic coordinate data resulting
# from the CCDC's data processing and validation procedures.
#
#######################################################################

data_CSD_CIF_BUZPUJ
_audit_creation_date 2015-12-07
_audit_creation_method CSD-ConQuest-V1
_database_code_CSD BUZPUJ
_database_code_depnum_ccdc_archive 'CCDC 1056084'
_chemical_formula_sum 'C12 H12 Co1 N2 O8'
_chemical_formula_moiety
;
C12 H12 Co1 N2 O8
;
_journal_coden_Cambridge 702
_journal_volume 31
_journal_year 2015
_journal_page_first 2236
_journal_name_full 'Wuji Huaxue Xuebao(Chin.)(Chin.J.Inorg.Chem.) '
loop_
_publ_author_name
"Peng Gao"
"Ying-Ying Bing"
"Ling-Ling Zhang"
"Ming Hu"
_chemical_name_systematic
;
diaqua-bis(5-hydroxypyridine-2-carboxylato)-cobalt(ii)
;
_cell_volume    651.409
_exptl_crystal_density_diffrn 1.892
_exptl_crystal_description 'block'
_diffrn_ambient_temperature 296
#These two values have been output from a single CSD field.
_refine_ls_R_factor_gt 0.022
_refine_ls_wR_factor_gt 0.022
_symmetry_cell_setting monoclinic
_symmetry_space_group_name_H-M 'P 21/c'
_symmetry_Int_Tables_number 14
loop_
_symmetry_equiv_pos_site_id
_symmetry_equiv_pos_as_xyz
1 x,y,z
2 -x,1/2+y,1/2-z
3 -x,-y,-z
4 x,-1/2-y,-1/2+z
_cell_length_a 5.8013(12)
_cell_length_b 11.856(2)
_cell_length_c 9.674(2)
_cell_angle_alpha 90
_cell_angle_beta 101.762(4)
_cell_angle_gamma 90
_cell_formula_units_Z 2
loop_
_atom_type_symbol
_atom_type_radius_bond
C 0.68
H 0.23
Co 1.26
N 0.68
O 0.68
loop_
_atom_site_label
_atom_site_type_symbol
_atom_site_fract_x
_atom_site_fract_y
_atom_site_fract_z
Co1 Co 1.00000 0.00000 0.00000
O1 O 1.2633(3) 0.24204(12) -0.22651(16)
O2 O 0.5174(3) 0.37204(13) 0.13813(18)
H1 H 0.44600 0.32250 0.17120
O3 O 1.1827(3) 0.07556(12) -0.14031(17)
N1 N 0.8715(3) 0.16664(14) -0.00436(18)
O4 O 1.2764(3) 0.04547(15) 0.16981(18)
H2 H 1.34100 -0.01170 0.20660
C1 C 0.7714(4) 0.39487(18) -0.0187(2)
H3 H 0.73700 0.47150 -0.02450
C2 C 0.9795(4) 0.23600(17) -0.0816(2)
C3 C 0.9296(4) 0.34991(18) -0.0920(2)
H4 H 1.00250 0.39600 -0.14810
C4 C 0.7155(4) 0.20931(17) 0.0656(2)
H5 H 0.63880 0.16090 0.11690
C5 C 1.1550(4) 0.18044(17) -0.1552(2)
C6 C 0.6638(4) 0.32466(17) 0.0640(2)
H6 H 1.275(5) 0.103(3) 0.210(3)
O1B O 0.7367(3) -0.24204(12) 0.22651(16)
O2B O 1.4826(3) -0.37204(13) -0.13813(18)
H1B H 1.55400 -0.32250 -0.17120
O3B O 0.8173(3) -0.07556(12) 0.14031(17)
N1B N 1.1285(3) -0.16664(14) 0.00436(18)
O4B O 0.7236(3) -0.04547(15) -0.16981(18)
H2B H 0.65900 0.01170 -0.20660
C1B C 1.2286(4) -0.39487(18) 0.0187(2)
H3B H 1.26300 -0.47150 0.02450
C2B C 1.0205(4) -0.23600(17) 0.0816(2)
C3B C 1.0704(4) -0.34991(18) 0.0920(2)
H4B H 0.99750 -0.39600 0.14810
C4B C 1.2845(4) -0.20931(17) -0.0656(2)
H5B H 1.36120 -0.16090 -0.11690
C5B C 0.8450(4) -0.18044(17) 0.1552(2)
C6B C 1.3362(4) -0.32466(17) -0.0640(2)
H6B H 0.725(5) -0.103(3) -0.210(3)
#END
