
#######################################################################
#
#                 Cambridge Crystallographic Data Centre
#                                CCDC
#
#######################################################################
#
# If this CIF has been generated from an entry in the Cambridge
# Structural Database, then it will include bibliographic, chemical,
# crystal, experimental, refinement or atomic coordinate data resulting
# from the CCDC's data processing and validation procedures.
#
#######################################################################

data_CSD_CIF_BUZQOE
_audit_creation_date 2015-12-07
_audit_creation_method CSD-ConQuest-V1
_database_code_CSD BUZQOE
_database_code_depnum_ccdc_archive 'CCDC 949731'
_chemical_formula_sum 'C12 H12 Mn1 N2 O8'
_chemical_formula_moiety
;
C12 H12 Mn1 N2 O8
;
_journal_coden_Cambridge 702
_journal_volume 31
_journal_year 2015
_journal_page_first 2236
_journal_name_full 'Wuji Huaxue Xuebao(Chin.)(Chin.J.Inorg.Chem.) '
loop_
_publ_author_name
"Peng Gao"
"Ying-Ying Bing"
"Ling-Ling Zhang"
"Ming Hu"
_chemical_name_systematic
;
diaqua-bis(5-hydroxypyridine-2-carboxylato)-manganese(ii)
;
_cell_volume    665.104
_diffrn_ambient_temperature 296
#These two values have been output from a single CSD field.
_refine_ls_R_factor_gt 0.0245
_refine_ls_wR_factor_gt 0.0245
_symmetry_cell_setting monoclinic
_symmetry_space_group_name_H-M 'P 21/c'
_symmetry_Int_Tables_number 14
loop_
_symmetry_equiv_pos_site_id
_symmetry_equiv_pos_as_xyz
1 x,y,z
2 -x,1/2+y,1/2-z
3 -x,-y,-z
4 x,-1/2-y,-1/2+z
_cell_length_a 5.7088(6)
_cell_length_b 12.1944(14)
_cell_length_c 9.7462(11)
_cell_angle_alpha 90
_cell_angle_beta 101.398(2)
_cell_angle_gamma 90
_cell_formula_units_Z 2
loop_
_atom_type_symbol
_atom_type_radius_bond
C 0.68
H 0.23
Mn 1.61
N 0.68
O 0.68
loop_
_atom_site_label
_atom_site_type_symbol
_atom_site_fract_x
_atom_site_fract_y
_atom_site_fract_z
O1 O -0.18460(19) 0.41767(8) 0.14497(11)
Mn1 Mn 0.00000 0.50000 0.00000
N1 N 0.13222(19) 0.32724(8) 0.00711(11)
C1 C 0.2880(2) 0.28437(10) -0.06323(13)
H1 H 0.36630 0.33070 -0.11520
C2 C 0.2260(2) 0.10463(10) 0.02044(15)
H2 H 0.25840 0.02980 0.02600
C3 C 0.0197(2) 0.26134(10) 0.08411(12)
C4 C 0.0658(2) 0.14974(10) 0.09374(14)
H3 H -0.01050 0.10560 0.14920
C5 C 0.3378(2) 0.1720(1) -0.06151(13)
O2 O 0.48759(19) 0.12562(8) -0.13487(12)
H4 H 0.55560 0.17370 -0.17100
O3 O 0.2913(2) 0.54716(9) 0.17537(12)
H5 H 0.34970 0.49190 0.21630
O4 O -0.26680(18) 0.25603(8) 0.22953(10)
C6 C -0.1567(2) 0.3162(1) 0.15819(13)
H6 H 0.283(4) 0.6047(19) 0.215(2)
O1B O 0.18460(19) 0.58233(8) -0.14497(11)
N1B N -0.13222(19) 0.67276(8) -0.00711(11)
C1B C -0.2880(2) 0.71563(10) 0.06323(13)
H1B H -0.36630 0.66930 0.11520
C2B C -0.2260(2) 0.89537(10) -0.02044(15)
H2B H -0.25840 0.97020 -0.02600
C3B C -0.0197(2) 0.73866(10) -0.08411(12)
C4B C -0.0658(2) 0.85026(10) -0.09374(14)
H3B H 0.01050 0.89440 -0.14920
C5B C -0.3378(2) 0.8280(1) 0.06151(13)
O2B O -0.48759(19) 0.87438(8) 0.13487(12)
H4B H -0.55560 0.82630 0.17100
O3B O -0.2913(2) 0.45284(9) -0.17537(12)
H5B H -0.34970 0.50810 -0.21630
O4B O 0.26680(18) 0.74397(8) -0.22953(10)
C6B C 0.1567(2) 0.6838(1) -0.15819(13)
H6B H -0.283(4) 0.3953(19) -0.215(2)
#END
