
#######################################################################
#
#                 Cambridge Crystallographic Data Centre
#                                CCDC
#
#######################################################################
#
# If this CIF has been generated from an entry in the Cambridge
# Structural Database, then it will include bibliographic, chemical,
# crystal, experimental, refinement or atomic coordinate data resulting
# from the CCDC's data processing and validation procedures.
#
#######################################################################

data_CSD_CIF_BZCRCO13
_audit_creation_date 1974-03-25
_audit_creation_method CSD-ConQuest-V1
_database_code_CSD BZCRCO13
_database_code_depnum_ccdc_archive 'CCDC 1118188'
_chemical_formula_sum 'C9 H6 Cr1 O3'
_chemical_formula_moiety
;
C9 H6 Cr1 O3
;
_journal_coden_Cambridge 107
_journal_volume 29
_journal_year 1973
_journal_page_first 2515
_journal_name_full 'Acta Crystallogr.,Sect.B:Struct.Crystallogr.Cryst.Chem. '
loop_
_publ_author_name
"B.Rees"
"P.Coppens"
_chemical_name_systematic
;
Benzene-chromium-tricarbonyl
;
_cell_volume    419.491
_diffrn_ambient_temperature 78
#These two values have been output from a single CSD field.
_refine_ls_R_factor_gt 0.035
_refine_ls_wR_factor_gt 0.035
_symmetry_cell_setting monoclinic
_symmetry_space_group_name_H-M 'P 21/m'
_symmetry_Int_Tables_number 11
loop_
_symmetry_equiv_pos_site_id
_symmetry_equiv_pos_as_xyz
1 x,y,z
2 -x,1/2+y,-z
3 -x,-y,-z
4 x,-1/2-y,z
_cell_length_a 6.010(4)
_cell_length_b 10.918(6)
_cell_length_c 6.504(4)
_cell_angle_alpha 90
_cell_angle_beta 100.60(5)
_cell_angle_gamma 90
_cell_formula_units_Z 2
loop_
_atom_type_symbol
_atom_type_radius_bond
C 0.68
H 0.20
Cr 1.28
O 0.68
loop_
_atom_site_label
_atom_site_type_symbol
_atom_site_fract_x
_atom_site_fract_y
_atom_site_fract_z
Cr1 Cr 0.33449 0.25000 0.02089
C1 C 0.18553 0.31414 -0.30234
C2 C 0.38960 0.37930 -0.23017
C3 C 0.59100 0.31494 -0.15927
C4 C 0.55753 0.25000 0.25677
C5 C 0.17932 0.36555 0.14486
H1 H 0.05380 0.35400 -0.34590
H2 H 0.39460 0.46830 -0.21710
H3 H 0.71590 0.35400 -0.11590
O1 O 0.70191 0.25000 0.40155
O2 O 0.08060 0.43609 0.22640
C1C C 0.18553 0.18586 -0.30234
C2C C 0.38960 0.12070 -0.23017
C3C C 0.59100 0.18506 -0.15927
C5C C 0.17932 0.13445 0.14486
H1C H 0.05380 0.14600 -0.34590
H2C H 0.39460 0.03170 -0.21710
H3C H 0.71590 0.14600 -0.11590
O2C O 0.08060 0.06391 0.22640
#END
