
#######################################################################
#
#                 Cambridge Crystallographic Data Centre
#                                CCDC
#
#######################################################################
#
# If this CIF has been generated from an entry in the Cambridge
# Structural Database, then it will include bibliographic, chemical,
# crystal, experimental, refinement or atomic coordinate data resulting
# from the CCDC's data processing and validation procedures.
#
#######################################################################

data_CSD_CIF_BZCRCO12
_audit_creation_date 1974-03-25
_audit_creation_method CSD-ConQuest-V1
_database_code_CSD BZCRCO12
_chemical_formula_sum 'C9 H6 Cr1 O3'
_chemical_formula_moiety
;
C9 H6 Cr1 O3
;
_journal_coden_Cambridge 107
_journal_volume 29
_journal_year 1973
_journal_page_first 2515
_journal_name_full 'Acta Crystallogr.,Sect.B:Struct.Crystallogr.Cryst.Chem. '
loop_
_publ_author_name
"B.Rees"
"P.Coppens"
_chemical_name_systematic
;
(\h^6^-Benzene)-tricarbonyl-chromium
;
_cell_volume    419.491
_diffrn_ambient_temperature 78
_diffrn_radiation_probe 'neutron radiation'
#These two values have been output from a single CSD field.
_refine_ls_R_factor_gt 0.053
_refine_ls_wR_factor_gt 0.053
_symmetry_cell_setting monoclinic
_symmetry_space_group_name_H-M 'P 21/m'
_symmetry_Int_Tables_number 11
loop_
_symmetry_equiv_pos_site_id
_symmetry_equiv_pos_as_xyz
1 x,y,z
2 -x,1/2+y,-z
3 -x,-y,-z
4 x,-1/2-y,z
_cell_length_a 6.010(4)
_cell_length_b 10.918(6)
_cell_length_c 6.504(4)
_cell_angle_alpha 90
_cell_angle_beta 100.60(5)
_cell_angle_gamma 90
_cell_formula_units_Z 2
loop_
_atom_type_symbol
_atom_type_radius_bond
C 0.68
H 0.20
Cr 1.28
O 0.68
loop_
_atom_site_label
_atom_site_type_symbol
_atom_site_fract_x
_atom_site_fract_y
_atom_site_fract_z
Cr1 Cr 0.33456 0.25000 0.02083
C1 C 0.18577 0.31428 -0.30225
C2 C 0.38977 0.37946 -0.23014
C3 C 0.59122 0.31496 -0.15964
C4 C 0.55728 0.25000 0.25685
C5 C 0.17887 0.36544 0.14479
H1 H 0.02861 0.36357 -0.35410
H2 H 0.38757 0.47911 -0.22516
H3 H 0.74623 0.36454 -0.09928
O1 O 0.70192 0.25000 0.40123
O2 O 0.08125 0.43613 0.22620
C1C C 0.18577 0.18572 -0.30225
C2C C 0.38977 0.12054 -0.23014
C3C C 0.59122 0.18504 -0.15964
C5C C 0.17887 0.13456 0.14479
H1C H 0.02861 0.13643 -0.35410
H2C H 0.38757 0.02089 -0.22516
H3C H 0.74623 0.13546 -0.09928
O2C O 0.08125 0.06387 0.22620
#END
