
#######################################################################
#
#                 Cambridge Crystallographic Data Centre
#                                CCDC
#
#######################################################################
#
# If this CIF has been generated from an entry in the Cambridge
# Structural Database, then it will include bibliographic, chemical,
# crystal, experimental, refinement or atomic coordinate data resulting
# from the CCDC's data processing and validation procedures.
#
#######################################################################

data_CSD_CIF_BZCRCO
_audit_creation_date 1971-12-31
_audit_creation_method CSD-ConQuest-V1
_database_code_CSD BZCRCO
_database_code_depnum_ccdc_archive 'CCDC 1118183'
_chemical_formula_sum 'C9 H6 Cr1 O3'
_chemical_formula_moiety
;
C9 H6 Cr1 O3
;
_journal_coden_Cambridge 9
_journal_volume 4
_journal_year 1965
_journal_page_first 1314
_journal_name_full 'Inorg.Chem. '
loop_
_publ_author_name
"M.F.Bailey"
"L.F.Dahl"
_chemical_name_systematic
;
(\h^6^-Benzene)-tricarbonyl-chromium
;
_cell_volume    439.735
_diffrn_ambient_temperature ?
_diffrn_special_details
;
The study was carried out at room temperature,in the range 283-303K

;
#These two values have been output from a single CSD field.
_refine_ls_R_factor_gt 0.042
_refine_ls_wR_factor_gt 0.042
_symmetry_cell_setting monoclinic
_symmetry_space_group_name_H-M 'P 21/m'
_symmetry_Int_Tables_number 11
loop_
_symmetry_equiv_pos_site_id
_symmetry_equiv_pos_as_xyz
1 x,y,z
2 -x,1/2+y,-z
3 -x,-y,-z
4 x,-1/2-y,z
_cell_length_a 6.17
_cell_length_b 11.07
_cell_length_c 6.57
_cell_angle_alpha 90
_cell_angle_beta 101.5
_cell_angle_gamma 90
_cell_formula_units_Z 2
loop_
_atom_type_symbol
_atom_type_radius_bond
C 0.68
H 0.20
Cr 1.28
O 0.68
loop_
_atom_site_label
_atom_site_type_symbol
_atom_site_fract_x
_atom_site_fract_y
_atom_site_fract_z
Cr1 Cr 0.33190 0.25000 0.02250
C1 C 0.18040 0.31190 -0.29730
C2 C 0.37610 0.37690 -0.22730
C3 C 0.57530 0.31420 -0.15980
C4 C 0.55380 0.25000 0.25570
C5 C 0.18270 0.36420 0.14530
H1 H 0.02800 0.36060 -0.35050
H2 H 0.37610 0.47450 -0.22730
H3 H 0.72780 0.36290 -0.10660
O1 O 0.68990 0.25000 0.40020
O2 O 0.08940 0.43410 0.22480
C1C C 0.18040 0.18810 -0.29730
C2C C 0.37610 0.12310 -0.22730
C3C C 0.57530 0.18580 -0.15980
C5C C 0.18270 0.13580 0.14530
H1C H 0.02800 0.13940 -0.35050
H2C H 0.37610 0.02550 -0.22730
H3C H 0.72780 0.13710 -0.10660
O2C O 0.08940 0.06590 0.22480
#END
