
#######################################################################
#
#                 Cambridge Crystallographic Data Centre
#                                CCDC
#
#######################################################################
#
# If this CIF has been generated from an entry in the Cambridge
# Structural Database, then it will include bibliographic, chemical,
# crystal, experimental, refinement or atomic coordinate data resulting
# from the CCDC's data processing and validation procedures.
#
#######################################################################

data_CSD_CIF_BZTBFE
_audit_creation_date 1978-11-29
_audit_creation_method CSD-ConQuest-V1
_database_code_CSD BZTBFE
_chemical_formula_sum 'C11 H10 B2 Fe1 O3 S1'
_chemical_formula_moiety
;
C11 H10 B2 Fe1 O3 S1
;
_journal_coden_Cambridge 179
_journal_volume 14
_journal_year 1975
_journal_page_first 262
_journal_name_full 'Angew.Chem.,Int.Ed. '
loop_
_publ_author_name
"W.Siebert"
"G.Augustin"
"R.Full"
"C.Kruger"
"Y.-H.Tsay"
_chemical_name_systematic
;
(Dimethyl-(1-5-\h)benzothiadiborolene)-tricarbonyl-iron
;
_cell_volume    660.278
_exptl_crystal_density_diffrn 1.507
_diffrn_ambient_temperature ?
_diffrn_special_details
;
The study was carried out at room temperature,in the range 283-303K

;
#These two values have been output from a single CSD field.
_refine_ls_R_factor_gt 0.0262
_refine_ls_wR_factor_gt 0.0262
_symmetry_cell_setting triclinic
_symmetry_space_group_name_H-M 'P -1'
_symmetry_Int_Tables_number 2
loop_
_symmetry_equiv_pos_site_id
_symmetry_equiv_pos_as_xyz
1 x,y,z
2 -x,-y,-z
_cell_length_a 9.221(3)
_cell_length_b 9.322(2)
_cell_length_c 9.529(2)
_cell_angle_alpha 69.66(2)
_cell_angle_beta 72.08(2)
_cell_angle_gamma 60.71(3)
_cell_formula_units_Z 2
loop_
_atom_type_symbol
_atom_type_radius_bond
C 0.68
H 0.23
B 0.83
Fe 1.34
O 0.68
S 1.02
loop_
_atom_site_label
_atom_site_type_symbol
_atom_site_fract_x
_atom_site_fract_y
_atom_site_fract_z
Fe1 Fe 0.24150 0.16660 0.28630
S1 S 0.33020 0.27040 0.02970
B1 B 0.15390 0.20790 0.07040
B2 B 0.21480 0.42990 0.14830
O1 O 0.04470 0.12460 0.58930
O2 O 0.37200 -0.19290 0.29380
O3 O 0.51420 0.16550 0.38300
C1 C 0.12350 0.13900 0.47200
C2 C 0.32010 -0.05290 0.28640
C3 C 0.40490 0.16970 0.34650
C4 C 0.01200 0.30910 0.17900
C5 C -0.14680 0.29880 0.24380
C6 C -0.26540 0.39880 0.33510
C7 C -0.23440 0.51260 0.37580
C8 C -0.08510 0.52420 0.32360
C9 C 0.04320 0.42600 0.21970
C10 C 0.16470 0.07980 -0.00890
C11 C 0.28470 0.54990 0.15500
H1 H -0.06850 0.60380 0.35060
H2 H -0.16140 0.21310 0.21400
H3 H -0.31860 0.57700 0.43750
H4 H 0.24060 0.58300 0.25510
H5 H -0.38000 0.40190 0.36890
H6 H 0.26270 0.64350 0.06670
H7 H 0.40120 0.50150 0.14750
H8 H 0.11360 0.01610 0.05260
H9 H 0.27660 -0.01070 -0.02090
H10 H 0.10270 0.14080 -0.09140
#END
