
#######################################################################
#
#                 Cambridge Crystallographic Data Centre
#                                CCDC
#
#######################################################################
#
# If this CIF has been generated from an entry in the Cambridge
# Structural Database, then it will include bibliographic, chemical,
# crystal, experimental, refinement or atomic coordinate data resulting
# from the CCDC's data processing and validation procedures.
#
#######################################################################

data_CSD_CIF_CABGOB
_audit_creation_date 2000-01-21
_audit_creation_method CSD-ConQuest-V1
_database_code_CSD CABGOB
_database_code_depnum_ccdc_archive 'CCDC 1118592'
_chemical_formula_sum 'C18 H42 Cl3 Co1 N6 O12'
_chemical_formula_moiety
;
C18 H30 Co1 N6 O6 3+,3(Cl1 1-),6(H2 O1)
;
_journal_coden_Cambridge 9
_journal_volume 37
_journal_year 1998
_journal_page_first 6136
_journal_name_full 'Inorg.Chem. '
loop_
_publ_author_name
"K.Hegetschweiler"
"M.Weber"
"V.Huch"
"R.J.Geue"
"A.D.Rae"
"A.C.Willis"
"A.M.Sargeson"
_chemical_name_systematic
;
bis(1,3,5-tris(Methyleneimino)-1,3,5-trideoxy-cis-inositol-N,N',N'')-cobalt(ii
i) trichloride hexahydrate
;
_cell_volume   1386.924
_exptl_crystal_colour 'orange'
_exptl_crystal_density_diffrn 1.676
_exptl_crystal_description 'block'
_exptl_crystal_preparation 'acidic aqueous'
_diffrn_ambient_temperature ?
_diffrn_special_details
;
The study was carried out at room temperature,in the range 283-303K

;
_refine_special_details
;
Atom H40 of one of the hydroxy groups is disordered and has been suppressed.

;
#These two values have been output from a single CSD field.
_refine_ls_R_factor_gt 0.028
_refine_ls_wR_factor_gt 0.028
_symmetry_cell_setting monoclinic
_symmetry_space_group_name_H-M 'C 2/m'
_symmetry_Int_Tables_number 12
loop_
_symmetry_equiv_pos_site_id
_symmetry_equiv_pos_as_xyz
1 x,y,z
2 -x,y,-z
3 1/2+x,1/2+y,z
4 1/2-x,1/2+y,-z
5 -x,-y,-z
6 x,-y,z
7 -1/2-x,-1/2-y,-z
8 -1/2+x,-1/2-y,z
_cell_length_a 13.046(2)
_cell_length_b 9.802(2)
_cell_length_c 12.332(2)
_cell_angle_alpha 90
_cell_angle_beta 118.42(1)
_cell_angle_gamma 90
_cell_formula_units_Z 2
loop_
_atom_type_symbol
_atom_type_radius_bond
C 0.68
H 0.23
Cl 0.99
Co 1.33
N 0.68
O 0.68
loop_
_atom_site_label
_atom_site_type_symbol
_atom_site_fract_x
_atom_site_fract_y
_atom_site_fract_z
Co1 Co 0.00000 0.00000 0.00000
O1 O -0.1077(1) -0.2427(2) 0.1695(1)
O2 O 0.2604(2) 0.00000 0.3270(2)
N1 N -0.1308(2) 0.00000 0.0369(2)
N2 N 0.0780(1) -0.1404(2) 0.1263(1)
C1 C -0.1083(2) 0.00000 0.1663(3)
C2 C -0.0417(2) -0.1268(2) 0.2334(2)
C3 C 0.0814(2) -0.1286(2) 0.2478(2)
C4 C 0.1460(2) 0.00000 0.3141(3)
C5 C -0.2367(3) 0.00000 -0.0462(3)
C6 C 0.1303(2) -0.2418(2) 0.1107(2)
H1 H -0.187(2) 0.00000 0.170(2)
H2 H -0.037(2) -0.125(2) 0.318(2)
H3 H 0.124(2) -0.208(2) 0.297(2)
H4 H 0.152(2) 0.00000 0.399(3)
H5 H -0.300(2) 0.00000 -0.025(3)
H6 H -0.257(2) 0.00000 -0.132(3)
H7 H 0.134(2) -0.255(2) 0.032(2)
H8 H 0.173(2) -0.312(2) 0.176(2)
H9 H -0.075(2) -0.306(2) 0.207(2)
Cl1 Cl 0.50000 0.00000 0.00000
Cl2 Cl 0.77387(8) 0.00000 0.36533(8)
O3 O 0.4999(2) 0.00000 0.2613(3)
H10 H 0.559(4) 0.00000 0.312(4)
H11 H 0.516(4) 0.00000 0.198(4)
O4 O 0.3864(2) -0.2139(3) 0.4807(2)
H12 H 0.358(3) -0.287(3) 0.441(3)
H13 H 0.408(3) -0.190(4) 0.445(3)
H14? H 0.297(4) -0.067(4) 0.363(4)
N1A N 0.1308(2) 0.00000 -0.0369(2)
C1A C 0.1083(2) 0.00000 -0.1663(3)
C2A C 0.0417(2) -0.1268(2) -0.2334(2)
O1A O 0.1077(1) -0.2427(2) -0.1695(1)
H9A H 0.075(2) -0.306(2) -0.207(2)
C3A C -0.0814(2) -0.1286(2) -0.2478(2)
N2A N -0.0780(1) -0.1404(2) -0.1263(1)
N2D N -0.0780(1) 0.1404(2) -0.1263(1)
C3D C -0.0814(2) 0.1286(2) -0.2478(2)
C2D C 0.0417(2) 0.1268(2) -0.2334(2)
O1D O 0.1077(1) 0.2427(2) -0.1695(1)
H9D H 0.075(2) 0.306(2) -0.207(2)
H1A H 0.187(2) 0.00000 -0.170(2)
H2D H 0.037(2) 0.125(2) -0.318(2)
C4D C -0.1460(2) 0.00000 -0.3141(3)
O2D O -0.2604(2) 0.00000 -0.3270(2)
H3A H -0.124(2) -0.208(2) -0.297(2)
H4D H -0.152(2) 0.00000 -0.399(3)
H3D H -0.124(2) 0.208(2) -0.297(2)
C6D C -0.1303(2) 0.2418(2) -0.1107(2)
H7D H -0.134(2) 0.255(2) -0.032(2)
H8D H -0.173(2) 0.312(2) -0.176(2)
N2E N 0.0780(1) 0.1404(2) 0.1263(1)
C3E C 0.0814(2) 0.1286(2) 0.2478(2)
C2E C -0.0417(2) 0.1268(2) 0.2334(2)
O1E O -0.1077(1) 0.2427(2) 0.1695(1)
H9E H -0.075(2) 0.306(2) 0.207(2)
H2E H -0.037(2) 0.125(2) 0.318(2)
H3E H 0.124(2) 0.208(2) 0.297(2)
C6E C 0.1303(2) 0.2418(2) 0.1107(2)
H7E H 0.134(2) 0.255(2) 0.032(2)
H8E H 0.173(2) 0.312(2) 0.176(2)
C6A C -0.1303(2) -0.2418(2) -0.1107(2)
H7A H -0.134(2) -0.255(2) -0.032(2)
H8A H -0.173(2) -0.312(2) -0.176(2)
H2A H 0.037(2) -0.125(2) -0.318(2)
C5A C 0.2367(3) 0.00000 0.0462(3)
H5A H 0.300(2) 0.00000 0.025(3)
H6A H 0.257(2) 0.00000 0.132(3)
#END
