
#######################################################################
#
#                 Cambridge Crystallographic Data Centre
#                                CCDC
#
#######################################################################
#
# If this CIF has been generated from an entry in the Cambridge
# Structural Database, then it will include bibliographic, chemical,
# crystal, experimental, refinement or atomic coordinate data resulting
# from the CCDC's data processing and validation procedures.
#
#######################################################################

data_CSD_CIF_CACVIL
_audit_creation_date 1984-04-14
_audit_creation_method CSD-ConQuest-V1
_database_code_CSD CACVIL
_database_code_depnum_ccdc_archive 'CCDC 1118823'
_chemical_formula_sum 'C15 H17 Cr1 N1 O4'
_chemical_formula_moiety
;
C15 H17 Cr1 N1 O4
;
_journal_coden_Cambridge 579
_journal_volume 2
_journal_year 1983
_journal_page_first 609
_journal_name_full 'Organometallics '
loop_
_publ_author_name
"G.W.Harris"
"M.O.Albers"
"J.C.A.Boeyens"
"N.J.Coville"
_chemical_name_systematic
;
(\h^6^-Methylbenzoate)-t-butylisocyanide-dicarbonyl-chromium
;
_chemical_melting_point 357.15
_cell_volume    774.447
_exptl_crystal_colour 'red'
_exptl_special_details
;
Melting point range 357.15-358.15K

;
_diffrn_ambient_temperature ?
_diffrn_special_details
;
The study was carried out at room temperature,in the range 283-303K

;
#These two values have been output from a single CSD field.
_refine_ls_R_factor_gt 0.0418
_refine_ls_wR_factor_gt 0.0418
_symmetry_cell_setting triclinic
_symmetry_space_group_name_H-M 'P -1'
_symmetry_Int_Tables_number 2
loop_
_symmetry_equiv_pos_site_id
_symmetry_equiv_pos_as_xyz
1 x,y,z
2 -x,-y,-z
_cell_length_a 12.812(6)
_cell_length_b 9.314(5)
_cell_length_c 6.807(3)
_cell_angle_alpha 97.28(3)
_cell_angle_beta 87.94(3)
_cell_angle_gamma 106.02(3)
_cell_formula_units_Z 2
loop_
_atom_type_symbol
_atom_type_radius_bond
C 0.68
H 0.23
Cr 1.35
N 0.68
O 0.68
loop_
_atom_site_label
_atom_site_type_symbol
_atom_site_fract_x
_atom_site_fract_y
_atom_site_fract_z
Cr1 Cr 0.36681 0.20010 0.46788
C1 C 0.25240 0.15410 0.22130
C2 C 0.28140 0.02110 0.24080
C3 C 0.39140 0.02270 0.23840
C4 C 0.47230 0.15710 0.22020
C5 C 0.44340 0.28850 0.19330
C6 C 0.33540 0.28730 0.19490
C7 C 0.13810 0.16190 0.23060
C8 C -0.04560 0.02590 0.26390
C9 C 0.17780 0.51960 0.73830
C10 C 0.06150 0.42230 0.75410
C11 C 0.19060 0.61880 0.57460
C12 C 0.21560 0.60980 0.93780
C13 C 0.29260 0.33800 0.60810
N1 N 0.24510 0.41800 0.68630
C14 C 0.32240 0.07030 0.65350
C15 C 0.48730 0.28610 0.62440
O1 O 0.29650 -0.01320 0.77040
O2 O 0.56190 0.33690 0.72670
O3 O 0.06780 0.02740 0.25130
O4 O 0.11050 0.27410 0.22180
H1 H 0.22400 -0.06600 0.27000
H2 H 0.40800 -0.07100 0.26500
H3 H 0.54900 0.15700 0.22400
H4 H 0.50000 0.38300 0.17400
H5 H 0.31500 0.37600 0.17500
H6 H -0.06500 0.06600 0.15400
H7 H -0.05900 0.07100 0.38500
H8 H -0.08700 -0.08500 0.22500
H9 H 0.01900 0.49500 0.77700
H10 H 0.04000 0.37200 0.62700
H11 H 0.05400 0.35800 0.87600
H12 H 0.14400 0.68600 0.59900
H13 H 0.16400 0.55700 0.45100
H14 H 0.26300 0.67600 0.56300
H15 H 0.20500 0.54400 1.04600
H16 H 0.17700 0.68500 0.95900
H17 H 0.28900 0.66300 0.93600
#END
