
#######################################################################
#
#                 Cambridge Crystallographic Data Centre
#                                CCDC
#
#######################################################################
#
# If this CIF has been generated from an entry in the Cambridge
# Structural Database, then it will include bibliographic, chemical,
# crystal, experimental, refinement or atomic coordinate data resulting
# from the CCDC's data processing and validation procedures.
#
#######################################################################

data_CSD_CIF_CAGCIW
_audit_creation_date 1984-04-14
_audit_creation_method CSD-ConQuest-V1
_database_code_CSD CAGCIW
_database_code_depnum_ccdc_archive 'CCDC 1119131'
_chemical_formula_sum 'C6 H20 Br4 Cr1 N6 O4'
_chemical_formula_moiety
;
C4 H8 Br4 Cr1 O4 2-,2(C1 H6 N3 1+)
;
_journal_coden_Cambridge 582
_journal_volume 13
_journal_year 1983
_journal_page_first 325
_journal_name_full 'J.Crystallogr.Spectrosc.Res. '
loop_
_publ_author_name
"M.A.Babar"
"M.F.C.Ladd"
"L.F.Larkworthy"
"G.A.Leonard"
"D.C.Povey"
_chemical_name_systematic
;
bis(Guanidinium) bis(acetic acid)-tetrabromo-chromium(ii)
;
_cell_volume    977.173
_exptl_crystal_colour 'pale green'
_exptl_special_details
;
dx reported as 1.92; we calculate 2.08

;
_diffrn_ambient_temperature ?
_diffrn_special_details
;
The study was carried out at room temperature,in the range 283-303K

;
#These two values have been output from a single CSD field.
_refine_ls_R_factor_gt 0.061
_refine_ls_wR_factor_gt 0.061
_symmetry_cell_setting monoclinic
_symmetry_space_group_name_H-M 'P 21/n'
_symmetry_Int_Tables_number 14
loop_
_symmetry_equiv_pos_site_id
_symmetry_equiv_pos_as_xyz
1 x,y,z
2 1/2-x,1/2+y,1/2-z
3 -x,-y,-z
4 -1/2+x,-1/2-y,-1/2+z
_cell_length_a 8.781(4)
_cell_length_b 9.1253(9)
_cell_length_c 12.195(2)
_cell_angle_alpha 90
_cell_angle_beta 89.84(2)
_cell_angle_gamma 90
_cell_formula_units_Z 2
loop_
_atom_type_symbol
_atom_type_radius_bond
C 0.68
H 0.23
Br 1.21
Cr 1.35
N 0.68
O 0.68
loop_
_atom_site_label
_atom_site_type_symbol
_atom_site_fract_x
_atom_site_fract_y
_atom_site_fract_z
Br1 Br 0.26630 0.20710 0.04350
Cr1 Cr 0.50000 0.00000 0.00000
Br2 Br 0.53300 -0.04470 0.21170
C1 C 0.68010 0.28760 -0.02180
O1 O 0.56560 0.35910 -0.06650
C2 C 0.82560 0.37220 -0.01440
O2 O 0.66390 0.16030 0.01020
H1 H 0.89500 0.31800 0.02400
H2 H 0.82200 0.46300 -0.02400
H3 H 0.87100 0.37100 -0.07700
H4 H 0.62000 0.29900 -0.13800
N1 N 0.35370 0.41010 0.27300
C3 C 0.50500 0.42420 0.29340
N2 N 0.60190 0.32530 0.24940
N3 N 0.55840 0.53330 0.35340
H5 H 0.56100 0.25600 0.20300
H6 H 0.58900 0.21500 0.29500
H7 H 0.32800 0.34800 0.21500
H8 H 0.30200 0.49500 0.31300
H9 H 0.50000 0.61900 0.39200
H10 H 0.68900 0.53300 0.38200
Br1B Br 0.73370 -0.20710 -0.04350
Br2B Br 0.46700 0.04470 -0.21170
O2B O 0.33610 -0.16030 -0.01020
C1B C 0.31990 -0.28760 0.02180
O1B O 0.43440 -0.35910 0.06650
C2B C 0.17440 -0.37220 0.01440
H4B H 0.38000 -0.29900 0.13800
H1B H 0.10500 -0.31800 -0.02400
H2B H 0.17800 -0.46300 0.02400
H3B H 0.12900 -0.37100 0.07700
#END
