
#######################################################################
#
#                 Cambridge Crystallographic Data Centre
#                                CCDC
#
#######################################################################
#
# If this CIF has been generated from an entry in the Cambridge
# Structural Database, then it will include bibliographic, chemical,
# crystal, experimental, refinement or atomic coordinate data resulting
# from the CCDC's data processing and validation procedures.
#
#######################################################################

data_CSD_CIF_CAHGIE
_audit_creation_date 2017-01-04
_audit_creation_method CSD-ConQuest-V1
_database_code_CSD CAHGIE
_database_code_depnum_ccdc_archive 'CCDC 1041355'
_chemical_formula_sum 'C8 H12 Cl2 Cr1 N4'
_chemical_formula_moiety
;
C8 H12 Cl2 Cr1 N4
;
_journal_coden_Cambridge 1489
_journal_volume 641
_journal_year 2016
_journal_page_first 39
_journal_name_full 'Mol.Cryst.Liq.Cryst. '
loop_
_publ_author_name
"Yanpei Song"
"Kaisheng Diao"
"Han Xiao"
"Fang Zhao"
_chemical_name_systematic
;
dichloro-(2-((1-(pyrazin-2-yl)ethylidene)amino)ethanamine)-chromium
;
_cell_volume    563.204
_exptl_crystal_colour 'blue'
_exptl_crystal_density_diffrn 1.693
_exptl_crystal_description 'block'
_diffrn_ambient_temperature 296
#These two values have been output from a single CSD field.
_refine_ls_R_factor_gt 0.0608
_refine_ls_wR_factor_gt 0.0608
_symmetry_cell_setting triclinic
_symmetry_space_group_name_H-M 'P -1'
_symmetry_Int_Tables_number 2
loop_
_symmetry_equiv_pos_site_id
_symmetry_equiv_pos_as_xyz
1 x,y,z
2 -x,-y,-z
_cell_length_a 6.979(4)
_cell_length_b 8.825(6)
_cell_length_c 10.208(6)
_cell_angle_alpha 69.640(7)
_cell_angle_beta 72.868(7)
_cell_angle_gamma 83.299(8)
_cell_formula_units_Z 2
loop_
_atom_type_symbol
_atom_type_radius_bond
C 0.68
H 0.23
Cl 0.99
Cr 1.39
N 0.68
loop_
_atom_site_label
_atom_site_type_symbol
_atom_site_fract_x
_atom_site_fract_y
_atom_site_fract_z
C1 C 0.2064(11) 0.6154(10) 1.0330(9)
H1 H 0.16230 0.51020 1.06280
C2 C 0.1967(12) 0.8562(10) 1.0711(9)
H2 H 0.14810 0.92180 1.12840
C3 C 0.3366(12) 0.9181(10) 0.9376(9)
H3 H 0.37520 1.02510 0.90620
C4 C 0.3489(10) 0.6742(9) 0.9010(8)
C5 C 0.4366(10) 0.5836(9) 0.7991(8)
C6 C 0.3529(13) 0.4251(11) 0.8235(10)
H4 H 0.23390 0.44310 0.79090
H5 H 0.32050 0.36360 0.92520
H6 H 0.45050 0.36660 0.77020
C7 C 0.6929(12) 0.5907(9) 0.5772(8)
H7 H 0.60850 0.59600 0.51530
H8 H 0.73370 0.47900 0.61670
C8 C 0.8729(12) 0.694(1) 0.4922(10)
H9 H 0.97600 0.66280 0.54330
H10 H 0.92670 0.67990 0.39800
Cl1 Cl 0.9239(3) 0.8074(2) 0.7920(2)
Cl2 Cl 0.6323(3) 1.1454(2) 0.6110(2)
Cr1 Cr 0.65275(13) 0.87393(10) 0.66972(9)
N1 N 0.8121(10) 0.8658(8) 0.4737(8)
H11 H 0.73720 0.90180 0.41030
H12 H 0.92100 0.92800 0.43990
N2 N 0.5830(9) 0.6532(7) 0.6954(6)
N3 N 0.4171(9) 0.8267(8) 0.8531(7)
N4 N 0.1297(10) 0.7054(9) 1.1197(7)
#END
