
#######################################################################
#
#                 Cambridge Crystallographic Data Centre
#                                CCDC
#
#######################################################################
#
# If this CIF has been generated from an entry in the Cambridge
# Structural Database, then it will include bibliographic, chemical,
# crystal, experimental, refinement or atomic coordinate data resulting
# from the CCDC's data processing and validation procedures.
#
#######################################################################

data_CSD_CIF_CAIMCO
_audit_creation_date 1971-12-31
_audit_creation_method CSD-ConQuest-V1
_database_code_CSD CAIMCO
_chemical_formula_sum 'C7 H12 Co1 N4 O5'
_chemical_formula_moiety
;
C7 H12 Co1 N4 O5
;
_journal_coden_Cambridge 89
_journal_year 1970
_journal_page_first 2558
_journal_name_full 'J.Chem.Soc.A '
loop_
_publ_author_name
"E.Baraniak"
"H.C.Freeman"
"J.M.James"
"C.E.Nockolds"
_chemical_name_systematic
;
Carbonato-diaqua-bis(imidazole)-cobalt(ii)
;
_cell_volume   1063.068
_exptl_crystal_density_diffrn 1.82
_diffrn_ambient_temperature ?
_diffrn_special_details
;
The study was carried out at room temperature,in the range 283-303K

;
#These two values have been output from a single CSD field.
_refine_ls_R_factor_gt 0.062
_refine_ls_wR_factor_gt 0.062
_symmetry_cell_setting monoclinic
_symmetry_space_group_name_H-M 'A 2/a'
_symmetry_Int_Tables_number 15
loop_
_symmetry_equiv_pos_site_id
_symmetry_equiv_pos_as_xyz
1 x,y,z
2 x,1/2+y,1/2+z
3 1/2-x,y,-z
4 1/2-x,1/2+y,1/2-z
5 -x,-y,-z
6 -x,-1/2-y,-1/2-z
7 -1/2+x,-y,z
8 -1/2+x,-1/2-y,-1/2+z
_cell_length_a 10.13(1)
_cell_length_b 7.53(1)
_cell_length_c 14.14(2)
_cell_angle_alpha 90
_cell_angle_beta 99.73(6)
_cell_angle_gamma 90
_cell_formula_units_Z 4
loop_
_atom_type_symbol
_atom_type_radius_bond
C 0.68
H 0.20
Co 1.26
N 0.68
O 0.68
loop_
_atom_site_label
_atom_site_type_symbol
_atom_site_fract_x
_atom_site_fract_y
_atom_site_fract_z
Co1 Co -0.25000 0.44430 0.50000
C1 C -0.05480 0.53170 0.69280
C2 C -0.20100 0.33520 0.71400
C3 C -0.02800 0.48850 0.78550
C4 C -0.25000 0.78380 0.50000
H1 H -0.00300 0.62100 0.66100
H2 H -0.27900 0.25000 0.70300
H3 H 0.04600 0.53700 0.83500
H4 H -0.12600 0.30800 0.85500
N1 N -0.16390 0.43740 0.64680
N2 N -0.12020 0.36280 0.79850
O1 O -0.34910 0.69200 0.52230
O2 O -0.25000 0.94840 0.50000
O3 O -0.38700 0.24370 0.53040
N1B N -0.33610 0.43740 0.35320
O1B O -0.15090 0.69200 0.47770
O3B O -0.11300 0.24370 0.46960
C1B C -0.44520 0.53170 0.30720
C2B C -0.29900 0.33520 0.28600
C3B C -0.47200 0.48850 0.21450
H1B H -0.49700 0.62100 0.33900
H2B H -0.22100 0.25000 0.29700
N2B N -0.37980 0.36280 0.20150
H3B H -0.54600 0.53700 0.16500
H4B H -0.37400 0.30800 0.14500
#END
