
#######################################################################
#
#                 Cambridge Crystallographic Data Centre
#                                CCDC
#
#######################################################################
#
# If this CIF has been generated from an entry in the Cambridge
# Structural Database, then it will include bibliographic, chemical,
# crystal, experimental, refinement or atomic coordinate data resulting
# from the CCDC's data processing and validation procedures.
#
#######################################################################

data_CSD_CIF_CAMJUY
_audit_creation_date 2017-01-05
_audit_creation_method CSD-ConQuest-V1
_database_code_CSD CAMJUY
_database_code_depnum_ccdc_archive 'CCDC 638849'
_chemical_formula_sum 'C22 H32 Mn1 N12 O5'
_chemical_formula_moiety
;
C18 H24 Mn1 N12 2+,2(C2 H3 O2 1-),H2 O1
;
_journal_coden_Cambridge 1078
_journal_year 2016
_journal_name_full 'CSD Communication(Private Communication) '
loop_
_publ_author_name
"M.Diallo"
"Moussa Dieng"
"A.H.Barry"
"A.Driss"
"M.Gaye"
_chemical_name_systematic
;
hexakis(1H-imidazole)-manganese(ii) bis(acetate) monohydrate
;
_cell_volume    763.310
_exptl_crystal_density_diffrn 1.305
_diffrn_ambient_temperature 293
#These two values have been output from a single CSD field.
_refine_ls_R_factor_gt 0.0403
_refine_ls_wR_factor_gt 0.0403
_symmetry_cell_setting triclinic
_symmetry_space_group_name_H-M 'P 1'
_symmetry_Int_Tables_number 1
loop_
_symmetry_equiv_pos_site_id
_symmetry_equiv_pos_as_xyz
1 x,y,z
_cell_length_a 8.6(2)
_cell_length_b 8.9(3)
_cell_length_c 10.1(2)
_cell_angle_alpha 89.0(2)
_cell_angle_beta 94.7(3)
_cell_angle_gamma 97.8(4)
_cell_formula_units_Z 1
loop_
_atom_type_symbol
_atom_type_radius_bond
C 0.68
H 0.23
Mn 1.61
N 0.68
O 0.68
loop_
_atom_site_label
_atom_site_type_symbol
_atom_site_fract_x
_atom_site_fract_y
_atom_site_fract_z
Mn1 Mn 0.76703(13) 0.32579(12) 0.74179(11)
N1 N 0.9187(7) 0.5508(6) 0.7721(5)
N2 N 1.0583(10) 0.7776(8) 0.7540(9)
H1 H 1.09820 0.86290 0.72200
N3 N 0.6099(8) 0.0979(6) 0.7151(5)
N4 N 0.4426(8) -0.0781(7) 0.6156(6)
H2 H 0.37980 -0.12500 0.55450
N5 N 0.9472(7) 0.2470(6) 0.6179(6)
N6 N 1.0713(8) 0.0953(8) 0.4933(6)
H3 H 1.09010 0.01700 0.45210
N7 N 0.5809(7) 0.4113(7) 0.8649(6)
N8 N 0.3929(13) 0.4462(14) 0.9782(9)
H4 H 0.30570 0.43060 1.01600
N9 N 0.8868(7) 0.2350(6) 0.9311(5)
N10 N 1.0385(9) 0.1002(7) 1.0543(7)
H5 H 1.11120 0.04480 1.07720
N11 N 0.6459(8) 0.4169(6) 0.5551(5)
N12 N 0.4969(9) 0.5548(7) 0.4268(7)
H6 H 0.43100 0.61710 0.40360
C1 C 0.9478(9) 0.6725(7) 0.6850(7)
H7 H 0.90280 0.68140 0.59900
C2 C 1.0918(8) 0.7319(7) 0.8680(7)
H8 H 1.16080 0.78410 0.93250
C3 C 1.0107(9) 0.5941(7) 0.8811(7)
H9 H 1.01760 0.53520 0.95740
C4 C 0.5275(9) 0.0542(8) 0.6070(7)
H10 H 0.52850 0.11190 0.52970
C5 C 0.4760(8) -0.1282(7) 0.7467(5)
H11 H 0.43520 -0.21860 0.78580
C6 C 0.580(1) -0.0159(8) 0.8023(7)
H12 H 0.62500 -0.01670 0.88890
C7 C 0.935(1) 0.1099(8) 0.5594(6)
H13 H 0.84830 0.03510 0.56240
C8 C 1.1683(6) 0.2317(6) 0.5079(7)
H14 H 1.26580 0.25730 0.47320
C9 C 1.0942(10) 0.3225(9) 0.5831(9)
H15 H 1.13530 0.42080 0.60790
C10 C 0.4418(9) 0.3373(11) 0.8947(10)
H16 H 0.39150 0.24220 0.86850
C11 C 0.4796(9) 0.5573(7) 0.9910(6)
H17 H 0.46730 0.64100 1.04080
C12 C 0.5921(7) 0.5424(7) 0.9252(6)
H18 H 0.67770 0.61770 0.91880
C13 C 0.9984(9) 0.1462(8) 0.9361(8)
H19 H 1.04420 0.11900 0.86150
C14 C 0.9483(14) 0.1537(13) 1.1295(9)
H20 H 0.94720 0.13630 1.22010
C15 C 0.8525(12) 0.2414(9) 1.0558(7)
H21 H 0.77770 0.29520 1.08760
C16 C 0.5300(9) 0.5015(9) 0.5530(8)
H22 H 0.47800 0.52210 0.62630
C17 C 0.5923(14) 0.4876(13) 0.3419(9)
H23 H 0.59180 0.49750 0.25040
C18 C 0.6833(14) 0.4069(13) 0.4218(8)
H24 H 0.75970 0.35230 0.39390
O1 O 1.0525(7) -0.1577(7) 0.3476(6)
O2 O 1.2677(6) -0.2542(5) 0.4210(6)
C19 C 1.1379(8) -0.2609(8) 0.3505(7)
C20 C 1.0926(10) -0.3974(7) 0.2717(7)
H25 H 1.14480 -0.38730 0.19110
H26 H 0.98000 -0.41170 0.25110
H27 H 1.12310 -0.48320 0.32090
O3 O 1.4783(8) 0.8042(7) 1.1373(7)
O4 O 1.2660(7) 0.9032(6) 1.0598(5)
C21 C 1.3921(8) 0.9066(6) 1.1289(6)
C22 C 1.4477(5) 1.0416(8) 1.2216(8)
H28 H 1.45810 1.13360 1.17060
H29 H 1.54830 1.02870 1.26670
H30 H 1.37150 1.04660 1.28530
O5 O 0.7999(5) 0.7801(5) 1.1187(5)
H31 H 0.69780 0.80460 1.15790
H32 H 0.86350 0.82590 1.19820
#END
