
#######################################################################
#
#                 Cambridge Crystallographic Data Centre
#                                CCDC
#
#######################################################################
#
# If this CIF has been generated from an entry in the Cambridge
# Structural Database, then it will include bibliographic, chemical,
# crystal, experimental, refinement or atomic coordinate data resulting
# from the CCDC's data processing and validation procedures.
#
#######################################################################

data_CSD_CIF_CAMVER10
_audit_creation_date 1986-04-23
_audit_creation_method CSD-ConQuest-V1
_database_code_CSD CAMVER10
_chemical_formula_sum 'C14 H38 Cr1 P4'
_chemical_formula_moiety
;
C14 H38 Cr1 P4
;
_journal_coden_Cambridge 186
_journal_year 1985
_journal_page_first 1339
_journal_name_full 'J.Chem.Soc.,Dalton Trans. '
loop_
_publ_author_name
"G.S.Girolami"
"G.Wilkinson"
"A.M.R.Galas"
"M.Thornton-Pett"
"M.B.Hursthouse"
_chemical_name_systematic
;
trans-bis(1,2-bis(Dimethylphosphino)-ethane-P,P')-dimethyl-chromium(ii)
;
_chemical_melting_point 468.15
_cell_volume    534.478
_exptl_crystal_colour 'red-orange'
_exptl_crystal_density_diffrn 1.187
_exptl_special_details
;
Melts with decomposition.

;
_diffrn_ambient_temperature ?
_diffrn_special_details
;
The study was carried out at room temperature,in the range 283-303K

;
#These two values have been output from a single CSD field.
_refine_ls_R_factor_gt 0.03
_refine_ls_wR_factor_gt 0.03
_symmetry_cell_setting triclinic
_symmetry_space_group_name_H-M 'P -1'
_symmetry_Int_Tables_number 2
loop_
_symmetry_equiv_pos_site_id
_symmetry_equiv_pos_as_xyz
1 x,y,z
2 -x,-y,-z
_cell_length_a 7.524(1)
_cell_length_b 8.751(1)
_cell_length_c 9.132(1)
_cell_angle_alpha 103.91(1)
_cell_angle_beta 106.18(1)
_cell_angle_gamma 102.35(1)
_cell_formula_units_Z 1
loop_
_atom_type_symbol
_atom_type_radius_bond
C 0.68
H 0.23
Cr 1.35
P 1.05
loop_
_atom_site_label
_atom_site_type_symbol
_atom_site_fract_x
_atom_site_fract_y
_atom_site_fract_z
Cr1 Cr 0.00000 0.00000 1.00000
P1 P 0.0961(1) 0.1837(1) 0.8679(1)
P2 P 0.2393(1) 0.2055(1) 1.2271(1)
C1 C -0.0760(5) 0.2443(4) 0.7250(4)
C2 C 0.2646(5) 0.1513(4) 0.7617(4)
C3 C 0.2354(4) 0.3882(3) 1.0189(3)
C4 C 0.1658(5) 0.3296(4) 1.3768(3)
C5 C 0.4445(4) 0.1663(4) 1.3597(4)
C6 C 0.3727(4) 0.3674(3) 1.1642(3)
C7 C -0.2109(4) 0.1266(3) 1.0336(3)
H1 H -0.1359(44) 0.1571(36) 0.6284(39)
H2 H -0.1785(48) 0.2587(37) 0.7520(39)
H3 H -0.0032(49) 0.3401(40) 0.7085(41)
H4 H 0.2933(44) 0.2292(38) 0.7194(39)
H5 H 0.2051(42) 0.0526(38) 0.6695(38)
H6 H 0.3583(61) 0.1317(50) 0.8223(51)
H7 H 0.2993(42) 0.4564(38) 0.9700(34)
H8 H 0.1518(47) 0.4391(38) 1.0659(40)
H9 H 0.1039(51) 0.2586(43) 1.4240(42)
H10 H 0.0782(63) 0.3714(48) 1.3223(52)
H11 H 0.2823(61) 0.4187(49) 1.4731(51)
H12 H 0.5273(56) 0.2637(46) 1.4326(46)
H13 H 0.5105(60) 0.1090(54) 1.2927(54)
H14 H 0.3995(62) 0.1011(52) 1.4069(52)
H15 H 0.4251(45) 0.4723(39) 1.2638(41)
H16 H 0.4746(52) 0.3213(39) 1.1271(42)
H17 H -0.2056(47) 0.2181(39) 1.0168(41)
H18 H -0.3194(57) 0.0683(47) 0.9664(49)
H19 H -0.2050(55) 0.1461(43) 1.1384(51)
P1A P -0.0961(1) -0.1837(1) 1.1321(1)
P2A P -0.2393(1) -0.2055(1) 0.7729(1)
C7A C 0.2109(4) -0.1266(3) 0.9664(3)
C1A C 0.0760(5) -0.2443(4) 1.2750(4)
C2A C -0.2646(5) -0.1513(4) 1.2383(4)
C3A C -0.2354(4) -0.3882(3) 0.9811(3)
C4A C -0.1658(5) -0.3296(4) 0.6232(3)
C5A C -0.4445(4) -0.1663(4) 0.6403(4)
C6A C -0.3727(4) -0.3674(3) 0.8358(3)
H17A H 0.2056(47) -0.2181(39) 0.9832(41)
H18A H 0.3194(57) -0.0683(47) 1.0336(49)
H19A H 0.2050(55) -0.1461(43) 0.8616(51)
H1A H 0.1359(44) -0.1571(36) 1.3716(39)
H2A H 0.1785(48) -0.2587(37) 1.2480(39)
H3A H 0.0032(49) -0.3401(40) 1.2915(41)
H4A H -0.2933(44) -0.2292(38) 1.2806(39)
H5A H -0.2051(42) -0.0526(38) 1.3305(38)
H6A H -0.3583(61) -0.1317(50) 1.1777(51)
H7A H -0.2993(42) -0.4564(38) 1.0300(34)
H8A H -0.1518(47) -0.4391(38) 0.9341(40)
H9A H -0.1039(51) -0.2586(43) 0.5760(42)
H10A H -0.0782(63) -0.3714(48) 0.6777(52)
H11A H -0.2823(61) -0.4187(49) 0.5269(51)
H12A H -0.5273(56) -0.2637(46) 0.5674(46)
H13A H -0.5105(60) -0.1090(54) 0.7073(54)
H14A H -0.3995(62) -0.1011(52) 0.5931(52)
H15A H -0.4251(45) -0.4723(39) 0.7362(41)
H16A H -0.4746(52) -0.3213(39) 0.8729(42)
#END
