
#######################################################################
#
#                 Cambridge Crystallographic Data Centre
#                                CCDC
#
#######################################################################
#
# If this CIF has been generated from an entry in the Cambridge
# Structural Database, then it will include bibliographic, chemical,
# crystal, experimental, refinement or atomic coordinate data resulting
# from the CCDC's data processing and validation procedures.
#
#######################################################################

data_CSD_CIF_CAMVER
_audit_creation_date 1984-06-02
_audit_creation_method CSD-ConQuest-V1
_database_code_CSD CAMVER
_database_code_depnum_ccdc_archive 'CCDC 1120057'
_chemical_formula_sum 'C14 H38 Cr1 P4'
_chemical_formula_moiety
;
C14 H38 Cr1 P4
;
_journal_coden_Cambridge 4
_journal_volume 105
_journal_year 1983
_journal_page_first 5954
_journal_name_full 'J.Am.Chem.Soc. '
loop_
_publ_author_name
"G.S.Girolami"
"J.E.Salt"
"G.Wilkinson"
"M.Thornton-Pett"
"M.B.Hursthouse"
_chemical_name_systematic
;
Dimethyl-bis(1,2-bis(dimethylphosphino)ethane)-chromium
;
_chemical_melting_point 468.15
_cell_volume    534.478
_exptl_crystal_colour 'red-orange'
_exptl_special_details
;
Melts with decomposition.

;
_diffrn_ambient_temperature ?
_diffrn_special_details
;
The study was carried out at room temperature,in the range 283-303K

;
#These two values have been output from a single CSD field.
_refine_ls_R_factor_gt 0.03
_refine_ls_wR_factor_gt 0.03
_symmetry_cell_setting triclinic
_symmetry_space_group_name_H-M 'P -1'
_symmetry_Int_Tables_number 2
loop_
_symmetry_equiv_pos_site_id
_symmetry_equiv_pos_as_xyz
1 x,y,z
2 -x,-y,-z
_cell_length_a 7.524(1)
_cell_length_b 8.751(1)
_cell_length_c 9.132
_cell_angle_alpha 103.91(1)
_cell_angle_beta 106.18(1)
_cell_angle_gamma 102.35(1)
_cell_formula_units_Z 1
loop_
_atom_type_symbol
_atom_type_radius_bond
C 0.68
H 0.23
Cr 1.35
P 1.05
loop_
_atom_site_label
_atom_site_type_symbol
_atom_site_fract_x
_atom_site_fract_y
_atom_site_fract_z
Cr1 Cr 0.00000 0.00000 0.00000
P1 P 0.09610 0.18370 -0.13210
P2 P 0.23930 0.20550 0.22710
C1 C -0.07600 0.24430 -0.27500
C2 C 0.26460 0.15130 -0.23830
C3 C 0.23540 0.38820 0.01890
C4 C 0.16580 0.32960 0.37680
C5 C 0.44450 0.16630 0.35970
C6 C 0.37270 0.36740 0.16420
C7 C -0.21090 0.12660 0.03360
H1 H -0.13590 0.15710 -0.37160
H2 H -0.17850 0.25870 -0.24800
H3 H -0.00320 0.34010 -0.29150
H4 H 0.29330 0.22920 -0.28060
H5 H 0.20510 0.05260 -0.33050
H6 H 0.35830 0.13170 -0.17770
H7 H 0.29930 0.45640 -0.03000
H8 H 0.15180 0.43910 0.06590
H9 H 0.10390 0.25860 0.42400
H10 H 0.07820 0.37140 0.32230
H11 H 0.28230 0.41870 0.47310
H12 H 0.52730 0.26370 0.43260
H13 H 0.51050 0.10900 0.29270
H14 H 0.39950 0.10110 0.40690
H15 H 0.42510 0.47230 0.26380
H16 H 0.47460 0.32130 0.12710
H17 H -0.20560 0.21810 0.01680
H18 H -0.31940 0.06830 -0.03360
H19 H -0.20500 0.14610 0.13840
P1A P -0.09610 -0.18370 0.13210
P2A P -0.23930 -0.20550 -0.22710
C7A C 0.21090 -0.12660 -0.03360
C1A C 0.07600 -0.24430 0.27500
C2A C -0.26460 -0.15130 0.23830
C3A C -0.23540 -0.38820 -0.01890
C4A C -0.16580 -0.32960 -0.37680
C5A C -0.44450 -0.16630 -0.35970
C6A C -0.37270 -0.36740 -0.16420
H17A H 0.20560 -0.21810 -0.01680
H18A H 0.31940 -0.06830 0.03360
H19A H 0.20500 -0.14610 -0.13840
H1A H 0.13590 -0.15710 0.37160
H2A H 0.17850 -0.25870 0.24800
H3A H 0.00320 -0.34010 0.29150
H4A H -0.29330 -0.22920 0.28060
H5A H -0.20510 -0.05260 0.33050
H6A H -0.35830 -0.13170 0.17770
H7A H -0.29930 -0.45640 0.03000
H8A H -0.15180 -0.43910 -0.06590
H9A H -0.10390 -0.25860 -0.42400
H10A H -0.07820 -0.37140 -0.32230
H11A H -0.28230 -0.41870 -0.47310
H12A H -0.52730 -0.26370 -0.43260
H13A H -0.51050 -0.10900 -0.29270
H14A H -0.39950 -0.10110 -0.40690
H15A H -0.42510 -0.47230 -0.26380
H16A H -0.47460 -0.32130 -0.12710
#END
