
#######################################################################
#
#                 Cambridge Crystallographic Data Centre
#                                CCDC
#
#######################################################################
#
# If this CIF has been generated from an entry in the Cambridge
# Structural Database, then it will include bibliographic, chemical,
# crystal, experimental, refinement or atomic coordinate data resulting
# from the CCDC's data processing and validation procedures.
#
#######################################################################

data_CSD_CIF_CAMVOB10
_audit_creation_date 1986-05-19
_audit_creation_method CSD-ConQuest-V1
_database_code_CSD CAMVOB10
_chemical_formula_sum 'C12 H32 Cr1 N4 P4'
_chemical_formula_moiety
;
C12 H32 Cr1 N4 P4
;
_journal_coden_Cambridge 186
_journal_year 1985
_journal_page_first 685
_journal_name_full 'J.Chem.Soc.,Dalton Trans. '
loop_
_publ_author_name
"J.E.Salt"
"G.S.Girolami"
"G.Wilkinson"
"M.Motevalli"
"M.Thornton-Pett"
"M.B.Hursthouse"
_chemical_name_systematic
;
trans-bis(1,2-bis(Dimethylphosphino)ethane)-bis(dinitrogen)-chromium(0)
;
_chemical_melting_point 623.15
_cell_volume    527.008
_exptl_crystal_colour 'red-orange'
_exptl_crystal_density_diffrn 1.28
_exptl_special_details
;
Melts above 623.15K

;
_diffrn_ambient_temperature ?
_diffrn_special_details
;
The study was carried out at room temperature,in the range 283-303K

;
#These two values have been output from a single CSD field.
_refine_ls_R_factor_gt 0.0243
_refine_ls_wR_factor_gt 0.0243
_symmetry_cell_setting triclinic
_symmetry_space_group_name_H-M 'P -1'
_symmetry_Int_Tables_number 2
loop_
_symmetry_equiv_pos_site_id
_symmetry_equiv_pos_as_xyz
1 x,y,z
2 -x,-y,-z
_cell_length_a 7.575(1)
_cell_length_b 8.667(2)
_cell_length_c 9.091(1)
_cell_angle_alpha 103.80(1)
_cell_angle_beta 106.13(1)
_cell_angle_gamma 103.58(1)
_cell_formula_units_Z 1
loop_
_atom_type_symbol
_atom_type_radius_bond
C 0.68
H 0.23
Cr 1.35
N 0.68
P 1.05
loop_
_atom_site_label
_atom_site_type_symbol
_atom_site_fract_x
_atom_site_fract_y
_atom_site_fract_z
Cr1 Cr 0.00000 0.00000 1.00000
N1 N -0.1818(2) 0.1059(1) 1.0321(1)
N2 N -0.2871(2) 0.1731(2) 1.0524(2)
P1 P 0.0932(1) 0.1837(5) 0.8700(5)
C1 C -0.0799(3) 0.2391(3) 0.7238(2)
C2 C 0.2618(3) 0.1527(3) 0.7644(3)
C3 C 0.2298(3) 0.3947(2) 1.0211(2)
P2 P 0.2341(1) 0.2053(5) 1.2258(5)
C4 C 0.4407(3) 0.1682(3) 1.3562(3)
C5 C 0.1552(3) 0.3208(3) 1.3778(2)
C6 C 0.3657(3) 0.3786(2) 1.1698(2)
H1 H -0.0237(35) 0.3422(29) 0.7047(29)
H2 H -0.1398(29) 0.1512(25) 0.6216(26)
H3 H -0.1749(32) 0.2619(26) 0.7655(26)
H4 H 0.2931(30) 0.2390(27) 0.7192(27)
H5 H 0.1946(31) 0.0443(27) 0.6690(26)
H6 H 0.3675(36) 0.1549(29) 0.8329(29)
H7 H 0.2869(26) 0.4689(22) 0.9698(22)
H8 H 0.1344(28) 0.4341(23) 1.0488(23)
H9 H 0.5372(32) 0.2679(28) 1.4277(28)
H10 H 0.3966(36) 0.0917(32) 1.4126(30)
H11 H 0.4990(37) 0.1091(32) 1.2988(32)
H12 H 0.2663(34) 0.4031(29) 1.4665(29)
H13 H 0.0655(38) 0.3656(30) 1.3200(29)
H14 H 0.0936(30) 0.2494(24) 1.4232(24)
H15 H 0.4168(28) 0.4841(23) 1.2613(24)
H16 H 0.4711(33) 0.3436(26) 1.1441(26)
N1A N 0.1818(2) -0.1059(1) 0.9679(1)
P1A P -0.0932(1) -0.1837(5) 1.1300(5)
P2A P -0.2341(1) -0.2053(5) 0.7742(5)
N2A N 0.2871(2) -0.1731(2) 0.9476(2)
C1A C 0.0799(3) -0.2391(3) 1.2762(2)
C2A C -0.2618(3) -0.1527(3) 1.2356(3)
C3A C -0.2298(3) -0.3947(2) 0.9789(2)
C4A C -0.4407(3) -0.1682(3) 0.6438(3)
C5A C -0.1552(3) -0.3208(3) 0.6222(2)
C6A C -0.3657(3) -0.3786(2) 0.8302(2)
H1A H 0.0237(35) -0.3422(29) 1.2953(29)
H2A H 0.1398(29) -0.1512(25) 1.3784(26)
H3A H 0.1749(32) -0.2619(26) 1.2345(26)
H4A H -0.2931(30) -0.2390(27) 1.2808(27)
H5A H -0.1946(31) -0.0443(27) 1.3310(26)
H6A H -0.3675(36) -0.1549(29) 1.1671(29)
H7A H -0.2869(26) -0.4689(22) 1.0302(22)
H8A H -0.1344(28) -0.4341(23) 0.9512(23)
H9A H -0.5372(32) -0.2679(28) 0.5723(28)
H10A H -0.3966(36) -0.0917(32) 0.5874(30)
H11A H -0.4990(37) -0.1091(32) 0.7012(32)
H12A H -0.2663(34) -0.4031(29) 0.5335(29)
H13A H -0.0655(38) -0.3656(30) 0.6800(29)
H14A H -0.0936(30) -0.2494(24) 0.5768(24)
H15A H -0.4168(28) -0.4841(23) 0.7387(24)
H16A H -0.4711(33) -0.3436(26) 0.8559(26)
#END
