
#######################################################################
#
#                 Cambridge Crystallographic Data Centre
#                                CCDC
#
#######################################################################
#
# If this CIF has been generated from an entry in the Cambridge
# Structural Database, then it will include bibliographic, chemical,
# crystal, experimental, refinement or atomic coordinate data resulting
# from the CCDC's data processing and validation procedures.
#
#######################################################################

data_CSD_CIF_CANXAQ
_audit_creation_date 1984-06-02
_audit_creation_method CSD-ConQuest-V1
_database_code_CSD CANXAQ
_database_code_depnum_ccdc_archive 'CCDC 1120204'
_chemical_formula_sum 'C12 H9 Cr1 N1 O3'
_chemical_formula_moiety
;
C12 H9 Cr1 N1 O3
;
_journal_coden_Cambridge 36
_journal_volume 255
_journal_year 1983
_journal_page_first 317
_journal_name_full 'J.Organomet.Chem. '
loop_
_publ_author_name
"J.-C.Boutonnet"
"J.Levisalles"
"R.Rose"
"G.Precigoux"
"C.Courseille"
"N.Platzer"
_chemical_name_systematic
;
(\h^6^-N-Methylindole)-tricarbonyl-chromium
;
_cell_volume    560.594
_diffrn_ambient_temperature ?
_diffrn_special_details
;
The study was carried out at room temperature,in the range 283-303K

;
#These two values have been output from a single CSD field.
_refine_ls_R_factor_gt 0.071
_refine_ls_wR_factor_gt 0.071
_symmetry_cell_setting triclinic
_symmetry_space_group_name_H-M 'P -1'
_symmetry_Int_Tables_number 2
loop_
_symmetry_equiv_pos_site_id
_symmetry_equiv_pos_as_xyz
1 x,y,z
2 -x,-y,-z
_cell_length_a 6.603(2)
_cell_length_b 8.439(3)
_cell_length_c 10.641(4)
_cell_angle_alpha 83.24(1)
_cell_angle_beta 84.47(1)
_cell_angle_gamma 106.08(2)
_cell_formula_units_Z 2
loop_
_atom_type_symbol
_atom_type_radius_bond
C 0.68
H 0.23
Cr 1.35
N 0.68
O 0.68
loop_
_atom_site_label
_atom_site_type_symbol
_atom_site_fract_x
_atom_site_fract_y
_atom_site_fract_z
Cr1 Cr 0.49000 0.75710 0.71910
N1 N 0.28200 1.03600 0.84900
C1 C 0.25500 0.97500 0.97500
C2 C 0.21500 0.80700 0.99700
C3 C 0.18000 0.60100 0.82600
C4 C 0.17200 0.59400 0.70000
C5 C 0.21800 0.74200 0.61100
C6 C 0.26700 0.89900 0.65300
C7 C 0.25700 0.90300 0.78200
C8 C 0.21400 0.75700 0.87200
C9 C 0.34300 1.20900 0.79100
C10 C 0.63500 0.67900 0.59900
C11 C 0.71000 0.94800 0.69600
C12 C 0.62400 0.66100 0.83200
O1 O 0.73100 0.63000 0.52400
O2 O 0.84900 1.07200 0.68400
O3 O 0.70500 0.59700 0.90600
H1 H 0.27000 1.05000 1.04000
H2 H 0.19000 0.73000 1.08000
H3 H 0.16000 0.49000 0.89000
H4 H 0.14000 0.49000 0.67000
H5 H 0.21000 0.73000 0.52000
H6 H 0.31000 1.00000 0.59000
H7 H 0.48000 1.26000 0.74000
H8 H 0.25000 1.23000 0.73000
H9 H 0.34000 1.27000 0.87000
#END
