
#######################################################################
#
#                 Cambridge Crystallographic Data Centre
#                                CCDC
#
#######################################################################
#
# If this CIF has been generated from an entry in the Cambridge
# Structural Database, then it will include bibliographic, chemical,
# crystal, experimental, refinement or atomic coordinate data resulting
# from the CCDC's data processing and validation procedures.
#
#######################################################################

data_CSD_CIF_CARQUH
_audit_creation_date 2000-01-21
_audit_creation_method CSD-ConQuest-V1
_database_code_CSD CARQUH
_database_code_depnum_ccdc_archive 'CCDC 136696'
_chemical_formula_sum 'C12 H16 Fe1 N2 O8'
_chemical_formula_moiety
;
C12 H16 Fe1 N2 O8
;
_journal_coeditor_code "IUCr QA0179"
_journal_data_validation_number IUC9900127
_journal_coden_Cambridge 591
_journal_volume 55
_journal_year 1999
_journal_page_first 9900127
_journal_name_full 'Acta Crystallogr.,Sect.C:Cryst.Struct.Commun. '
loop_
_publ_author_name
"Qun Liu"
"Yongge Wei"
"Wei Wang"
"Shiwei Zhang"
_chemical_name_systematic
;
Tetra-aqua-bis(pyridine-4-carboxylate-N)-iron(ii)
;
_cell_volume    353.796
_exptl_crystal_colour 'orange-yellow'
_exptl_crystal_density_diffrn 1.747
_exptl_crystal_description 'block'
_diffrn_ambient_temperature ?
_diffrn_special_details
;
The study was carried out at room temperature,in the range 283-303K

;
#These two values have been output from a single CSD field.
_refine_ls_R_factor_gt 0.031
_refine_ls_wR_factor_gt 0.031
_symmetry_cell_setting triclinic
_symmetry_space_group_name_H-M 'P -1'
_symmetry_Int_Tables_number 2
loop_
_symmetry_equiv_pos_site_id
_symmetry_equiv_pos_as_xyz
1 x,y,z
2 -x,-y,-z
_cell_length_a 6.349(1)
_cell_length_b 6.936(1)
_cell_length_c 9.282(2)
_cell_angle_alpha 95.62(3)
_cell_angle_beta 104.58(3)
_cell_angle_gamma 113.44(3)
_cell_formula_units_Z 1
loop_
_atom_type_symbol
_atom_type_radius_bond
C 0.68
H 0.23
Fe 1.34
N 0.68
O 0.68
loop_
_atom_site_label
_atom_site_type_symbol
_atom_site_fract_x
_atom_site_fract_y
_atom_site_fract_z
Fe1 Fe 0.00000 0.00000 0.00000
O1 O 0.9243(2) 0.4164(2) 0.73357(14)
O2 O 0.5900(2) 0.2846(2) 0.80144(14)
O3 O 0.1681(2) -0.2001(2) -0.04365(14)
O4 O 0.2184(2) 0.2551(2) -0.08551(16)
N1 N 0.2493(2) 0.1438(2) 0.23535(14)
C1 C 0.1573(3) 0.1480(3) 0.34970(18)
C2 C 0.2950(3) 0.2091(3) 0.50166(17)
C3 C 0.5433(3) 0.2725(2) 0.54022(16)
C4 C 0.6413(3) 0.2772(3) 0.42265(18)
C5 C 0.4900(3) 0.2113(3) 0.27293(18)
C6 C 0.6984(3) 0.3301(2) 0.70498(17)
H1 H -0.010(4) 0.105(4) 0.323(2)
H2 H 0.221(4) 0.207(4) 0.574(3)
H3 H 0.814(4) 0.328(4) 0.444(3)
H4 H 0.557(4) 0.203(4) 0.195(3)
H5 H 0.241(5) -0.232(5) 0.030(3)
H6 H 0.099(5) -0.304(4) -0.105(3)
H7 H 0.333(6) 0.270(5) -0.119(3)
H8 H 0.140(6) 0.317(5) -0.131(4)
O3A O -0.1681(2) 0.2001(2) 0.04365(14)
H5A H -0.241(5) 0.232(5) -0.030(3)
H6A H -0.099(5) 0.304(4) 0.105(3)
O4A O -0.2184(2) -0.2551(2) 0.08551(16)
H7A H -0.333(6) -0.270(5) 0.119(3)
H8A H -0.140(6) -0.317(5) 0.131(4)
N1A N -0.2493(2) -0.1438(2) -0.23535(14)
C1A C -0.1573(3) -0.1480(3) -0.34970(18)
C2A C -0.2950(3) -0.2091(3) -0.50166(17)
C3A C -0.5433(3) -0.2725(2) -0.54022(16)
C4A C -0.6413(3) -0.2772(3) -0.42265(18)
C5A C -0.4900(3) -0.2113(3) -0.27293(18)
H4A H -0.557(4) -0.203(4) -0.195(3)
H3A H -0.814(4) -0.328(4) -0.444(3)
C6A C -0.6984(3) -0.3301(2) -0.70498(17)
O1A O -0.9243(2) -0.4164(2) -0.73357(14)
O2A O -0.5900(2) -0.2846(2) -0.80144(14)
H2A H -0.221(4) -0.207(4) -0.574(3)
H1A H 0.010(4) -0.105(4) -0.323(2)
#END
