
#######################################################################
#
#                 Cambridge Crystallographic Data Centre
#                                CCDC
#
#######################################################################
#
# If this CIF has been generated from an entry in the Cambridge
# Structural Database, then it will include bibliographic, chemical,
# crystal, experimental, refinement or atomic coordinate data resulting
# from the CCDC's data processing and validation procedures.
#
#######################################################################

data_CSD_CIF_CASSEV
_audit_creation_date 2005-09-21
_audit_creation_method CSD-ConQuest-V1
_database_code_CSD CASSEV
_database_code_depnum_ccdc_archive 'CCDC 282696'
_chemical_formula_sum 'C20 H28 Co1 N6 O14'
_chemical_formula_moiety
;
2(C3 H5 N2 1+),C14 H10 Co1 N2 O10 2-,4(H2 O1)
;
_journal_coeditor_code "IUCr WW6403"
_journal_coden_Cambridge 1370
_journal_volume 61
_journal_year 2005
_journal_page_first m1514
_journal_name_full 'Acta Crystallogr.,Sect.E:Struct.Rep.Online '
loop_
_publ_author_name
"Qian-Jun Deng"
"Zhuang-Tian Liu"
"Ming-Hua Zeng"
_chemical_name_systematic
;
bis(Imidazolium) diaqua-bis(pyridine-2,5-dicarboxylato-N,O)-cobalt(ii) 
tetrahydrate
;
_cell_volume    677.001
_exptl_crystal_colour 'red'
_exptl_crystal_density_diffrn 1.559
_exptl_crystal_description 'block'
_diffrn_ambient_temperature 293
#These two values have been output from a single CSD field.
_refine_ls_R_factor_gt 0.0526
_refine_ls_wR_factor_gt 0.0526
_symmetry_cell_setting triclinic
_symmetry_space_group_name_H-M 'P -1'
_symmetry_Int_Tables_number 2
loop_
_symmetry_equiv_pos_site_id
_symmetry_equiv_pos_as_xyz
1 x,y,z
2 -x,-y,-z
_cell_length_a 8.844(5)
_cell_length_b 9.062(4)
_cell_length_c 9.635(4)
_cell_angle_alpha 97.70(3)
_cell_angle_beta 116.80(3)
_cell_angle_gamma 93.26(3)
_cell_formula_units_Z 1
loop_
_atom_type_symbol
_atom_type_radius_bond
C 0.68
H 0.23
Co 1.33
N 0.68
O 0.68
loop_
_atom_site_label
_atom_site_type_symbol
_atom_site_fract_x
_atom_site_fract_y
_atom_site_fract_z
Co1 Co 0.00000 1.00000 0.00000
C1 C 0.2736(3) 0.8200(3) 0.0206(3)
C2 C 0.4307(3) 0.7754(3) 0.0503(3)
H1 H 0.43750 0.68040 0.00490
C3 C 0.5788(3) 0.8748(3) 0.1494(3)
H2 H 0.68560 0.84670 0.17100
C4 C 0.5652(3) 1.0167(3) 0.2156(3)
C5 C 0.4020(3) 1.0539(3) 0.1756(3)
H3 H 0.39200 1.14940 0.21720
C6 C 0.1052(3) 0.7173(3) -0.0814(3)
C7 C 0.7189(3) 1.1315(3) 0.3274(3)
C8 C 0.7564(5) 0.5958(4) 0.3782(5)
H4 H 0.80880 0.53340 0.33340
C9 C 0.5654(4) 0.6883(5) 0.4383(5)
H5 H 0.46290 0.70050 0.44090
C10 C 0.7137(5) 0.7796(4) 0.5225(4)
H6 H 0.73320 0.86660 0.59470
N1 N 0.2578(3) 0.9595(2) 0.0800(3)
N2 N 0.8303(3) 0.7213(3) 0.4826(3)
H7 H 0.93510 0.75980 0.51940
N3 N 0.5929(4) 0.5746(3) 0.3483(4)
H8 H 0.51770 0.50130 0.28310
O1 O -0.0304(2) 0.7744(2) -0.1042(2)
O2 O 0.1123(3) 0.5860(2) -0.1318(3)
O3 O 0.8647(3) 1.0970(3) 0.3553(3)
O4 O 0.6911(3) 1.2515(2) 0.3855(3)
O5 O 0.0070(3) 0.9328(3) 0.2012(3)
H9 H -0.040(6) 0.967(5) 0.236(6)
H10 H 0.024(6) 0.843(5) 0.219(5)
O6 O 0.1152(4) 0.6748(3) 0.2941(4)
H11 H 0.174(8) 0.686(6) 0.408(8)
H12 H 0.056(8) 0.592(7) 0.256(7)
O7 O 0.3018(3) 0.4042(3) 0.0960(4)
H13 H 0.217(7) 0.357(6) 0.113(6)
H14 H 0.249(8) 0.457(7) 0.046(7)
C1A C -0.2736(3) 1.1800(3) -0.0206(3)
C2A C -0.4307(3) 1.2246(3) -0.0503(3)
H1A H -0.43750 1.31960 -0.00490
C3A C -0.5788(3) 1.1252(3) -0.1494(3)
H2A H -0.68560 1.15330 -0.17100
C4A C -0.5652(3) 0.9833(3) -0.2156(3)
C5A C -0.4020(3) 0.9461(3) -0.1756(3)
H3A H -0.39200 0.85060 -0.21720
C6A C -0.1052(3) 1.2827(3) 0.0814(3)
C7A C -0.7189(3) 0.8685(3) -0.3274(3)
N1A N -0.2578(3) 1.0405(2) -0.0800(3)
O1A O 0.0304(2) 1.2256(2) 0.1042(2)
O2A O -0.1123(3) 1.4140(2) 0.1318(3)
O3A O -0.8647(3) 0.9030(3) -0.3553(3)
O4A O -0.6911(3) 0.7485(2) -0.3855(3)
O5A O -0.0070(3) 1.0672(3) -0.2012(3)
H9A H 0.040(6) 1.033(5) -0.236(6)
H10A H -0.024(6) 1.157(5) -0.219(5)
#END
