
#######################################################################
#
#                 Cambridge Crystallographic Data Centre
#                                CCDC
#
#######################################################################
#
# If this CIF has been generated from an entry in the Cambridge
# Structural Database, then it will include bibliographic, chemical,
# crystal, experimental, refinement or atomic coordinate data resulting
# from the CCDC's data processing and validation procedures.
#
#######################################################################

data_CSD_CIF_CATHIP
_audit_creation_date 2005-12-21
_audit_creation_method CSD-ConQuest-V1
_database_code_CSD CATHIP
_database_code_depnum_ccdc_archive 'CCDC 255533'
_chemical_formula_sum 'C14 H20 Mn1 N10 S2'
_chemical_formula_moiety
;
C14 H20 Mn1 N10 S2
;
_journal_coden_Cambridge 1003
_journal_volume 35
_journal_year 2005
_journal_page_first 541
_journal_name_full 'J.Chem.Cryst. '
loop_
_publ_author_name
"G.A.van Albada"
"A.Mohamadou"
"A.M.M.Lanfredi"
"I.Mutikainen"
"U.Turpeinen"
"F.Ugozzoli"
"J.Reedijk"
_chemical_name_systematic
;
trans-bis(2,2'-biimidazoline)-bis(isothiocyanato)-manganese(ii)
;
_cell_volume    497.651
_exptl_crystal_density_diffrn 1.493
_exptl_special_details
;
isostructural with the Ni analogue

;
_diffrn_ambient_temperature 293
#These two values have been output from a single CSD field.
_refine_ls_R_factor_gt 0.0351
_refine_ls_wR_factor_gt 0.0351
_symmetry_cell_setting triclinic
_symmetry_space_group_name_H-M 'P -1'
_symmetry_Int_Tables_number 2
loop_
_symmetry_equiv_pos_site_id
_symmetry_equiv_pos_as_xyz
1 x,y,z
2 -x,-y,-z
_cell_length_a 8.393(5)
_cell_length_b 8.946(5)
_cell_length_c 7.659(5)
_cell_angle_alpha 104.440(5)
_cell_angle_beta 106.880(5)
_cell_angle_gamma 66.180(5)
_cell_formula_units_Z 1
loop_
_atom_type_symbol
_atom_type_radius_bond
C 0.68
H 0.23
Mn 1.35
N 0.68
S 1.02
loop_
_atom_site_label
_atom_site_type_symbol
_atom_site_fract_x
_atom_site_fract_y
_atom_site_fract_z
Mn1 Mn 1.00000 0.00000 1.00000
S1 S 1.57257(7) -0.42247(6) 1.25697(10)
C1 C 1.1896(4) 0.4469(3) 1.2418(4)
N1 N 1.1167(2) 0.20087(18) 1.1299(2)
N2 N 1.2551(3) 0.3478(3) 1.0779(4)
C2 C 1.2058(2) 0.2150(2) 1.0284(3)
N3 N 1.1656(2) -0.01522(18) 0.8066(3)
C3 C 1.2352(3) -0.1257(3) 0.6448(4)
C4 C 1.2432(3) 0.0898(2) 0.8623(3)
C5 C 1.0924(3) 0.3470(3) 1.2774(4)
C6 C 1.3750(3) -0.2890(2) 1.1863(3)
N4 N 1.2362(3) -0.1919(2) 1.1388(3)
N5 N 1.3625(4) 0.0751(3) 0.7683(4)
C7 C 1.3480(5) -0.0461(4) 0.6012(5)
H1 H 1.303(3) -0.233(3) 0.675(4)
H2 H 1.138(3) -0.141(3) 0.547(4)
H3 H 1.113(4) 0.559(4) 1.227(5)
H4 H 1.284(4) 0.456(3) 1.350(4)
H5 H 0.958(4) 0.407(3) 1.274(4)
H6 H 1.143(4) 0.325(3) 1.413(5)
H7 H 1.463(4) -0.120(4) 0.579(5)
H8 H 1.281(5) 0.011(5) 0.483(6)
H9 H 1.316(4) 0.364(3) 1.027(4)
H10 H 1.401(6) 0.164(5) 0.781(6)
S1A S 0.42743(7) 0.42247(6) 0.74303(10)
C1A C 0.8104(4) -0.4469(3) 0.7582(4)
N1A N 0.8833(2) -0.20087(18) 0.8701(2)
N2A N 0.7449(3) -0.3478(3) 0.9221(4)
C2A C 0.7942(2) -0.2150(2) 0.9716(3)
N3A N 0.8344(2) 0.01522(18) 1.1934(3)
C3A C 0.7648(3) 0.1257(3) 1.3552(4)
C4A C 0.7568(3) -0.0898(2) 1.1377(3)
C5A C 0.9076(3) -0.3470(3) 0.7226(4)
C6A C 0.6250(3) 0.2890(2) 0.8137(3)
N4A N 0.7638(3) 0.1919(2) 0.8612(3)
N5A N 0.6375(4) -0.0751(3) 1.2317(4)
C7A C 0.6520(5) 0.0461(4) 1.3988(5)
H1A H 0.697(3) 0.233(3) 1.325(4)
H2A H 0.862(3) 0.141(3) 1.453(4)
H3A H 0.887(4) -0.559(4) 0.773(5)
H4A H 0.716(4) -0.456(3) 0.650(4)
H5A H 1.042(4) -0.407(3) 0.726(4)
H6A H 0.857(4) -0.325(3) 0.587(5)
H7A H 0.537(4) 0.120(4) 1.421(5)
H8A H 0.719(5) -0.011(5) 1.517(6)
H9A H 0.684(4) -0.364(3) 0.973(4)
H10A H 0.599(6) -0.164(5) 1.219(6)
#END
