
#######################################################################
#
#                 Cambridge Crystallographic Data Centre
#                                CCDC
#
#######################################################################
#
# If this CIF has been generated from an entry in the Cambridge
# Structural Database, then it will include bibliographic, chemical,
# crystal, experimental, refinement or atomic coordinate data resulting
# from the CCDC's data processing and validation procedures.
#
#######################################################################

data_CSD_CIF_CATYOL
_audit_creation_date 1984-08-24
_audit_creation_method CSD-ConQuest-V1
_database_code_CSD CATYOL
_database_code_depnum_ccdc_archive 'CCDC 1120790'
_chemical_formula_sum 'C6 H3 Cl1 Cr1 O4'
_chemical_formula_moiety
;
C6 H3 Cl1 Cr1 O4
;
_journal_coden_Cambridge 644
_journal_volume 38
_journal_year 1983
_journal_page_first 1431
_journal_name_full 'Z.Naturforsch.,B:Chem.Sci. '
loop_
_publ_author_name
"C.Kruger"
"R.Goddard"
"K.H.Claus"
_chemical_name_systematic
;
Tetracarbonyl-chloro-ethylidyne-chromium
;
_cell_volume    899.941
_exptl_crystal_colour 'yellow'
_exptl_crystal_density_diffrn 1.67
_diffrn_ambient_temperature 100
#These two values have been output from a single CSD field.
_refine_ls_R_factor_gt 0.025
_refine_ls_wR_factor_gt 0.025
_symmetry_cell_setting monoclinic
_symmetry_space_group_name_H-M 'P 21/c'
_symmetry_Int_Tables_number 14
loop_
_symmetry_equiv_pos_site_id
_symmetry_equiv_pos_as_xyz
1 x,y,z
2 -x,1/2+y,1/2-z
3 -x,-y,-z
4 x,-1/2-y,-1/2+z
_cell_length_a 6.504(2)
_cell_length_b 11.261(5)
_cell_length_c 12.756(6)
_cell_angle_alpha 90
_cell_angle_beta 105.58(3)
_cell_angle_gamma 90
_cell_formula_units_Z 4
loop_
_atom_type_symbol
_atom_type_radius_bond
C 0.68
H 0.23
Cl 0.99
Cr 1.35
O 0.68
loop_
_atom_site_label
_atom_site_type_symbol
_atom_site_fract_x
_atom_site_fract_y
_atom_site_fract_z
Cr1 Cr 0.26980 0.17330 0.24800
Cl1 Cl 0.34640 0.32900 0.13070
O1 O 0.73650 0.19370 0.37780
O2 O 0.12680 0.36670 0.38860
O3 O -0.18950 0.15380 0.10720
O4 O 0.40690 -0.01910 0.10460
C1 C 0.56390 0.18830 0.33020
C2 C 0.18040 0.29770 0.33700
C3 C -0.01890 0.16330 0.15690
C4 C 0.35850 0.05390 0.15480
C5 C 0.22040 0.06510 0.33210
C6 C 0.18070 -0.02840 0.40430
H1 H 0.21100 0.00440 0.48020
H2 H 0.28300 -0.09300 0.40410
H3 H 0.03240 -0.05320 0.38200
#END
