
#######################################################################
#
#                 Cambridge Crystallographic Data Centre
#                                CCDC
#
#######################################################################
#
# If this CIF has been generated from an entry in the Cambridge
# Structural Database, then it will include bibliographic, chemical,
# crystal, experimental, refinement or atomic coordinate data resulting
# from the CCDC's data processing and validation procedures.
#
#######################################################################

data_CSD_CIF_CATYIF
_audit_creation_date 1984-08-24
_audit_creation_method CSD-ConQuest-V1
_database_code_CSD CATYIF
_database_code_depnum_ccdc_archive 'CCDC 1120789'
_chemical_formula_sum 'C9 H8 Cr1 O6'
_chemical_formula_moiety
;
C9 H8 Cr1 O6
;
_journal_coden_Cambridge 644
_journal_volume 38
_journal_year 1983
_journal_page_first 1431
_journal_name_full 'Z.Naturforsch.,B:Chem.Sci. '
loop_
_publ_author_name
"C.Kruger"
"R.Goddard"
"K.H.Claus"
_chemical_name_systematic
;
Pentacarbonyl-(ethoxy methylcarbene)-chromium
;
_cell_volume    557.866
_exptl_crystal_colour 'yellow'
_exptl_crystal_density_diffrn 1.57
_diffrn_ambient_temperature 100
_refine_special_details
;
The C7 methyl group shows rotational disorder about its C atom. 3 hydrogen 
positions have been retained: H71,H72 and H73.
;
#These two values have been output from a single CSD field.
_refine_ls_R_factor_gt 0.026
_refine_ls_wR_factor_gt 0.026
_symmetry_cell_setting triclinic
_symmetry_space_group_name_H-M 'P -1'
_symmetry_Int_Tables_number 2
loop_
_symmetry_equiv_pos_site_id
_symmetry_equiv_pos_as_xyz
1 x,y,z
2 -x,-y,-z
_cell_length_a 8.096(1)
_cell_length_b 6.302(1)
_cell_length_c 15.700(1)
_cell_angle_alpha 119.800(5)
_cell_angle_beta 120.795(5)
_cell_angle_gamma 90.648(6)
_cell_formula_units_Z 2
loop_
_atom_type_symbol
_atom_type_radius_bond
C 0.68
H 0.23
Cr 1.35
O 0.68
loop_
_atom_site_label
_atom_site_type_symbol
_atom_site_fract_x
_atom_site_fract_y
_atom_site_fract_z
Cr1 Cr 0.38480 0.05310 0.22090
O1 O 0.49220 0.27700 0.11440
O2 O 0.57350 0.60880 0.45100
O3 O 0.24850 -0.20280 0.30760
O4 O 0.17540 -0.49170 -0.01990
O5 O -0.02530 0.13480 0.11720
O6 O 0.80330 0.03820 0.38880
C1 C 0.45310 0.19350 0.15500
C2 C 0.50440 0.39670 0.36590
C3 C 0.30460 -0.10240 0.27820
C4 C 0.25720 -0.28760 0.07100
C5 C 0.12970 0.10330 0.15580
C6 C 0.65920 -0.00860 0.28320
C7 C 0.73080 -0.12850 0.20360
C8 C 0.79550 0.15530 0.49300
C9 C 0.96740 0.41810 0.59560
H1 H 0.62560 -0.27380 0.12260
H2 H 0.82660 -0.19540 0.22610
H3 H 0.77380 0.00240 0.19810
H4 H 0.65900 0.16840 0.46800
H5 H 0.81400 0.03300 0.51600
H6 H 1.09890 0.41030 0.61390
H7 H 0.97340 0.49260 0.67120
H8 H 0.94730 0.53760 0.57180
#END
