
#######################################################################
#
#                 Cambridge Crystallographic Data Centre
#                                CCDC
#
#######################################################################
#
# If this CIF has been generated from an entry in the Cambridge
# Structural Database, then it will include bibliographic, chemical,
# crystal, experimental, refinement or atomic coordinate data resulting
# from the CCDC's data processing and validation procedures.
#
#######################################################################

data_CSD_CIF_CAXTIH
_audit_creation_date 2017-05-26
_audit_creation_method CSD-ConQuest-V1
_database_code_CSD CAXTIH
_database_code_depnum_ccdc_archive 'CCDC 1517399'
_chemical_formula_sum 'C20 H18 Mn1 N8 O2 S2'
_chemical_formula_moiety
;
C20 H18 Mn1 N8 O2 S2
;
_journal_coden_Cambridge 154
_journal_volume 70
_journal_year 2017
_journal_page_first 516
_journal_name_full 'Aust.J.Chem. '
loop_
_publ_author_name
"Y.P.Prananto"
"A.Urbatsch"
"B.Moubaraki"
"K.S.Murray"
"DavidR.Turner"
"G.B.Deacon"
"S.R.Batten"
_chemical_name_systematic
;
bis(2-cyano-N-((pyridin-3-yl)methyl)acetamide)-bis(isothiocyanato)-manganese(i
i)
;
_chemical_melting_point 477.15
_cell_volume   1171.992
_exptl_crystal_colour 'colorless'
_exptl_crystal_density_diffrn 1.478
_exptl_crystal_description 'block'
_diffrn_ambient_temperature 123
#These two values have been output from a single CSD field.
_refine_ls_R_factor_gt 0.067
_refine_ls_wR_factor_gt 0.067
_symmetry_cell_setting monoclinic
_symmetry_space_group_name_H-M 'C m'
_symmetry_Int_Tables_number 8
loop_
_symmetry_equiv_pos_site_id
_symmetry_equiv_pos_as_xyz
1 x,y,z
2 x,-y,z
3 1/2+x,1/2+y,z
4 1/2+x,1/2-y,z
_cell_length_a 11.910(2)
_cell_length_b 20.216(4)
_cell_length_c 4.8736(10)
_cell_angle_alpha 90
_cell_angle_beta 92.836(6)
_cell_angle_gamma 90
_cell_formula_units_Z 2
loop_
_atom_type_symbol
_atom_type_radius_bond
C 0.68
H 0.23
Mn 1.61
N 0.68
O 0.68
S 1.02
loop_
_atom_site_label
_atom_site_type_symbol
_atom_site_fract_x
_atom_site_fract_y
_atom_site_fract_z
Mn1 Mn 0.50708(14) 0.50000 0.9584(2)
S1 S 0.1561(4) 0.50000 1.3507(11)
S2 S 0.8703(4) 0.50000 1.3057(10)
O1 O 0.8884(8) 0.6809(5) 1.0399(17)
N1 N 0.3543(13) 0.50000 1.080(3)
N2 N 0.6367(13) 0.50000 1.216(3)
N3 N 0.5217(7) 0.5835(5) 0.7363(18)
N4 N 0.8434(7) 0.6685(5) 0.5882(17)
H1 H 0.86180 0.64880 0.43570
N5 N 1.1864(10) 0.6688(6) 1.043(2)
C1 C 0.2692(13) 0.50000 1.191(3)
C2 C 0.7394(14) 0.50000 1.256(3)
C3 C 1.1078(12) 0.6457(7) 0.928(3)
C4 C 1.0123(9) 0.6161(6) 0.777(2)
H2 H 0.99910 0.57100 0.84750
H3 H 1.02800 0.61280 0.58020
C5 C 0.9061(11) 0.6595(7) 0.812(2)
C6 C 0.7455(9) 0.7095(7) 0.584(3)
H4 H 0.74700 0.73950 0.42400
H5 H 0.74900 0.73740 0.75180
C7 C 0.6335(10) 0.6719(6) 0.571(2)
C8 C 0.6203(10) 0.6183(6) 0.730(2)
H6 H 0.68270 0.60380 0.84310
C9 C 0.4336(9) 0.6059(7) 0.582(2)
H7 H 0.36370 0.58330 0.58470
C10 C 0.4431(10) 0.6624(8) 0.417(2)
H8 H 0.37970 0.67760 0.30900
C11 C 0.5424(9) 0.6957(6) 0.410(2)
H9 H 0.54930 0.73390 0.29870
O1A O 0.8884(8) 0.3191(5) 1.0399(17)
N3A N 0.5217(7) 0.4165(5) 0.7363(18)
N4A N 0.8434(7) 0.3315(5) 0.5882(17)
H1A H 0.86180 0.35120 0.43570
N5A N 1.1864(10) 0.3312(6) 1.043(2)
C3A C 1.1078(12) 0.3543(7) 0.928(3)
C4A C 1.0123(9) 0.3839(6) 0.777(2)
H2A H 0.99910 0.42900 0.84750
H3A H 1.02800 0.38720 0.58020
C5A C 0.9061(11) 0.3405(7) 0.812(2)
C6A C 0.7455(9) 0.2905(7) 0.584(3)
H4A H 0.74700 0.26050 0.42400
H5A H 0.74900 0.26260 0.75180
C7A C 0.6335(10) 0.3281(6) 0.571(2)
C8A C 0.6203(10) 0.3817(6) 0.730(2)
H6A H 0.68270 0.39620 0.84310
C9A C 0.4336(9) 0.3941(7) 0.582(2)
H7A H 0.36370 0.41670 0.58470
C10A C 0.4431(10) 0.3376(8) 0.417(2)
H8A H 0.37970 0.32240 0.30900
C11A C 0.5424(9) 0.3043(6) 0.410(2)
H9A H 0.54930 0.26610 0.29870
#END
