
#######################################################################
#
#                 Cambridge Crystallographic Data Centre
#                                CCDC
#
#######################################################################
#
# If this CIF has been generated from an entry in the Cambridge
# Structural Database, then it will include bibliographic, chemical,
# crystal, experimental, refinement or atomic coordinate data resulting
# from the CCDC's data processing and validation procedures.
#
#######################################################################

data_CSD_CIF_CAZZEJ
_audit_creation_date 2006-04-04
_audit_creation_method CSD-ConQuest-V1
_database_code_CSD CAZZEJ
_database_code_depnum_ccdc_archive 'CCDC 291198'
_chemical_formula_sum 'C27 H24 Fe1 N2'
_chemical_formula_moiety
;
C27 H24 Fe1 N2
;
_journal_coden_Cambridge 35
_journal_volume 70
_journal_year 2005
_journal_page_first 8332
_journal_name_full 'J.Org.Chem. '
loop_
_publ_author_name
"J.G.Seitzberg"
"C.Dissing"
"I.Sotofte"
"P.-O.Norrby"
"M.Johannsen"
_chemical_name_systematic
;
(S~p~)-2-(1-Naphthyl)-1-(4-(dimethylamino)-2-pyridyl)ferrocene
;
_chemical_melting_point 485.15
_cell_volume    513.780
_exptl_crystal_colour 'orange'
_exptl_crystal_density_diffrn 1.397
_exptl_special_details
;
Melting point range 485.15-486.15K

;
_exptl_crystal_preparation 'toluene/hexane'
_diffrn_ambient_temperature 120
#These two values have been output from a single CSD field.
_refine_ls_R_factor_gt 0.0353
_refine_ls_wR_factor_gt 0.0353
_symmetry_cell_setting triclinic
_symmetry_space_group_name_H-M 'P 1'
_symmetry_Int_Tables_number 1
loop_
_symmetry_equiv_pos_site_id
_symmetry_equiv_pos_as_xyz
1 x,y,z
_cell_length_a 7.2972(6)
_cell_length_b 8.6769(7)
_cell_length_c 9.8312(12)
_cell_angle_alpha 114.432(2)
_cell_angle_beta 111.244(2)
_cell_angle_gamma 92.708(2)
_cell_formula_units_Z 1
loop_
_atom_type_symbol
_atom_type_radius_bond
C 0.68
H 0.23
Fe 1.34
N 0.68
loop_
_atom_site_label
_atom_site_type_symbol
_atom_site_fract_x
_atom_site_fract_y
_atom_site_fract_z
Fe1 Fe 0.83527(3) 0.11580(3) 0.57805(3)
C1 C 0.8075(5) -0.1443(5) 0.4422(4)
C2 C 0.9477(5) -0.0821(5) 0.6124(4)
C3 C 1.1073(5) 0.0515(5) 0.6510(4)
H1 H 1.22530 0.11930 0.76020
C4 C 1.0677(6) 0.0744(5) 0.5080(5)
H2 H 1.15310 0.16070 0.49960
C5 C 0.8857(6) -0.0456(5) 0.3807(4)
H3 H 0.82010 -0.05740 0.26710
C6 C 0.6342(4) -0.2985(4) 0.3365(3)
C7 C 0.6760(4) -0.4662(4) 0.2723(3)
C8 C 0.8766(5) -0.4913(5) 0.3094(4)
H4 H 0.98800 -0.39350 0.38130
C9 C 0.9115(5) -0.6541(4) 0.2431(4)
H5 H 1.04630 -0.66810 0.26930
C10 C 0.7480(5) -0.8013(4) 0.1361(4)
H6 H 0.77390 -0.91340 0.09010
C11 C 0.5534(5) -0.7839(4) 0.0981(3)
H7 H 0.44470 -0.88390 0.02690
C12 C 0.5129(5) -0.6162(4) 0.1648(3)
C13 C 0.3109(4) -0.5950(4) 0.1233(3)
H8 H 0.20110 -0.69420 0.05220
C14 C 0.2738(4) -0.4331(5) 0.1849(4)
H9 H 0.13840 -0.42030 0.15630
C15 C 0.4364(4) -0.2838(4) 0.2914(3)
H10 H 0.40840 -0.17180 0.33230
C16 C 0.9275(4) -0.1344(4) 0.7332(3)
N1 N 1.0988(4) -0.0919(4) 0.8688(3)
C17 C 1.0784(5) -0.1352(5) 0.9798(4)
H11 H 1.19640 -0.10570 1.07720
C18 C 0.9015(5) -0.2186(4) 0.9647(3)
H12 H 0.90000 -0.24450 1.04930
C19 C 0.7223(5) -0.2652(5) 0.8217(4)
N2 N 0.5428(4) -0.3496(4) 0.7953(3)
C20 C 0.7414(4) -0.2172(4) 0.7059(3)
H13 H 0.62570 -0.24200 0.60850
C21 C 0.3615(5) -0.3857(5) 0.6505(4)
H14 H 0.32080 -0.27680 0.66060
H15 H 0.25260 -0.46580 0.64060
H16 H 0.38860 -0.43870 0.55240
C22 C 0.5202(6) -0.3968(6) 0.9149(4)
H17 H 0.62640 -0.45540 0.94860
H18 H 0.38750 -0.47520 0.86540
H19 H 0.53140 -0.29150 1.01140
C23 C 0.5901(6) 0.1598(6) 0.6301(5)
H20 H 0.48500 0.07070 0.61780
C24 C 0.7717(6) 0.2597(6) 0.7723(5)
H21 H 0.81780 0.25380 0.87860
C25 C 0.8765(7) 0.3699(6) 0.7370(5)
H22 H 1.00960 0.45510 0.81420
C26 C 0.7603(7) 0.3382(5) 0.5745(5)
H23 H 0.79750 0.39660 0.51610
C27 C 0.5849(6) 0.2097(6) 0.5076(5)
H24 H 0.47550 0.16080 0.39360
#END
