
#######################################################################
#
#                 Cambridge Crystallographic Data Centre
#                                CCDC
#
#######################################################################
#
# If this CIF has been generated from an entry in the Cambridge
# Structural Database, then it will include bibliographic, chemical,
# crystal, experimental, refinement or atomic coordinate data resulting
# from the CCDC's data processing and validation procedures.
#
#######################################################################

data_CSD_CIF_CEDVUF
_audit_creation_date 2017-10-04
_audit_creation_method CSD-ConQuest-V1
_database_code_CSD CEDVUF
_database_code_depnum_ccdc_archive 'CCDC 1504221'
_chemical_formula_sum 'C15 H14 Cl2 Mn1 N4 O2'
_chemical_formula_moiety
;
C15 H14 Cl2 Mn1 N4 O2
;
_journal_coden_Cambridge 211
_journal_volume 70
_journal_year 2017
_journal_page_first 819
_journal_name_full 'J.Coord.Chem. '
loop_
_publ_author_name
"R.Bikas"
"M.Ghorbanloo"
"R.Sasani"
"Ingo Pantenburg"
"G.Meyer"
_chemical_name_systematic
;
aqua-dichloro-(2-cyano-N'-(phenyl(pyridin-2-yl)methylene)acetohydrazide)-manga
nese(ii)
;
_cell_volume   1717.332
_exptl_crystal_colour 'yellow'
_exptl_crystal_density_diffrn 1.579
_exptl_crystal_description 'polyhedron'
_diffrn_ambient_temperature 170
#These two values have been output from a single CSD field.
_refine_ls_R_factor_gt 0.0352
_refine_ls_wR_factor_gt 0.0352
_symmetry_cell_setting monoclinic
_symmetry_space_group_name_H-M 'C c'
_symmetry_Int_Tables_number 9
loop_
_symmetry_equiv_pos_site_id
_symmetry_equiv_pos_as_xyz
1 x,y,z
2 x,-y,1/2+z
3 1/2+x,1/2+y,z
4 1/2+x,1/2-y,1/2+z
_cell_length_a 13.4270(7)
_cell_length_b 19.0994(8)
_cell_length_c 7.0430(4)
_cell_angle_alpha 90
_cell_angle_beta 108.044(4)
_cell_angle_gamma 90
_cell_formula_units_Z 4
loop_
_atom_type_symbol
_atom_type_radius_bond
C 0.68
H 0.23
Cl 0.99
Mn 1.61
N 0.68
O 0.68
loop_
_atom_site_label
_atom_site_type_symbol
_atom_site_fract_x
_atom_site_fract_y
_atom_site_fract_z
Mn1 Mn 0.50136(3) 0.789729(18) 0.24939(4)
Cl1 Cl 0.32340(6) 0.79237(4) 0.25595(12)
Cl2 Cl 0.46291(5) 0.78312(4) -0.12112(10)
C1 C 0.4668(2) 0.95575(14) 0.2638(4)
H1 H 0.40090 0.94190 0.26730
C2 C 0.4877(2) 1.02654(15) 0.2605(5)
H2 H 0.43670 1.05950 0.26050
C3 C 0.5856(2) 1.04736(15) 0.2573(4)
H3 H 0.60180 1.09470 0.25570
C4 C 0.6595(2) 0.99667(14) 0.2564(4)
H4 H 0.72600 1.00940 0.25430
C5 C 0.6322(2) 0.92655(14) 0.2585(3)
C6 C 0.7055(2) 0.86956(13) 0.2463(4)
C7 C 0.6717(2) 0.68851(14) 0.2373(4)
C8 C 0.7330(2) 0.62448(15) 0.2158(5)
H5 H 0.71070 0.60990 0.07710
H6 H 0.80670 0.63640 0.25220
C9 C 0.7196(2) 0.56658(15) 0.3391(5)
C10 C 0.81017(19) 0.88499(13) 0.2261(4)
C11 C 0.8859(2) 0.91980(15) 0.3771(4)
H7 H 0.87150 0.93350 0.49250
C12 C 0.9826(2) 0.93384(18) 0.3549(6)
H8 H 1.03330 0.95680 0.45620
C13 C 1.0046(2) 0.91407(17) 0.1837(6)
H9 H 1.06970 0.92410 0.16950
C14 C 0.9299(3) 0.87934(16) 0.0333(5)
H10 H 0.94460 0.86600 -0.08220
C15 C 0.8327(2) 0.86432(14) 0.0547(4)
H11 H 0.78270 0.84040 -0.04570
N1 N 0.53719(17) 0.90622(12) 0.2622(3)
N2 N 0.66653(17) 0.80820(12) 0.2449(3)
N3 N 0.72133(17) 0.74941(12) 0.2295(3)
H12 H 0.78280 0.75100 0.21590
N4 N 0.7125(2) 0.52013(15) 0.4362(5)
O1 O 0.5839(2) 0.78006(12) 0.5753(3)
O2 O 0.58328(15) 0.68499(10) 0.2526(3)
H13 H 0.639(2) 0.7534(15) 0.647(4)
H14 H 0.543(3) 0.776(2) 0.649(6)
#END
