
#######################################################################
#
#                 Cambridge Crystallographic Data Centre
#                                CCDC
#
#######################################################################
#
# If this CIF has been generated from an entry in the Cambridge
# Structural Database, then it will include bibliographic, chemical,
# crystal, experimental, refinement or atomic coordinate data resulting
# from the CCDC's data processing and validation procedures.
#
#######################################################################

data_CSD_CIF_CEHYAP01
_audit_creation_date 1988-03-22
_audit_creation_method CSD-ConQuest-V1
_database_code_CSD CEHYAP01
_chemical_formula_sum 'C6 H16 Cl1 Co1 N6 O4'
_chemical_formula_moiety
;
C6 H16 Co1 N6 1+,Cl1 O4 1-
;
_journal_coeditor_code "IUCr A27180"
_journal_coden_Cambridge 591
_journal_volume 43
_journal_year 1987
_journal_page_first 1209
_journal_name_full 'Acta Crystallogr.,Sect.C:Cryst.Struct.Commun. '
loop_
_publ_author_name
"H.Wunderlich"
_chemical_name_systematic
;
trans-Dicyano-bis(ethylenediamine-N,N')-cobalt(iii) perchlorate
;
_cell_volume   1288.264
_exptl_crystal_colour 'yellow'
_exptl_crystal_density_diffrn 1.705
_diffrn_ambient_temperature ?
_diffrn_special_details
;
The study was carried out at room temperature,in the range 283-303K

;
#These two values have been output from a single CSD field.
_refine_ls_R_factor_gt 0.037
_refine_ls_wR_factor_gt 0.037
_symmetry_cell_setting monoclinic
_symmetry_space_group_name_H-M 'C 2/c'
_symmetry_Int_Tables_number 15
loop_
_symmetry_equiv_pos_site_id
_symmetry_equiv_pos_as_xyz
1 x,y,z
2 1/2+x,1/2+y,z
3 -x,y,1/2-z
4 1/2-x,1/2+y,1/2-z
5 -x,-y,-z
6 -1/2-x,-1/2-y,-z
7 x,-y,-1/2+z
8 -1/2+x,-1/2-y,-1/2+z
_cell_length_a 17.556(3)
_cell_length_b 6.930(1)
_cell_length_c 10.604(2)
_cell_angle_alpha 90
_cell_angle_beta 93.07(1)
_cell_angle_gamma 90
_cell_formula_units_Z 4
loop_
_atom_type_symbol
_atom_type_radius_bond
C 0.68
H 0.23
Cl 0.99
Co 1.33
N 0.68
O 0.68
loop_
_atom_site_label
_atom_site_type_symbol
_atom_site_fract_x
_atom_site_fract_y
_atom_site_fract_z
Co1 Co 0.25000 0.25000 0.50000
Cl1 Cl 0.00000 0.0700(1) 0.25000
O1 O -0.0604(1) -0.0479(3) 0.1962(2)
O2 O 0.0298(2) 0.1762(8) 0.1530(4)
N1 N 0.3522(1) 0.3494(2) 0.4672(1)
N2 N 0.2982(1) -0.0050(2) 0.5078(1)
N3 N 0.2222(1) 0.2159(2) 0.2127(1)
C1 C 0.4016(1) 0.1843(4) 0.4349(2)
C2 C 0.3824(1) 0.0195(4) 0.5221(2)
C3 C 0.2308(1) 0.2262(2) 0.3210(1)
H1 H 0.393(1) 0.164(4) 0.347(2)
H2 H 0.451(2) 0.225(4) 0.442(3)
H3 H 0.350(1) 0.439(4) 0.409(3)
H4 H 0.370(2) 0.397(4) 0.533(3)
H5 H 0.406(2) -0.106(5) 0.504(3)
H6 H 0.397(1) 0.050(4) 0.617(2)
H7 H 0.284(2) -0.076(4) 0.562(3)
H8 H 0.282(1) -0.070(4) 0.442(3)
N1E N 0.1478(1) 0.1506(2) 0.5328(1)
N2E N 0.2018(1) 0.5050(2) 0.4922(1)
C3E C 0.2692(1) 0.2738(2) 0.6790(1)
C1E C 0.0984(1) 0.3157(4) 0.5651(2)
H3E H 0.150(1) 0.061(4) 0.591(3)
H4E H 0.130(2) 0.103(4) 0.467(3)
C2E C 0.1176(1) 0.4805(4) 0.4779(2)
H7E H 0.216(2) 0.576(4) 0.438(3)
H8E H 0.218(1) 0.570(4) 0.558(3)
N3E N 0.2778(1) 0.2841(2) 0.7873(1)
H1E H 0.107(1) 0.336(4) 0.653(2)
H2E H 0.049(2) 0.275(4) 0.558(3)
H5E H 0.094(2) 0.606(5) 0.496(3)
H6E H 0.103(1) 0.450(4) 0.383(2)
O1B O 0.0604(1) -0.0479(3) 0.3038(2)
O2B O -0.0298(2) 0.1762(8) 0.3470(4)
#END
