
#######################################################################
#
#                 Cambridge Crystallographic Data Centre
#                                CCDC
#
#######################################################################
#
# If this CIF has been generated from an entry in the Cambridge
# Structural Database, then it will include bibliographic, chemical,
# crystal, experimental, refinement or atomic coordinate data resulting
# from the CCDC's data processing and validation procedures.
#
#######################################################################

data_CSD_CIF_CEHZIZ
_audit_creation_date 2006-08-20
_audit_creation_method CSD-ConQuest-V1
_database_code_CSD CEHZIZ
_database_code_depnum_ccdc_archive 'CCDC 290327'
_chemical_formula_sum 'C28 H70 Mn1 O10 S2 Si2'
_chemical_formula_moiety
;
C28 H70 Mn1 O10 S2 Si2
;
_journal_coden_Cambridge 1295
_journal_volume 9
_journal_year 2006
_journal_page_first 383
_journal_name_full 'Inorg.Chem.Commun. '
loop_
_publ_author_name
"A.Kropidlowska"
"J.Chojnacki"
"B.Becker"
_chemical_name_systematic
;
tetrakis(Methanol)-bis((tri-t-butoxy)silanethiolato)-manganese(ii)
;
_cell_volume   1040.814
_exptl_crystal_colour 'colorless'
_exptl_crystal_density_diffrn 1.184
_exptl_special_details
;
air-sensitive

;
_exptl_crystal_description 'block'
_exptl_crystal_preparation 'methanol'
_diffrn_ambient_temperature 100
#These two values have been output from a single CSD field.
_refine_ls_R_factor_gt 0.0342
_refine_ls_wR_factor_gt 0.0342
_symmetry_cell_setting triclinic
_symmetry_space_group_name_H-M 'P -1'
_symmetry_Int_Tables_number 2
loop_
_symmetry_equiv_pos_site_id
_symmetry_equiv_pos_as_xyz
1 x,y,z
2 -x,-y,-z
_cell_length_a 8.7391(5)
_cell_length_b 9.2738(9)
_cell_length_c 14.8476(10)
_cell_angle_alpha 95.136(8)
_cell_angle_beta 100.353(5)
_cell_angle_gamma 116.368(5)
_cell_formula_units_Z 1
loop_
_atom_type_symbol
_atom_type_radius_bond
C 0.68
H 0.23
Mn 1.35
O 0.68
S 1.02
Si 1.20
loop_
_atom_site_label
_atom_site_type_symbol
_atom_site_fract_x
_atom_site_fract_y
_atom_site_fract_z
Mn1 Mn 0.50000 0.50000 0.50000
S1 S 0.57930(3) 0.61296(3) 0.353848(18)
Si1 Si 0.34306(4) 0.55344(3) 0.26419(2)
O1 O 0.23251(11) 0.6180(1) 0.32129(6)
O2 O 0.21197(11) 0.3525(1) 0.23291(6)
O3 O 0.35341(11) 0.61727(10) 0.16549(5)
O4 O 0.64901(12) 0.35765(11) 0.49202(6)
H1 H 0.68200 0.34870 0.54790
O5 O 0.25362(11) 0.28962(10) 0.41189(6)
H2 H 0.23120 0.29300 0.36140
C1 C 0.5713(2) 0.19952(17) 0.43418(10)
H3 H 0.47050 0.12340 0.45540
H4 H 0.65860 0.15970 0.43790
H5 H 0.53140 0.20670 0.36950
C2 C 0.10324(17) 0.16892(15) 0.43593(9)
H6 H 0.14010 0.14490 0.49660
H7 H 0.04760 0.06850 0.38830
H8 H 0.01880 0.21060 0.43940
C3 C 0.05221(15) 0.59443(15) 0.29747(8)
C4 C 0.06197(18) 0.74795(17) 0.35035(10)
H9 H 0.10270 0.75630 0.41750
H10 H -0.05510 0.74150 0.33690
H11 H 0.14460 0.84480 0.33070
C5 C -0.06495(18) 0.44301(17) 0.33174(12)
H12 H -0.07060 0.34540 0.29660
H13 H -0.18370 0.43220 0.32240
H14 H -0.01600 0.45390 0.39820
C6 C -0.01383(18) 0.57761(19) 0.19306(10)
H15 H 0.06280 0.67680 0.17280
H16 H -0.13440 0.56280 0.17950
H17 H -0.01240 0.48240 0.15960
C7 C 0.20755(17) 0.23590(14) 0.15875(8)
C8 C 0.0886(2) 0.23322(17) 0.06925(9)
H18 H -0.02980 0.20090 0.07830
H19 H 0.08240 0.15430 0.01840
H20 H 0.13670 0.34270 0.05360
C9 C 0.3916(2) 0.27977(17) 0.14606(10)
H21 H 0.43930 0.38370 0.12390
H22 H 0.38490 0.19300 0.10020
H23 H 0.46870 0.29080 0.20590
C10 C 0.1295(2) 0.07130(15) 0.18968(9)
H24 H 0.21070 0.07460 0.24570
H25 H 0.11100 -0.01550 0.13960
H26 H 0.01650 0.04890 0.20370
C11 C 0.46585(16) 0.76929(15) 0.14104(8)
C12 C 0.5135(2) 0.91496(16) 0.21691(11)
H27 H 0.40550 0.91440 0.22700
H28 H 0.58520 1.01710 0.19750
H29 H 0.58040 0.90690 0.27500
C13 C 0.3586(2) 0.77638(19) 0.04975(10)
H30 H 0.32430 0.67890 0.00300
H31 H 0.43010 0.87500 0.02730
H32 H 0.25270 0.77980 0.06040
C14 C 0.63008(18) 0.7618(2) 0.12572(10)
H33 H 0.69400 0.75100 0.18390
H34 H 0.70620 0.86260 0.10660
H35 H 0.59570 0.66720 0.07690
S1A S 0.42070(3) 0.38704(3) 0.646152(18)
Si1A Si 0.65694(4) 0.44656(3) 0.73581(2)
O1A O 0.76749(11) 0.3820(1) 0.67871(6)
O2A O 0.78803(11) 0.6475(1) 0.76709(6)
O3A O 0.64659(11) 0.38273(10) 0.83451(5)
O4A O 0.35099(12) 0.64235(11) 0.50798(6)
H1A H 0.31800 0.65130 0.45210
O5A O 0.74638(11) 0.71038(10) 0.58811(6)
H2A H 0.76880 0.70700 0.63860
C1A C 0.4287(2) 0.80048(17) 0.56582(10)
H3A H 0.52950 0.87660 0.54460
H4A H 0.34140 0.84030 0.56210
H5A H 0.46860 0.79330 0.63050
C2A C 0.89676(17) 0.83108(15) 0.56407(9)
H6A H 0.85990 0.85510 0.50340
H7A H 0.95240 0.93150 0.61170
H8A H 0.98120 0.78940 0.56060
C3A C 0.94779(15) 0.40557(15) 0.70253(8)
C4A C 0.93803(18) 0.25205(17) 0.64965(10)
H9A H 0.89730 0.24370 0.58250
H10A H 1.05510 0.25850 0.66310
H11A H 0.85540 0.15520 0.66930
C5A C 1.06495(18) 0.55699(17) 0.66826(12)
H12A H 1.07060 0.65460 0.70340
H13A H 1.18370 0.56780 0.67760
H14A H 1.01600 0.54610 0.60180
C6A C 1.01383(18) 0.42239(19) 0.80694(10)
H15A H 0.93720 0.32320 0.82720
H16A H 1.13440 0.43720 0.82050
H17A H 1.01240 0.51760 0.84040
C7A C 0.79245(17) 0.76410(14) 0.84125(8)
C8A C 0.9114(2) 0.76678(17) 0.93075(9)
H18A H 1.02980 0.79910 0.92170
H19A H 0.91760 0.84570 0.98160
H20A H 0.86330 0.65730 0.94640
C9A C 0.6084(2) 0.72023(17) 0.85394(10)
H21A H 0.56070 0.61630 0.87610
H22A H 0.61510 0.80700 0.89980
H23A H 0.53130 0.70920 0.79410
C10A C 0.8705(2) 0.92870(15) 0.81032(9)
H24A H 0.78930 0.92540 0.75430
H25A H 0.88900 1.01550 0.86040
H26A H 0.98350 0.95110 0.79630
C11A C 0.53415(16) 0.23071(15) 0.85896(8)
C12A C 0.4865(2) 0.08504(16) 0.78309(11)
H27A H 0.59450 0.08560 0.77300
H28A H 0.41480 -0.01710 0.80250
H29A H 0.41960 0.09310 0.72500
C13A C 0.6414(2) 0.22362(19) 0.95025(10)
H30A H 0.67570 0.32110 0.99700
H31A H 0.56990 0.12500 0.97270
H32A H 0.74730 0.22020 0.93960
C14A C 0.36992(18) 0.2382(2) 0.87428(10)
H33A H 0.30600 0.24900 0.81610
H34A H 0.29380 0.13740 0.89340
H35A H 0.40430 0.33280 0.92310
#END
