
#######################################################################
#
#                 Cambridge Crystallographic Data Centre
#                                CCDC
#
#######################################################################
#
# If this CIF has been generated from an entry in the Cambridge
# Structural Database, then it will include bibliographic, chemical,
# crystal, experimental, refinement or atomic coordinate data resulting
# from the CCDC's data processing and validation procedures.
#
#######################################################################

data_CSD_CIF_CEKCUQ
_audit_creation_date 1984-10-09
_audit_creation_method CSD-ConQuest-V1
_database_code_CSD CEKCUQ
_database_code_depnum_ccdc_archive 'CCDC 1122713'
_chemical_formula_sum 'C15 H8 Cr1 O3'
_chemical_formula_moiety
;
C15 H8 Cr1 O3
;
_journal_coden_Cambridge 579
_journal_volume 3
_journal_year 1984
_journal_page_first 263
_journal_name_full 'Organometallics '
loop_
_publ_author_name
"R.D.Rogers"
"J.L.Atwood"
"T.A.Albright"
"W.A.Lee"
"M.D.Rausch"
_chemical_name_systematic
;
(\h^6^-Biphenylene)-tricarbonyl-chromium
;
_cell_volume    621.013
_exptl_crystal_colour 'orange'
_exptl_crystal_density_diffrn 1.54
_diffrn_ambient_temperature ?
_diffrn_special_details
;
The study was carried out at room temperature,in the range 283-303K

;
#These two values have been output from a single CSD field.
_refine_ls_R_factor_gt 0.028
_refine_ls_wR_factor_gt 0.028
_symmetry_cell_setting monoclinic
_symmetry_space_group_name_H-M 'P 21/m'
_symmetry_Int_Tables_number 11
loop_
_symmetry_equiv_pos_site_id
_symmetry_equiv_pos_as_xyz
1 x,y,z
2 -x,1/2+y,-z
3 -x,-y,-z
4 x,-1/2-y,z
_cell_length_a 7.065(4)
_cell_length_b 11.066(5)
_cell_length_c 8.030(4)
_cell_angle_alpha 90
_cell_angle_beta 98.43(3)
_cell_angle_gamma 90
_cell_formula_units_Z 2
loop_
_atom_type_symbol
_atom_type_radius_bond
C 0.68
H 0.23
Cr 1.35
O 0.68
loop_
_atom_site_label
_atom_site_type_symbol
_atom_site_fract_x
_atom_site_fract_y
_atom_site_fract_z
Cr1 Cr 0.70590 0.25000 0.70324
O1 O 0.69370 0.25000 1.07370
O2 O 0.39270 0.06490 0.65310
C1 C 0.69490 0.25000 0.93070
C2 C 0.51410 0.13520 0.67230
C3 C 0.82820 0.18650 0.48240
C4 C 0.91780 0.11870 0.62260
C5 C 1.00680 0.18430 0.75820
C6 C 1.11940 0.18580 0.93300
C7 C 1.20120 0.11980 1.06820
C8 C 1.28340 0.18750 1.20670
H1 H 0.76480 0.14240 0.38330
H2 H 0.91730 0.03000 0.62310
H3 H 1.19990 0.03100 1.06730
H4 H 1.34370 0.14420 1.30830
C2C C 0.51410 0.36480 0.67230
C3C C 0.82820 0.31350 0.48240
C4C C 0.91780 0.38130 0.62260
C5C C 1.00680 0.31570 0.75820
C6C C 1.11940 0.31420 0.93300
C8C C 1.28340 0.31250 1.20670
O2C O 0.39270 0.43510 0.65310
H1C H 0.76480 0.35760 0.38330
H2C H 0.91730 0.47000 0.62310
C7C C 1.20120 0.38020 1.06820
H4C H 1.34370 0.35580 1.30830
H3C H 1.19990 0.46900 1.06730
#END
