
#######################################################################
#
#                 Cambridge Crystallographic Data Centre
#                                CCDC
#
#######################################################################
#
# If this CIF has been generated from an entry in the Cambridge
# Structural Database, then it will include bibliographic, chemical,
# crystal, experimental, refinement or atomic coordinate data resulting
# from the CCDC's data processing and validation procedures.
#
#######################################################################

data_CSD_CIF_CERWOL
_audit_creation_date 1984-11-14
_audit_creation_method CSD-ConQuest-V1
_database_code_CSD CERWOL
_chemical_formula_sum 'C11 H4 Mn1 O8 P1'
_chemical_formula_moiety
;
C11 H4 Mn1 O8 P1
;
_journal_coden_Cambridge 36
_journal_volume 265
_journal_year 1984
_journal_page_first 45
_journal_name_full 'J.Organomet.Chem. '
loop_
_publ_author_name
"S.S.C.Chu"
"R.D.Rosenstein"
"M.Lattman"
"B.N.Anand"
_chemical_name_systematic
;
2-Pentacarbonyl-manganese-1,3,2-benzodioxaphosphole-2-oxide
;
_cell_volume    651.879
_exptl_crystal_density_diffrn 1.783
_exptl_special_details
;
Cell angle gamma = 93.82 (not 98.82)

;
_diffrn_ambient_temperature ?
_diffrn_special_details
;
The study was carried out at room temperature,in the range 283-303K

;
#These two values have been output from a single CSD field.
_refine_ls_R_factor_gt 0.073
_refine_ls_wR_factor_gt 0.073
_symmetry_cell_setting triclinic
_symmetry_space_group_name_H-M 'P -1'
_symmetry_Int_Tables_number 2
loop_
_symmetry_equiv_pos_site_id
_symmetry_equiv_pos_as_xyz
1 x,y,z
2 -x,-y,-z
_cell_length_a 6.753(2)
_cell_length_b 8.818(3)
_cell_length_c 12.004(4)
_cell_angle_alpha 106.79(2)
_cell_angle_beta 105.37(2)
_cell_angle_gamma 93.82(2)
_cell_formula_units_Z 2
loop_
_atom_type_symbol
_atom_type_radius_bond
C 0.68
H 0.23
Mn 1.35
O 0.68
P 1.05
loop_
_atom_site_label
_atom_site_type_symbol
_atom_site_fract_x
_atom_site_fract_y
_atom_site_fract_z
Mn1 Mn 0.15170 0.20980 0.82530
C1 C 0.21000 0.00350 0.76500
O1 O 0.24670 -0.11900 0.73080
C2 C 0.10860 0.42340 0.87690
O2 O 0.07880 0.55090 0.90440
C3 C 0.36000 0.24240 0.97060
O3 O 0.48390 0.25440 1.05750
C4 C -0.03370 0.18370 0.67310
O4 O -0.14060 0.16870 0.58010
C5 C -0.05220 0.13690 0.88470
O5 O -0.17070 0.08950 0.92050
P1 P 0.39800 0.30540 0.75060
O6 O 0.29920 0.43710 0.68670
O7 O 0.39960 0.17390 0.62060
O8 O 0.61030 0.36440 0.83010
C6 C 0.29310 0.39200 0.56340
C7 C 0.35100 0.24050 0.52630
C8 C 0.36220 0.17580 0.40880
C9 C 0.30570 0.26170 0.33090
C10 C 0.24430 0.41000 0.36700
C11 C 0.23830 0.47760 0.48600
H1 H 0.41300 0.06100 0.37900
H2 H 0.30800 0.21200 0.23800
H3 H 0.19900 0.47400 0.30200
H4 H 0.19200 0.59400 0.51500
#END
