
#######################################################################
#
#                 Cambridge Crystallographic Data Centre
#                                CCDC
#
#######################################################################
#
# If this CIF has been generated from an entry in the Cambridge
# Structural Database, then it will include bibliographic, chemical,
# crystal, experimental, refinement or atomic coordinate data resulting
# from the CCDC's data processing and validation procedures.
#
#######################################################################

data_CSD_CIF_CETDAG
_audit_creation_date 2000-02-03
_audit_creation_method CSD-ConQuest-V1
_database_code_CSD CETDAG
_database_code_depnum_ccdc_archive 'CCDC 127790'
_chemical_formula_sum 'C6 H16 Cl2 Mn1 N8 O10 S2'
_chemical_formula_moiety
;
C6 H16 Mn1 N8 O2 S2 2+,2(Cl1 O4 1-)
;
_journal_coden_Cambridge 155
_journal_volume 293
_journal_year 1999
_journal_page_first 61
_journal_name_full 'Inorg.Chim.Acta '
loop_
_publ_author_name
"R.W.Clark"
"P.J.Squattrito"
"A.K.Sen"
"S.N.Dubey"
_chemical_name_systematic
;
trans-Diaqua-bis(4-amino-3-methyl-1,2,4-triazole-5-thione-N,S)-manganese(ii) 
diperchlorate
;
_cell_volume    499.211
_exptl_crystal_colour 'colorless'
_exptl_crystal_density_diffrn 1.83
_exptl_special_details
;
isostructural with the iron analogue

;
_exptl_crystal_description 'slab'
_diffrn_ambient_temperature ?
_diffrn_special_details
;
The study was carried out at room temperature,in the range 283-303K

;
#These two values have been output from a single CSD field.
_refine_ls_R_factor_gt 0.068
_refine_ls_wR_factor_gt 0.068
_symmetry_cell_setting triclinic
_symmetry_space_group_name_H-M 'P -1'
_symmetry_Int_Tables_number 2
loop_
_symmetry_equiv_pos_site_id
_symmetry_equiv_pos_as_xyz
1 x,y,z
2 -x,-y,-z
_cell_length_a 8.243(2)
_cell_length_b 8.674(1)
_cell_length_c 7.683(4)
_cell_angle_alpha 94.26(2)
_cell_angle_beta 112.08(3)
_cell_angle_gamma 78.72(2)
_cell_formula_units_Z 1
loop_
_atom_type_symbol
_atom_type_radius_bond
C 0.68
H 0.23
Cl 0.99
Mn 1.35
N 0.68
O 0.68
S 1.02
loop_
_atom_site_label
_atom_site_type_symbol
_atom_site_fract_x
_atom_site_fract_y
_atom_site_fract_z
Mn1 Mn 0.00000 0.00000 0.00000
S1 S -0.1568(2) 0.2360(2) 0.1317(2)
O1 O -0.0805(7) 0.1326(5) -0.2578(7)
N1 N 0.2380(5) 0.1305(5) 0.1417(6)
N2 N 0.1783(4) 0.2867(4) 0.1843(5)
N3 N 0.0113(6) 0.4860(5) 0.2413(6)
N4 N 0.1718(6) 0.5321(5) 0.2772(6)
C1 C 0.0111(6) 0.3366(5) 0.1864(6)
C2 C 0.2722(6) 0.4086(5) 0.2422(6)
C3 C 0.4583(8) 0.3951(8) 0.2559(9)
H1 H 0.313(6) 0.084(6) 0.248(7)
H2 H 0.288(6) 0.140(5) 0.056(7)
H3 H -0.062(6) 0.552(6) 0.276(7)
H4 H 0.536(7) 0.307(7) 0.345(7)
H5 H 0.496(7) 0.486(7) 0.295(7)
H6 H 0.457(7) 0.388(6) 0.129(8)
H7 H -0.139(7) 0.218(7) -0.267(8)
H8 H -0.058(10) 0.105(8) -0.319(9)
Cl1 Cl 0.3376(2) 0.1671(2) 0.6817(2)
O2 O 0.4725(6) 0.1640(6) 0.6078(7)
O3 O 0.4030(8) 0.080(1) 0.8383(10)
O4 O 0.2805(9) 0.3138(7) 0.725(2)
O5 O 0.1926(9) 0.115(1) 0.5596(9)
S1A S 0.1568(2) -0.2360(2) -0.1317(2)
C1A C -0.0111(6) -0.3366(5) -0.1864(6)
N2A N -0.1783(4) -0.2867(4) -0.1843(5)
N1A N -0.2380(5) -0.1305(5) -0.1417(6)
O1A O 0.0805(7) -0.1326(5) 0.2578(7)
H7A H 0.139(7) -0.218(7) 0.267(8)
H8A H 0.058(10) -0.105(8) 0.319(9)
H1A H -0.313(6) -0.084(6) -0.248(7)
H2A H -0.288(6) -0.140(5) -0.056(7)
C2A C -0.2722(6) -0.4086(5) -0.2422(6)
N4A N -0.1718(6) -0.5321(5) -0.2772(6)
N3A N -0.0113(6) -0.4860(5) -0.2413(6)
H3A H 0.062(6) -0.552(6) -0.276(7)
C3A C -0.4583(8) -0.3951(8) -0.2559(9)
H4A H -0.536(7) -0.307(7) -0.345(7)
H5A H -0.496(7) -0.486(7) -0.295(7)
H6A H -0.457(7) -0.388(6) -0.129(8)
#END
