
#######################################################################
#
#                 Cambridge Crystallographic Data Centre
#                                CCDC
#
#######################################################################
#
# If this CIF has been generated from an entry in the Cambridge
# Structural Database, then it will include bibliographic, chemical,
# crystal, experimental, refinement or atomic coordinate data resulting
# from the CCDC's data processing and validation procedures.
#
#######################################################################

data_CSD_CIF_CETFAI
_audit_creation_date 2000-02-03
_audit_creation_method CSD-ConQuest-V1
_database_code_CSD CETFAI
_database_code_depnum_ccdc_archive 'CCDC 127791'
_chemical_formula_sum 'C6 H16 Cl2 Fe1 N8 O10 S2'
_chemical_formula_moiety
;
C6 H16 Fe1 N8 O2 S2 2+,2(Cl1 O4 1-)
;
_journal_coden_Cambridge 155
_journal_volume 293
_journal_year 1999
_journal_page_first 61
_journal_name_full 'Inorg.Chim.Acta '
loop_
_publ_author_name
"R.W.Clark"
"P.J.Squattrito"
"A.K.Sen"
"S.N.Dubey"
_chemical_name_systematic
;
trans-Diaqua-bis(4-amino-3-methyl-1,2,4-triazole-5-thione-N,S)-iron(ii) 
diperchlorate
;
_cell_volume    492.035
_exptl_crystal_colour 'pale green'
_exptl_crystal_density_diffrn 1.86
_exptl_special_details
;
isostructural with the manganese analogue

;
_exptl_crystal_description 'parallelepiped'
_diffrn_ambient_temperature ?
_diffrn_special_details
;
The study was carried out at room temperature,in the range 283-303K

;
#These two values have been output from a single CSD field.
_refine_ls_R_factor_gt 0.052
_refine_ls_wR_factor_gt 0.052
_symmetry_cell_setting triclinic
_symmetry_space_group_name_H-M 'P -1'
_symmetry_Int_Tables_number 2
loop_
_symmetry_equiv_pos_site_id
_symmetry_equiv_pos_as_xyz
1 x,y,z
2 -x,-y,-z
_cell_length_a 8.221(3)
_cell_length_b 8.526(2)
_cell_length_c 7.813(2)
_cell_angle_alpha 94.21(2)
_cell_angle_beta 113.62(3)
_cell_angle_gamma 78.71(2)
_cell_formula_units_Z 1
loop_
_atom_type_symbol
_atom_type_radius_bond
C 0.68
H 0.23
Cl 0.99
Fe 1.34
N 0.68
O 0.68
S 1.02
loop_
_atom_site_label
_atom_site_type_symbol
_atom_site_fract_x
_atom_site_fract_y
_atom_site_fract_z
Fe1 Fe 0.00000 0.00000 0.00000
S1 S -0.1591(2) 0.2317(2) 0.1165(2)
O1 O -0.0809(8) 0.1259(6) -0.2497(7)
N1 N 0.2361(7) 0.1266(6) 0.1358(8)
N2 N 0.1787(6) 0.2849(5) 0.1805(6)
N3 N 0.0126(7) 0.4868(6) 0.2361(7)
N4 N 0.1750(7) 0.5329(5) 0.2764(7)
C1 C 0.0096(7) 0.3351(6) 0.1788(7)
C2 C 0.2757(8) 0.4075(6) 0.2420(8)
C3 C 0.463(1) 0.3939(10) 0.260(1)
H1 H 0.306(7) 0.071(7) 0.232(8)
H2 H 0.274(8) 0.136(7) 0.052(8)
H3 H -0.060(8) 0.551(7) 0.260(8)
H4 H 0.541(9) 0.314(8) 0.346(9)
H5 H 0.507(9) 0.480(8) 0.299(9)
H6 H 0.469(9) 0.385(8) 0.146(9)
H7 H -0.140(9) 0.210(7) -0.273(9)
H8 H -0.06(1) 0.095(9) -0.318(10)
Cl1 Cl 0.3267(2) 0.1658(2) 0.6762(2)
O2 O 0.4598(7) 0.1598(7) 0.6035(8)
O3 O 0.3972(9) 0.089(1) 0.837(1)
O4 O 0.268(1) 0.3147(9) 0.708(2)
O5 O 0.179(1) 0.110(1) 0.561(1)
S1A S 0.1591(2) -0.2317(2) -0.1165(2)
C1A C -0.0096(7) -0.3351(6) -0.1788(7)
N2A N -0.1787(6) -0.2849(5) -0.1805(6)
N1A N -0.2361(7) -0.1266(6) -0.1358(8)
O1A O 0.0809(8) -0.1259(6) 0.2497(7)
H7A H 0.140(9) -0.210(7) 0.273(9)
H8A H 0.06(1) -0.095(9) 0.318(10)
H1A H -0.306(7) -0.071(7) -0.232(8)
H2A H -0.274(8) -0.136(7) -0.052(8)
C2A C -0.2757(8) -0.4075(6) -0.2420(8)
N4A N -0.1750(7) -0.5329(5) -0.2764(7)
N3A N -0.0126(7) -0.4868(6) -0.2361(7)
H3A H 0.060(8) -0.551(7) -0.260(8)
C3A C -0.463(1) -0.3939(10) -0.260(1)
H4A H -0.541(9) -0.314(8) -0.346(9)
H5A H -0.507(9) -0.480(8) -0.299(9)
H6A H -0.469(9) -0.385(8) -0.146(9)
#END
