
#######################################################################
#
#                 Cambridge Crystallographic Data Centre
#                                CCDC
#
#######################################################################
#
# If this CIF has been generated from an entry in the Cambridge
# Structural Database, then it will include bibliographic, chemical,
# crystal, experimental, refinement or atomic coordinate data resulting
# from the CCDC's data processing and validation procedures.
#
#######################################################################

data_CSD_CIF_CEVHEQ
_audit_creation_date 2000-02-03
_audit_creation_method CSD-ConQuest-V1
_database_code_CSD CEVHEQ
_database_code_depnum_ccdc_archive 'CCDC 117444'
_chemical_formula_sum 'C10 H5 F4 Mn1 O2'
_chemical_formula_moiety
;
C10 H5 F4 Mn1 O2
;
_journal_coden_Cambridge 579
_journal_volume 18
_journal_year 1999
_journal_page_first 3962
_journal_name_full 'Organometallics '
loop_
_publ_author_name
"D.Lentz"
"S.Willemsen"
_chemical_name_systematic
;
Dicarbonyl-(\h^5^-cyclopentadienyl)-(\h^2^-1,1,3,3-tetrafluoroallene)-manganes
e
;
_chemical_name_common
;
Dicarbonyl-(eta$5!-cyclopentadienyl)-(eta$2!-tetrafluoroallene)-manganese
;
_chemical_melting_point 319
_cell_volume    528.407
_exptl_crystal_colour 'pale yellow'
_exptl_crystal_density_diffrn 1.811
_exptl_crystal_description 'leaflet'
_exptl_crystal_preparation 'by sublimation'
_diffrn_ambient_temperature 293
#These two values have been output from a single CSD field.
_refine_ls_R_factor_gt 0.0309
_refine_ls_wR_factor_gt 0.0309
_symmetry_cell_setting triclinic
_symmetry_space_group_name_H-M 'P -1'
_symmetry_Int_Tables_number 2
loop_
_symmetry_equiv_pos_site_id
_symmetry_equiv_pos_as_xyz
1 x,y,z
2 -x,-y,-z
_cell_length_a 6.6656(8)
_cell_length_b 7.1814(8)
_cell_length_c 11.8028(15)
_cell_angle_alpha 81.32(1)
_cell_angle_beta 84.44(1)
_cell_angle_gamma 71.330(9)
_cell_formula_units_Z 2
loop_
_atom_type_symbol
_atom_type_radius_bond
C 0.68
H 0.23
F 0.64
Mn 1.35
O 0.68
loop_
_atom_site_label
_atom_site_type_symbol
_atom_site_fract_x
_atom_site_fract_y
_atom_site_fract_z
Mn1 Mn 0.52129(4) 0.73383(4) 0.72525(2)
C1 C 0.3208(3) 1.0193(3) 0.70480(18)
C2 C 0.3373(3) 0.9383(3) 0.81866(17)
C3 C 0.2692(3) 0.9818(3) 0.92036(19)
C4 C 0.3902(4) 0.5829(3) 0.8197(2)
C5 C 0.3774(3) 0.7089(3) 0.61019(19)
C6 C 0.7933(4) 0.8023(5) 0.7658(3)
H1 H 0.78670 0.90430 0.80750
C7 C 0.7904(4) 0.8161(4) 0.6478(2)
H2 H 0.78070 0.93020 0.59660
C8 C 0.8038(4) 0.6377(5) 0.6189(3)
H3 H 0.80490 0.60900 0.54450
C9 C 0.8153(4) 0.5062(4) 0.7163(4)
H4 H 0.82620 0.37310 0.72010
C10 C 0.8078(4) 0.6095(6) 0.8105(3)
H5 H 0.81180 0.55760 0.88770
F1 F 0.1324(2) 1.0683(2) 0.65315(13)
F2 F 0.4020(3) 1.1685(2) 0.66439(14)
F3 F 0.1361(3) 1.1535(2) 0.94735(13)
F4 F 0.3206(3) 0.8629(3) 1.01722(12)
O1 O 0.3051(4) 0.4910(3) 0.8817(2)
O2 O 0.2887(3) 0.6930(3) 0.53619(16)
#END
