
#######################################################################
#
#                 Cambridge Crystallographic Data Centre
#                                CCDC
#
#######################################################################
#
# If this CIF has been generated from an entry in the Cambridge
# Structural Database, then it will include bibliographic, chemical,
# crystal, experimental, refinement or atomic coordinate data resulting
# from the CCDC's data processing and validation procedures.
#
#######################################################################

data_CSD_CIF_CEWJUJ
_audit_creation_date 2000-02-03
_audit_creation_method CSD-ConQuest-V1
_database_code_CSD CEWJUJ
_database_code_depnum_ccdc_archive 'CCDC 111983'
_chemical_formula_sum 'C15 H15 Al1 Cr1 O5'
_chemical_formula_moiety
;
C15 H15 Al1 Cr1 O5
;
_journal_coden_Cambridge 36
_journal_volume 584
_journal_year 1999
_journal_page_first 94
_journal_name_full 'J.Organomet.Chem. '
loop_
_publ_author_name
"Qing Yu"
"A.Purath"
"A.Donchev"
"H.Schnockel"
_chemical_name_systematic
;
Pentacarbonyl-(\h^5^-pentamethyl-cyclopentadienyl)-aluminium-chromium
;
_cell_volume    842.391
_exptl_crystal_colour 'greenish yellow'
_exptl_crystal_density_diffrn 1.397
_exptl_crystal_description 'block'
_diffrn_ambient_temperature 200
#These two values have been output from a single CSD field.
_refine_ls_R_factor_gt 0.0315
_refine_ls_wR_factor_gt 0.0315
_symmetry_cell_setting triclinic
_symmetry_space_group_name_H-M 'P -1'
_symmetry_Int_Tables_number 2
loop_
_symmetry_equiv_pos_site_id
_symmetry_equiv_pos_as_xyz
1 x,y,z
2 -x,-y,-z
_cell_length_a 8.8919(5)
_cell_length_b 9.3859(6)
_cell_length_c 11.0303(8)
_cell_angle_alpha 72.458(6)
_cell_angle_beta 89.345(7)
_cell_angle_gamma 74.266(4)
_cell_formula_units_Z 2
loop_
_atom_type_symbol
_atom_type_radius_bond
C 0.68
H 0.23
Al 1.35
Cr 1.35
O 0.68
loop_
_atom_site_label
_atom_site_type_symbol
_atom_site_fract_x
_atom_site_fract_y
_atom_site_fract_z
Cr1 Cr 0.08154(3) 0.65635(3) 0.20786(3)
Al1 Al 0.23137(7) 0.39077(6) 0.27338(6)
C1 C -0.1052(2) 0.5945(2) 0.2277(2)
O1 O -0.2213(2) 0.5632(2) 0.2379(2)
C2 C 0.0923(2) 0.6414(2) 0.3817(2)
O2 O 0.0988(2) 0.6343(2) 0.4870(2)
C3 C -0.0349(3) 0.8647(2) 0.1556(2)
O3 O -0.1083(2) 0.9920(2) 0.1236(2)
C4 C 0.2745(3) 0.7056(3) 0.1911(2)
O4 O 0.3910(2) 0.7359(3) 0.1818(2)
C5 C 0.0851(2) 0.6436(2) 0.0403(2)
O5 O 0.0860(2) 0.6363(2) -0.0613(2)
C6 C 0.3319(3) 0.1792(2) 0.4320(2)
C7 C 0.2627(2) 0.1408(2) 0.3348(2)
C8 C 0.3436(3) 0.1805(2) 0.2233(2)
C9 C 0.4609(2) 0.2453(2) 0.2507(2)
C10 C 0.4539(2) 0.2448(2) 0.3788(2)
C11 C 0.2936(5) 0.1500(4) 0.5682(3)
H1 H 0.3777(44) 0.0628(46) 0.6267(35)
H2 H 0.203(4) 0.1172(39) 0.5803(31)
H3 H 0.2658(50) 0.2381(51) 0.5982(39)
C12 C 0.1290(4) 0.0678(4) 0.3472(4)
H4 H 0.0802(60) 0.0741(59) 0.4154(51)
H5 H 0.1677(51) -0.0418(58) 0.3552(41)
H6 H 0.0534(60) 0.1147(60) 0.2762(51)
C13 C 0.3170(5) 0.1516(4) 0.0994(3)
H7 H 0.2165(55) 0.1275(51) 0.0970(41)
H8 H 0.3889(56) 0.0564(59) 0.0975(42)
H9 H 0.3002(50) 0.2350(52) 0.0284(42)
C14 C 0.5754(4) 0.3010(4) 0.1584(4)
H10 H 0.5300(58) 0.3400(59) 0.0686(48)
H11 H 0.6636(60) 0.2254(61) 0.1658(46)
H12 H 0.5928(50) 0.3926(55) 0.1619(41)
C15 C 0.5608(5) 0.3021(5) 0.4457(5)
H13 H 0.5233(53) 0.3058(53) 0.5207(44)
H14 H 0.5679(57) 0.3952(63) 0.4085(47)
H15 H 0.6631(74) 0.2200(74) 0.4772(57)
#END
