
#######################################################################
#
#                 Cambridge Crystallographic Data Centre
#                                CCDC
#
#######################################################################
#
# If this CIF has been generated from an entry in the Cambridge
# Structural Database, then it will include bibliographic, chemical,
# crystal, experimental, refinement or atomic coordinate data resulting
# from the CCDC's data processing and validation procedures.
#
#######################################################################

data_CSD_CIF_CEWTUT
_audit_creation_date 1985-02-07
_audit_creation_method CSD-ConQuest-V1
_database_code_CSD CEWTUT
_chemical_formula_sum 'C8 H18 Cl1 Co1 N4 O8'
_chemical_formula_moiety
;
C8 H18 Co1 N4 O4 1+,Cl1 O4 1-
;
_journal_coden_Cambridge 367
_journal_volume 10
_journal_year 1984
_journal_page_first 255
_journal_name_full 'Koord.Khim.(Russ.)(Coord.Chem.) '
loop_
_publ_author_name
"E.B.Chuklanova"
"T.N.Polynova"
"A.V.Sobolev"
"M.A.Porai-Koshits"
_chemical_name_systematic
;
Ethylenediamine-(ethylenediamine-N,N'-diacetato)-cobalt(iii) perchlorate
;
_cell_volume    722.869
_exptl_special_details
;
The y coordinate of N1 should be 0.455 not 0.450, the z coordinate of C1 
should be 0.504, not 0.514
;
_diffrn_ambient_temperature ?
_diffrn_special_details
;
The study was carried out at room temperature,in the range 283-303K

;
#These two values have been output from a single CSD field.
_refine_ls_R_factor_gt 0.054
_refine_ls_wR_factor_gt 0.054
_symmetry_cell_setting monoclinic
_symmetry_space_group_name_H-M 'P 1 1 n'
_symmetry_Int_Tables_number 7
loop_
_symmetry_equiv_pos_site_id
_symmetry_equiv_pos_as_xyz
1 x,y,z
2 1/2+x,1/2+y,-z
_cell_length_a 11.017(6)
_cell_length_b 9.165(5)
_cell_length_c 7.966(4)
_cell_angle_alpha 90
_cell_angle_beta 90
_cell_angle_gamma 116.01(4)
_cell_formula_units_Z 2
loop_
_atom_type_symbol
_atom_type_radius_bond
C 0.68
H 0.23
Cl 0.99
Co 1.33
N 0.68
O 0.68
loop_
_atom_site_label
_atom_site_type_symbol
_atom_site_fract_x
_atom_site_fract_y
_atom_site_fract_z
Co1 Co 0.50000 0.50000 0.30680
Cl1 Cl 0.97060 0.56500 0.12210
O1 O 0.66330 0.68900 0.28760
O2 O 0.76370 0.95270 0.34390
O3 O 0.33030 0.31400 0.32160
O4 O 0.14310 0.16280 0.17970
O5 O 0.86400 0.51100 -0.00400
O6 O 1.07500 0.56800 0.01100
O7 O 1.00900 0.73300 0.14200
O8 O 0.94500 0.47900 0.27800
N1 N 0.54500 0.45500 0.53300
N2 N 0.58500 0.37600 0.21500
N3 N 0.42390 0.64220 0.39500
N4 N 0.43680 0.53300 0.08500
C1 C 0.64900 0.39200 0.50400
C2 C 0.60700 0.27800 0.35500
C3 C 0.34100 0.66500 0.26300
C4 C 0.40900 0.67600 0.09700
C5 C 0.54000 0.79700 0.44700
C6 C 0.66600 0.81700 0.35500
C7 C 0.32000 0.38400 0.03600
C8 C 0.25700 0.27500 0.18800
H1 H 0.46000 0.36200 0.58800
H2 H 0.58200 0.55400 0.60600
H3 H 0.52500 0.29700 0.12900
H4 H 0.67400 0.44500 0.16800
H5 H 0.65500 0.33200 0.62200
H6 H 0.74200 0.48900 0.49200
H7 H 0.51400 0.16500 0.37800
H8 H 0.67600 0.23100 0.32100
H9 H 0.36400 0.59200 0.49900
H10 H 0.50800 0.56000 -0.00400
H11 H 0.33800 0.77300 0.28600
H12 H 0.24900 0.57700 0.26600
H13 H 0.34100 0.66800 0.00500
H14 H 0.49100 0.77700 0.08500
H15 H 0.56000 0.79900 0.57100
H16 H 0.52300 0.89300 0.42000
H17 H 0.24900 0.41000 -0.01800
H18 H 0.34800 0.32100 -0.04700
#END
