
#######################################################################
#
#                 Cambridge Crystallographic Data Centre
#                                CCDC
#
#######################################################################
#
# If this CIF has been generated from an entry in the Cambridge
# Structural Database, then it will include bibliographic, chemical,
# crystal, experimental, refinement or atomic coordinate data resulting
# from the CCDC's data processing and validation procedures.
#
#######################################################################

data_CSD_CIF_CEWTUT01
_audit_creation_date 1989-08-09
_audit_creation_method CSD-ConQuest-V1
_database_code_CSD CEWTUT01
_database_code_depnum_ccdc_archive 'CCDC 1123869'
_chemical_formula_sum 'C8 H18 Cl1 Co1 N4 O8'
_chemical_formula_moiety
;
C8 H18 Co1 N4 O4 1+,Cl1 O4 1-
;
_journal_coeditor_code "IUCr AL0286"
_journal_coden_Cambridge 591
_journal_volume 45
_journal_year 1989
_journal_page_first 398
_journal_name_full 'Acta Crystallogr.,Sect.C:Cryst.Struct.Commun. '
loop_
_publ_author_name
"K.Das"
"U.C.Sinha"
"A.Phulambrikar"
"C.Chatterjee"
"R.Bohra"
_chemical_name_systematic
;
(Ethylenediamine-N,N')-(cis-\a-ethylenediamine-N,N'-diacetato-N,N',O,O')-cobal
t(iii) perchlorate
;
_cell_volume    723.240
_exptl_crystal_density_diffrn 1.803
_diffrn_ambient_temperature ?
_diffrn_special_details
;
The study was carried out at room temperature,in the range 283-303K

;
#These two values have been output from a single CSD field.
_refine_ls_R_factor_gt 0.047
_refine_ls_wR_factor_gt 0.047
_symmetry_cell_setting monoclinic
_symmetry_space_group_name_H-M 'P c'
_symmetry_Int_Tables_number 7
loop_
_symmetry_equiv_pos_site_id
_symmetry_equiv_pos_as_xyz
1 x,y,z
2 x,-y,1/2+z
_cell_length_a 9.169(1)
_cell_length_b 7.966(1)
_cell_length_c 10.809(1)
_cell_angle_alpha 90
_cell_angle_beta 113.64(1)
_cell_angle_gamma 90
_cell_formula_units_Z 2
loop_
_atom_type_symbol
_atom_type_radius_bond
C 0.68
H 0.23
Cl 0.99
Co 1.33
N 0.68
O 0.68
loop_
_atom_site_label
_atom_site_type_symbol
_atom_site_fract_x
_atom_site_fract_y
_atom_site_fract_z
Co1 Co 0.00000 0.1933(1) 0.00000
N1 N 0.0989(8) -0.0270(8) 0.0464(7)
N2 N 0.2107(9) 0.2832(9) 0.0871(8)
N3 N -0.0947(8) 0.4171(8) -0.0606(7)
N4 N -0.2205(8) 0.1046(8) -0.0756(7)
O1 O 0.0176(8) 0.1786(6) -0.1680(6)
O2 O -0.0226(8) 0.2115(7) 0.1666(6)
O3 O -0.0165(9) 0.3189(7) -0.3547(7)
O4 O -0.1849(8) 0.1535(8) 0.2666(7)
C1 C 0.2628(9) -0.0037(10) 0.1517(9)
C2 C 0.3267(9) 0.1416(10) 0.1101(9)
C3 C -0.0627(9) 0.4653(8) -0.1777(8)
C4 C -0.0153(9) 0.3106(8) -0.2387(8)
C5 C -0.2616(9) 0.4035(9) -0.0867(8)
C6 C -0.3224(9) 0.233(1) -0.1601(8)
C7 C -0.2596(9) 0.0506(9) 0.0393(8)
C8 C -0.1491(8) 0.1444(9) 0.1691(8)
H1 H 0.0279(11) -0.1152(11) 0.0494(11)
H2 H 0.0547(11) -0.0843(11) -0.0307(11)
H3 H 0.2665(11) 0.0250(11) 0.2381(11)
H4 H 0.3373(11) -0.1081(11) 0.1645(11)
H5 H 0.3421(11) 0.1248(11) 0.0205(11)
H6 H 0.4418(11) 0.1819(11) 0.1905(11)
H7 H 0.2341(11) 0.3589(11) 0.0403(11)
H8 H 0.1925(11) 0.3529(11) 0.1568(11)
H9 H -0.0859(11) 0.5218(11) -0.0188(11)
H10 H 0.0265(11) 0.5588(11) -0.1517(11)
H11 H -0.1745(11) 0.5159(11) -0.2556(11)
H12 H -0.3461(11) 0.4762(11) -0.1411(11)
H13 H -0.2394(11) 0.3997(11) 0.0065(11)
H14 H -0.4464(11) 0.1948(11) -0.1704(11)
H15 H -0.3215(11) 0.2410(11) -0.2593(11)
H16 H -0.2359(11) -0.0005(11) -0.1405(11)
H17 H -0.3811(11) 0.0821(11) 0.0241(11)
H18 H -0.2355(11) -0.0829(11) 0.0606(11)
Cl1 Cl 0.4078(3) 0.3782(4) 0.4725(3)
O5 O 0.3573(10) 0.4847(10) 0.3601(9)
O6 O 0.2792(10) 0.3568(10) 0.5138(10)
O7 O 0.5158(11) 0.4745(11) 0.5802(10)
O8 O 0.4621(11) 0.2295(11) 0.4483(11)
#END
