
#######################################################################
#
#                 Cambridge Crystallographic Data Centre
#                                CCDC
#
#######################################################################
#
# If this CIF has been generated from an entry in the Cambridge
# Structural Database, then it will include bibliographic, chemical,
# crystal, experimental, refinement or atomic coordinate data resulting
# from the CCDC's data processing and validation procedures.
#
#######################################################################

data_CSD_CIF_CEXXAE
_audit_creation_date 2000-02-03
_audit_creation_method CSD-ConQuest-V1
_database_code_CSD CEXXAE
_database_code_depnum_ccdc_archive 'CCDC 136968'
_database_code_depnum_ccdc_journal 207/356
_chemical_formula_sum 'C12 H10 Cr1 O3 S1'
_chemical_formula_moiety
;
C12 H10 Cr1 O3 S1
;
_journal_coden_Cambridge 207
_journal_year 1999
_journal_page_first 3177
_journal_name_full 'J.Chem.Soc.,Perkin Trans.1 '
loop_
_publ_author_name
"A.Ariffin"
"A.J.Blake"
"R.A.Ewin"
"Wan-Sheung Li"
"N.S.Simpkins"
_chemical_name_systematic
;
(1S,3'S)-Tricarbonyl-(\h^6^-1-methyl-1,3-dihydroisobenzothiophene)-chromium(0)
;
_chemical_melting_point 391.15
_cell_volume    594.192
_exptl_crystal_colour 'pale yellow'
_exptl_crystal_density_diffrn 1.6
_exptl_crystal_description 'block'
_diffrn_ambient_temperature 150
#These two values have been output from a single CSD field.
_refine_ls_R_factor_gt 0.0283
_refine_ls_wR_factor_gt 0.0283
_symmetry_cell_setting monoclinic
_symmetry_space_group_name_H-M 'P 21'
_symmetry_Int_Tables_number 4
loop_
_symmetry_equiv_pos_site_id
_symmetry_equiv_pos_as_xyz
1 x,y,z
2 -x,1/2+y,-z
_cell_length_a 6.581(6)
_cell_length_b 8.758(9)
_cell_length_c 10.333(8)
_cell_angle_alpha 90
_cell_angle_beta 93.88(8)
_cell_angle_gamma 90
_cell_formula_units_Z 2
loop_
_atom_type_symbol
_atom_type_radius_bond
C 0.68
H 0.23
Cr 1.35
O 0.68
S 1.02
loop_
_atom_site_label
_atom_site_type_symbol
_atom_site_fract_x
_atom_site_fract_y
_atom_site_fract_z
Cr1 Cr 0.03618(7) 0.72036(5) 0.74402(4)
C1 C 0.2767(5) 1.0542(4) 0.6931(3)
H1 H 0.19260 1.06400 0.60930
S1 S 0.14647(15) 1.15013(10) 0.82136(9)
C2 C 0.2535(5) 0.8624(4) 0.8655(3)
C3 C 0.2158(5) 1.0041(4) 0.9418(3)
H2 H 0.33990 1.03420 0.99510
H3 H 0.10390 0.98760 0.99960
C4 C 0.2591(4) 0.7116(4) 0.9160(3)
H4 H 0.21030 0.69130 1.00390
C5 C 0.2984(5) 0.5895(4) 0.8344(4)
H5 H 0.27660 0.48270 0.86480
C6 C 0.3311(5) 0.6161(4) 0.7012(3)
H6 H 0.33310 0.52780 0.63990
C7 C 0.2838(5) 0.8886(4) 0.7340(3)
C8 C 0.3242(5) 0.7637(4) 0.6528(3)
H7 H 0.32100 0.77980 0.55690
C9 C 0.4878(6) 1.1173(4) 0.6766(4)
H8 H 0.54990 1.06180 0.60700
H9 H 0.57210 1.10500 0.75770
H10 H 0.47780 1.22600 0.65420
C10 C -0.1011(5) 0.8032(4) 0.6007(3)
O1 O -0.1892(5) 0.8557(3) 0.5109(2)
C11 C -0.1620(5) 0.7997(4) 0.8414(3)
O2 O -0.2811(4) 0.8567(3) 0.9037(2)
C12 C -0.1137(5) 0.5436(4) 0.7118(4)
O3 O -0.2104(5) 0.4368(3) 0.6892(3)
#END
