
#######################################################################
#
#                 Cambridge Crystallographic Data Centre
#                                CCDC
#
#######################################################################
#
# If this CIF has been generated from an entry in the Cambridge
# Structural Database, then it will include bibliographic, chemical,
# crystal, experimental, refinement or atomic coordinate data resulting
# from the CCDC's data processing and validation procedures.
#
#######################################################################

data_CSD_CIF_CGLYMN
_audit_creation_date 1974-06-21
_audit_creation_method CSD-ConQuest-V1
_database_code_CSD CGLYMN
_database_code_depnum_ccdc_archive 'CCDC 1124301'
_chemical_formula_sum 'C4 H12 Cl2 Mn1 O4'
_chemical_formula_moiety
;
C4 H12 Cl2 Mn1 O4
;
_journal_coden_Cambridge 3
_journal_volume 27
_journal_year 1973
_journal_page_first 3513
_journal_name_full 'Acta Chem.Scand. '
loop_
_publ_author_name
"B.-M.Antti"
_chemical_name_systematic
;
cis-Dichloro-bis(1,2-ethanediol)-manganese(ii)
;
_cell_volume    973.614
_exptl_crystal_density_diffrn 1.7
_diffrn_ambient_temperature ?
_diffrn_special_details
;
The study was carried out at room temperature,in the range 283-303K

;
#These two values have been output from a single CSD field.
_refine_ls_R_factor_gt 0.053
_refine_ls_wR_factor_gt 0.053
_symmetry_cell_setting monoclinic
_symmetry_space_group_name_H-M 'P 21/c'
_symmetry_Int_Tables_number 14
loop_
_symmetry_equiv_pos_site_id
_symmetry_equiv_pos_as_xyz
1 x,y,z
2 -x,1/2+y,1/2-z
3 -x,-y,-z
4 x,-1/2-y,-1/2+z
_cell_length_a 9.491(1)
_cell_length_b 7.223(1)
_cell_length_c 14.213(1)
_cell_angle_alpha 90
_cell_angle_beta 92.229(7)
_cell_angle_gamma 90
_cell_formula_units_Z 4
loop_
_atom_type_symbol
_atom_type_radius_bond
C 0.68
H 0.20
Cl 0.99
Mn 1.22
O 0.68
loop_
_atom_site_label
_atom_site_type_symbol
_atom_site_fract_x
_atom_site_fract_y
_atom_site_fract_z
Cl1 Cl 0.20620 0.13990 -0.40160
Cl2 Cl 0.29810 -0.16800 -0.59960
C1 C 0.54640 0.31550 -0.62030
C2 C 0.45130 0.37150 -0.70130
C3 C 0.04480 0.46230 -0.64500
C4 C -0.04940 0.30050 -0.63260
H1 H 0.50600 0.24200 -0.48800
H2 H -0.01100 0.58900 -0.63700
H3 H -0.09400 0.30700 -0.57000
H4 H -0.12600 0.30600 -0.68000
H5 H 0.29800 0.23800 -0.76400
H6 H 0.20700 0.57400 -0.57700
H7 H -0.01200 0.03700 -0.61000
H8 H 0.59100 0.18300 -0.63800
H9 H 0.61900 0.41400 -0.60800
H10 H 0.40600 0.49700 -0.69000
H11 H 0.50100 0.38100 -0.75700
H12 H 0.08900 0.46700 -0.71900
Mn1 Mn 0.25100 0.16210 -0.57070
O1 O 0.45860 0.28410 -0.54130
O2 O 0.34300 0.23240 -0.70960
O3 O 0.15830 0.44630 -0.57690
O4 O 0.03710 0.13620 -0.63430
#END
