
#######################################################################
#
#                 Cambridge Crystallographic Data Centre
#                                CCDC
#
#######################################################################
#
# If this CIF has been generated from an entry in the Cambridge
# Structural Database, then it will include bibliographic, chemical,
# crystal, experimental, refinement or atomic coordinate data resulting
# from the CCDC's data processing and validation procedures.
#
#######################################################################

data_CSD_CIF_CICMOQ
_audit_creation_date 1985-02-07
_audit_creation_method CSD-ConQuest-V1
_database_code_CSD CICMOQ
_chemical_formula_sum 'C14 H10 Cr1 N2 O4'
_chemical_formula_moiety
;
C14 H10 Cr1 N2 O4
;
_journal_coden_Cambridge 155
_journal_volume 83
_journal_year 1984
_journal_page_first 5
_journal_name_full 'Inorg.Chim.Acta '
loop_
_publ_author_name
"W.Ries"
"I.Bernal"
"M.Quast"
"T.A.Albright"
_chemical_name_systematic
;
Tetracarbonyl-bis(pyridine)-chromium
;
_chemical_melting_point 435.15
_cell_volume    720.733
_exptl_crystal_colour 'orange'
_exptl_special_details
;
Melts with decomposition.

;
_diffrn_ambient_temperature ?
_diffrn_special_details
;
The study was carried out at room temperature,in the range 283-303K

;
#These two values have been output from a single CSD field.
_refine_ls_R_factor_gt 0.0338
_refine_ls_wR_factor_gt 0.0338
loop_
_citation_database_id_CSD
_citation_special_details
CICMOQ01 "is a reinterpretation of this cif"
_symmetry_cell_setting triclinic
_symmetry_space_group_name_H-M 'P -1'
_symmetry_Int_Tables_number 2
loop_
_symmetry_equiv_pos_site_id
_symmetry_equiv_pos_as_xyz
1 x,y,z
2 -x,-y,-z
_cell_length_a 7.365(2)
_cell_length_b 8.136(2)
_cell_length_c 13.491(4)
_cell_angle_alpha 89.49(2)
_cell_angle_beta 88.89(2)
_cell_angle_gamma 63.09(2)
_cell_formula_units_Z 2
loop_
_atom_type_symbol
_atom_type_radius_bond
C 0.68
H 0.23
Cr 1.35
N 0.68
O 0.68
loop_
_atom_site_label
_atom_site_type_symbol
_atom_site_fract_x
_atom_site_fract_y
_atom_site_fract_z
Cr1 Cr 0.13460 0.23070 0.25000
O1 O 0.20220 0.52960 0.15210
O2 O -0.23180 0.52990 0.34880
O3 O -0.15010 0.26050 0.08520
O4 O 0.38950 0.26340 0.41540
N1 N 0.10240 0.01270 0.32830
N2 N 0.38640 0.01000 0.17210
C1 C 0.17530 0.41170 0.18730
C2 C -0.08890 0.41170 0.31250
C3 C -0.04140 0.24300 0.14690
C4 C 0.29910 0.24220 0.35450
C5 C 0.26510 -0.13600 0.36490
C6 C 0.24760 -0.27450 0.41540
C7 C 0.06350 -0.26860 0.42940
C8 C -0.10680 -0.11590 0.39480
C9 C -0.08080 0.01790 0.34500
C10 C 0.37190 -0.13590 0.13560
C11 C 0.52880 -0.27640 0.08350
C12 C 0.70710 -0.26790 0.06940
C13 C 0.72580 -0.11930 0.10440
C14 C 0.56260 0.01750 0.15540
H1 H 0.39500 -0.13000 0.35400
H2 H 0.36900 -0.36200 0.44200
H3 H 0.03300 -0.33700 0.46400
H4 H -0.24300 -0.10100 0.39700
H5 H -0.20200 0.14700 0.30800
H6 H 0.24500 -0.14600 0.15300
H7 H 0.50000 -0.37900 0.04900
H8 H 0.79200 -0.33600 0.02500
H9 H 0.83700 -0.08600 0.08500
H10 H 0.58900 0.12700 0.19100
#END
