
#######################################################################
#
#                 Cambridge Crystallographic Data Centre
#                                CCDC
#
#######################################################################
#
# If this CIF has been generated from an entry in the Cambridge
# Structural Database, then it will include bibliographic, chemical,
# crystal, experimental, refinement or atomic coordinate data resulting
# from the CCDC's data processing and validation procedures.
#
#######################################################################

data_CSD_CIF_CIDJUX
_audit_creation_date 2018-07-02
_audit_creation_method CSD-ConQuest-V1
_database_code_CSD CIDJUX
_database_code_depnum_ccdc_archive 'CCDC 900541'
_chemical_formula_sum 'C10 H12 Cl2 Mn1 N8 O2'
_chemical_formula_moiety
;
C10 H12 Cl2 Mn1 N8 O2
;
_journal_coden_Cambridge 2020
_journal_volume 3
_journal_year 2018
_journal_page_first 6935
_journal_name_full 'Chem. Sel. '
loop_
_publ_author_name
"M.Dolai"
"U.Saha"
"G.S.Kumar"
"M.Ali"
_chemical_name_systematic
;
dichloro-bis(N'-hydroxypyrimidine-2-carboximidamide)-manganese(ii)
;
_cell_volume    833.364
_exptl_crystal_colour 'yellow'
_exptl_crystal_density_diffrn 1.602
_exptl_crystal_description 'Block'
_diffrn_ambient_temperature 296
#These two values have been output from a single CSD field.
_refine_ls_R_factor_gt 0.043
_refine_ls_wR_factor_gt 0.043
_symmetry_cell_setting triclinic
_symmetry_space_group_name_H-M 'P -1'
_symmetry_Int_Tables_number 2
loop_
_symmetry_equiv_pos_site_id
_symmetry_equiv_pos_as_xyz
1 x,y,z
2 -x,-y,-z
_cell_length_a 8.1963(3)
_cell_length_b 9.5454(3)
_cell_length_c 11.0972(4)
_cell_angle_alpha 91.404(2)
_cell_angle_beta 106.141(2)
_cell_angle_gamma 91.255(2)
_cell_formula_units_Z 2
loop_
_atom_type_symbol
_atom_type_radius_bond
C 0.68
H 0.23
Cl 0.99
Mn 1.61
N 0.68
O 0.68
loop_
_atom_site_label
_atom_site_type_symbol
_atom_site_fract_x
_atom_site_fract_y
_atom_site_fract_z
Mn1 Mn 0.72447(3) 0.24606(2) 0.25528(2)
N1 N 0.78507(15) 0.02011(11) 0.26508(12)
Cl1 Cl 0.72905(4) 0.33927(3) 0.47006(3)
Cl2 Cl 0.42845(5) 0.15763(4) 0.17133(4)
N2 N 0.73982(19) 0.47118(11) 0.21368(11)
C1 C 0.93330(16) -0.02317(12) 0.32294(12)
N3 N 1.01542(14) 0.22008(11) 0.33415(11)
N4 N 0.7161(3) 0.64735(16) 0.06734(16)
C2 C 0.7534(3) 0.16972(18) -0.03248(17)
H1 H 0.75950 0.07710 -0.00780
N5 N 0.7369(3) 0.44094(19) -0.10412(15)
O1 O 0.7291(2) 0.58256(11) 0.29612(12)
N6 N 0.74982(18) 0.27153(12) 0.05176(12)
C3 C 1.06726(16) 0.08957(12) 0.36006(12)
C4 C 0.7409(2) 0.40217(15) 0.01059(13)
N7 N 1.22343(16) 0.05144(13) 0.41745(14)
C5 C 1.33968(19) 0.15667(19) 0.45224(19)
H2 H 1.45160 0.13540 0.49190
C6 C 1.2994(2) 0.29504(18) 0.43145(19)
H3 H 1.38130 0.36680 0.45730
C7 C 1.13373(19) 0.32262(15) 0.37100(17)
H4 H 1.10300 0.41500 0.35530
N8 N 0.97401(17) -0.15558(12) 0.35099(14)
C8 C 0.7316(2) 0.51457(14) 0.10283(13)
C9 C 0.7394(4) 0.3363(3) -0.1862(2)
H5 H 0.73500 0.35840 -0.26820
C10 C 0.7483(3) 0.1979(2) -0.1546(2)
H6 H 0.75070 0.12670 -0.21270
O2 O 0.66361(15) -0.09107(11) 0.23346(14)
H7 H 0.576(3) -0.047(3) 0.204(2)
H8 H 0.741(3) 0.539(3) 0.356(3)
H9 H 1.079(3) -0.175(2) 0.402(2)
H10 H 0.888(2) -0.232(2) 0.3292(18)
H11 H 0.705(4) 0.660(3) -0.007(3)
H12 H 0.703(3) 0.717(3) 0.122(2)
#END
