
#######################################################################
#
#                 Cambridge Crystallographic Data Centre
#                                CCDC
#
#######################################################################
#
# If this CIF has been generated from an entry in the Cambridge
# Structural Database, then it will include bibliographic, chemical,
# crystal, experimental, refinement or atomic coordinate data resulting
# from the CCDC's data processing and validation procedures.
#
#######################################################################

data_CSD_CIF_CIDLEG
_audit_creation_date 1985-03-02
_audit_creation_method CSD-ConQuest-V1
_database_code_CSD CIDLEG
_database_code_depnum_ccdc_archive 'CCDC 1124887'
_chemical_formula_sum 'C18 H38 Br1 Co1 N4 O11 S1'
_chemical_formula_moiety
;
C8 H18 Co1 N4 O4 1+,C10 H14 Br1 O4 S1 1-,3(H2 O1)
;
_journal_coden_Cambridge 4
_journal_volume 106
_journal_year 1984
_journal_page_first 2819
_journal_name_full 'J.Am.Chem.Soc. '
loop_
_publ_author_name
"A.Hammershoi"
"A.M.Sargeson"
"W.L.Steffen"
_chemical_name_systematic
;
\d-fac(5,5)-(R)-N-((2-Aminoethyl)-aspartate)-ethylenediamine-cobalt(iii) 
(+)~589~-\a-bromocamphor-sulfonate trihydrate
;
_cell_volume    662.147
_exptl_crystal_colour 'red'
_exptl_crystal_density_diffrn 1.649
_diffrn_ambient_temperature ?
_diffrn_special_details
;
The study was carried out at room temperature,in the range 283-303K

;
#These two values have been output from a single CSD field.
_refine_ls_R_factor_gt 0.04
_refine_ls_wR_factor_gt 0.04
_symmetry_cell_setting triclinic
_symmetry_space_group_name_H-M 'P 1'
_symmetry_Int_Tables_number 1
loop_
_symmetry_equiv_pos_site_id
_symmetry_equiv_pos_as_xyz
1 x,y,z
_cell_length_a 6.976(1)
_cell_length_b 7.242(1)
_cell_length_c 14.248(2)
_cell_angle_alpha 76.89(1)
_cell_angle_beta 84.61(1)
_cell_angle_gamma 70.86(1)
_cell_formula_units_Z 1
loop_
_atom_type_symbol
_atom_type_radius_bond
C 0.68
H 0.23
Br 1.21
Co 1.33
N 0.68
O 0.68
S 1.02
loop_
_atom_site_label
_atom_site_type_symbol
_atom_site_fract_x
_atom_site_fract_y
_atom_site_fract_z
Br1 Br 0.00000 0.00000 0.00000
S1 S -0.43440 0.73180 0.21110
O1 O -0.41440 0.25860 -0.11260
O2 O -0.63810 0.73950 0.24810
O3 O -0.28320 0.55520 0.25780
O4 O -0.39150 0.91320 0.21290
C1 C -0.23830 0.20410 0.03490
C2 C -0.20340 0.35970 0.07870
C3 C -0.40060 0.53910 -0.04970
C4 C -0.36060 0.32400 -0.05320
C5 C -0.41380 0.52560 0.06180
C6 C -0.42760 0.72520 0.08670
C7 C -0.59210 0.45900 0.10950
C8 C -0.05950 0.45260 0.01350
C9 C -0.19000 0.57100 -0.07630
C10 C -0.57600 0.68490 -0.11180
H1 H -0.34700 0.19500 0.07400
H2 H -0.14800 0.29400 0.14500
H3 H -0.06700 0.55100 0.02600
H4 H 0.11000 0.34500 -0.00300
H5 H -0.13600 0.50900 -0.14300
H6 H -0.25000 0.72300 -0.10000
H7 H -0.30600 0.77300 0.05100
H8 H -0.53300 0.84500 0.05800
H9 H -0.73800 0.56400 0.11800
H10 H -0.62200 0.38400 0.07900
H11 H -0.53800 0.38400 0.18300
H12 H -0.53700 0.72000 -0.18900
H13 H -0.74400 0.66600 -0.08000
H14 H -0.62900 0.81500 -0.11600
Co1 Co 0.97470 0.24540 0.50560
O5 O 0.72430 0.18570 0.52610
O6 O 1.12230 -0.03370 0.54760
O7 O 0.54600 0.05500 0.64580
O8 O 1.24060 -0.31910 0.64930
N1 N 0.83140 0.52820 0.46230
N2 N 0.92120 0.29280 0.63640
N3 N 1.24100 0.28130 0.48330
N4 N 0.99710 0.20390 0.37420
C11 C 0.68750 0.12390 0.61570
C12 C 0.83290 0.13470 0.68600
C13 C 1.00130 -0.06130 0.71410
C14 C 1.13050 -0.14310 0.63230
C15 C 0.77630 0.49980 0.63240
C16 C 0.82270 0.63220 0.54080
C17 C 1.33830 0.19780 0.39730
C18 C 1.17910 0.24850 0.32530
H15 H 0.71500 0.53300 0.45300
H16 H 0.89500 0.59100 0.39300
H17 H 1.05700 0.29700 0.66700
H18 H 1.30100 0.20800 0.55800
H19 H 1.25100 0.41800 0.46600
H20 H 0.98300 0.08500 0.37200
H21 H 0.84600 0.31600 0.33900
H22 H 0.74300 0.17000 0.74900
H23 H 1.07900 -0.00900 0.75700
H24 H 0.95900 -0.16600 0.75500
H25 H 0.63700 0.45900 0.63100
H26 H 0.83800 0.50700 0.68500
H27 H 0.72400 0.77400 0.52200
H28 H 0.94400 0.67400 0.54300
H29 H 1.45700 0.24100 0.37000
H30 H 1.42000 0.03800 0.42200
H31 H 1.20400 0.19800 0.27100
H32 H 1.19700 0.35500 0.27200
O9 O 0.96520 0.84090 0.31380
H33 H 0.96800 0.84200 0.24100
H34 H 0.96700 0.76300 0.36600
O10 O 0.20530 0.32690 0.75820
H35 H 0.26500 0.23200 0.79300
H36 H 0.25900 0.37700 0.71100
O11 O 0.37860 0.63430 0.45210
H37 H 0.30200 0.74500 0.48700
H38 H 0.39000 0.69800 0.39000
#END
