
#######################################################################
#
#                 Cambridge Crystallographic Data Centre
#                                CCDC
#
#######################################################################
#
# If this CIF has been generated from an entry in the Cambridge
# Structural Database, then it will include bibliographic, chemical,
# crystal, experimental, refinement or atomic coordinate data resulting
# from the CCDC's data processing and validation procedures.
#
#######################################################################

data_CSD_CIF_CIDVOA
_audit_creation_date 1985-03-02
_audit_creation_method CSD-ConQuest-V1
_database_code_CSD CIDVOA
_chemical_formula_sum 'C12 H16 Cr1 N2 O8'
_chemical_formula_moiety
;
C12 H16 Cr1 N2 O8
;
_journal_coden_Cambridge 155
_journal_volume 91
_journal_year 1984
_journal_page_first 1
_journal_name_full 'Inorg.Chim.Acta '
loop_
_publ_author_name
"J.A.Cooper"
"B.F.Anderson"
"P.D.Buckley"
"L.F.Blackwell"
_chemical_name_systematic
;
trans-Tetra-aqua-bis(pyridine-3-carboxylate-N)-chromium(ii)
;
_cell_volume    736.082
_exptl_crystal_colour 'yellow'
_exptl_crystal_density_diffrn 1.66
_exptl_special_details
;
monoclinic polymorph
x (C3) should be 0.338, not 0.388

;
_diffrn_ambient_temperature ?
_diffrn_special_details
;
The study was carried out at room temperature,in the range 283-303K

;
#These two values have been output from a single CSD field.
_refine_ls_R_factor_gt 0.053
_refine_ls_wR_factor_gt 0.053
loop_
_citation_database_id_CSD
_citation_special_details
CIDVOA03 "is a reinterpretation of this cif"
_symmetry_cell_setting monoclinic
_symmetry_space_group_name_H-M 'C 2'
_symmetry_Int_Tables_number 5
loop_
_symmetry_equiv_pos_site_id
_symmetry_equiv_pos_as_xyz
1 x,y,z
2 1/2+x,1/2+y,z
3 -x,y,-z
4 1/2-x,1/2+y,-z
_cell_length_a 14.243(4)
_cell_length_b 6.914(2)
_cell_length_c 8.495(3)
_cell_angle_alpha 90
_cell_angle_beta 118.37(2)
_cell_angle_gamma 90
_cell_formula_units_Z 2
loop_
_atom_type_symbol
_atom_type_radius_bond
C 0.68
H 0.23
Cr 1.35
N 0.68
O 0.68
loop_
_atom_site_label
_atom_site_type_symbol
_atom_site_fract_x
_atom_site_fract_y
_atom_site_fract_z
Cr1 Cr 0.00000 0.00000 0.00000
N1 N 0.14700 -0.00400 0.24500
C1 C 0.14700 0.00000 0.40300
C2 C 0.24000 0.00200 0.56900
C3 C 0.33800 0.00100 0.56900
C4 C 0.34100 -0.00800 0.41000
C5 C 0.24400 -0.00100 0.25000
C6 C 0.23100 -0.00400 0.73600
O1 O 0.31700 0.00800 0.88500
O2 O 0.13800 0.01100 0.71900
O3 O 0.05600 0.22400 -0.11300
O4 O -0.06400 -0.21000 0.09900
H1 H 0.07600 0.00700 0.39800
H2 H 0.40900 0.05300 0.70000
H3 H 0.40200 0.00700 0.38200
H4 H 0.24100 0.00900 0.13800
H5 H 0.10200 0.23600 -0.18600
H6 H 0.12500 0.30900 -0.01900
H7 H -0.11200 -0.31000 0.01800
H8 H -0.09900 -0.17000 0.17900
N1B N -0.14700 -0.00400 -0.24500
O3B O -0.05600 0.22400 0.11300
O4B O 0.06400 -0.21000 -0.09900
C1B C -0.14700 0.00000 -0.40300
C5B C -0.24400 -0.00100 -0.25000
H5B H -0.10200 0.23600 0.18600
H6B H -0.12500 0.30900 0.01900
H7B H 0.11200 -0.31000 -0.01800
H8B H 0.09900 -0.17000 -0.17900
C2B C -0.24000 0.00200 -0.56900
H1B H -0.07600 0.00700 -0.39800
C4B C -0.34100 -0.00800 -0.41000
H4B H -0.24100 0.00900 -0.13800
C3B C -0.33800 0.00100 -0.56900
C6B C -0.23100 -0.00400 -0.73600
H3B H -0.40200 0.00700 -0.38200
H2B H -0.40900 0.05300 -0.70000
O1B O -0.31700 0.00800 -0.88500
O2B O -0.13800 0.01100 -0.71900
#END
