
#######################################################################
#
#                 Cambridge Crystallographic Data Centre
#                                CCDC
#
#######################################################################
#
# If this CIF has been generated from an entry in the Cambridge
# Structural Database, then it will include bibliographic, chemical,
# crystal, experimental, refinement or atomic coordinate data resulting
# from the CCDC's data processing and validation procedures.
#
#######################################################################

data_CSD_CIF_CIDVOA01
_audit_creation_date 1987-06-03
_audit_creation_method CSD-ConQuest-V1
_database_code_CSD CIDVOA01
_chemical_formula_sum 'C12 H16 Cr1 N2 O8'
_chemical_formula_moiety
;
C12 H16 Cr1 N2 O8
;
_journal_coden_Cambridge 9
_journal_volume 25
_journal_year 1986
_journal_page_first 3372
_journal_name_full 'Inorg.Chem. '
loop_
_publ_author_name
"W.E.Broderick"
"M.R.Pressprich"
"U.Geiser"
"R.D.Willett"
"J.I.Legg"
_chemical_name_systematic
;
trans-Tetra-aqua-bis(nicotinate-N)-chromium(ii)
;
_cell_volume    360.417
_exptl_crystal_colour 'lime-green'
_exptl_crystal_density_diffrn 1.7
_exptl_special_details
;
triclinic polymorph
Isomorphous with the mixed Cr/Zn and Ni nicotinate analogues
z(O2) is negative
;
_diffrn_ambient_temperature ?
_diffrn_special_details
;
The study was carried out at room temperature,in the range 283-303K

;
#These two values have been output from a single CSD field.
_refine_ls_R_factor_gt 0.0264
_refine_ls_wR_factor_gt 0.0264
_symmetry_cell_setting triclinic
_symmetry_space_group_name_H-M 'P -1'
_symmetry_Int_Tables_number 2
loop_
_symmetry_equiv_pos_site_id
_symmetry_equiv_pos_as_xyz
1 x,y,z
2 -x,-y,-z
_cell_length_a 7.010(2)
_cell_length_b 7.223(1)
_cell_length_c 8.851(2)
_cell_angle_alpha 68.08(1)
_cell_angle_beta 68.76(2)
_cell_angle_gamma 63.07(1)
_cell_formula_units_Z 1
loop_
_atom_type_symbol
_atom_type_radius_bond
C 0.68
H 0.23
Cr 1.40
N 0.68
O 0.68
loop_
_atom_site_label
_atom_site_type_symbol
_atom_site_fract_x
_atom_site_fract_y
_atom_site_fract_z
Cr1 Cr 0.00000 0.00000 0.00000
O1 O 0.2021(3) 0.2421(3) -0.0871(3)
O2 O 0.2682(3) -0.2558(3) -0.0665(2)
N1 N 0.0601(3) -0.1260(3) 0.2444(3)
C1 C -0.0905(4) -0.1691(4) 0.3836(3)
C2 C -0.0484(4) -0.2575(4) 0.5414(3)
C3 C 0.1559(4) -0.2940(4) 0.5567(3)
C4 C 0.3121(4) -0.2481(4) 0.4143(3)
C5 C 0.2594(4) -0.1669(4) 0.2632(3)
C6 C -0.2264(4) -0.3056(4) 0.6920(3)
O3 O -0.4103(3) -0.2509(3) 0.6684(2)
O4 O -0.1741(3) -0.4007(3) 0.8311(2)
H1 H -0.23450 -0.13700 0.37300
H2 H 0.18900 -0.35040 0.66500
H3 H 0.45530 -0.27320 0.42220
H4 H 0.36920 -0.13710 0.16490
H5 H 0.26820 -0.36560 -0.00500
H6 H 0.36370 -0.26230 -0.13540
H7 H 0.21070 0.26610 -0.01410
H8 H 0.11650 0.33840 -0.10840
O1A O -0.2021(3) -0.2421(3) 0.0871(3)
H7A H -0.21070 -0.26610 0.01410
H8A H -0.11650 -0.33840 0.10840
O2A O -0.2682(3) 0.2558(3) 0.0665(2)
H5A H -0.26820 0.36560 0.00500
H6A H -0.36370 0.26230 0.13540
N1A N -0.0601(3) 0.1260(3) -0.2444(3)
C1A C 0.0905(4) 0.1691(4) -0.3836(3)
C2A C 0.0484(4) 0.2575(4) -0.5414(3)
C3A C -0.1559(4) 0.2940(4) -0.5567(3)
C4A C -0.3121(4) 0.2481(4) -0.4143(3)
C5A C -0.2594(4) 0.1669(4) -0.2632(3)
H4A H -0.36920 0.13710 -0.16490
H3A H -0.45530 0.27320 -0.42220
H2A H -0.18900 0.35040 -0.66500
C6A C 0.2264(4) 0.3056(4) -0.6920(3)
O3A O 0.4103(3) 0.2509(3) -0.6684(2)
O4A O 0.1741(3) 0.4007(3) -0.8311(2)
H1A H 0.23450 0.13700 -0.37300
#END
