
#######################################################################
#
#                 Cambridge Crystallographic Data Centre
#                                CCDC
#
#######################################################################
#
# If this CIF has been generated from an entry in the Cambridge
# Structural Database, then it will include bibliographic, chemical,
# crystal, experimental, refinement or atomic coordinate data resulting
# from the CCDC's data processing and validation procedures.
#
#######################################################################

data_CSD_CIF_CIDVOA02
_audit_creation_date 1992-04-14
_audit_creation_method CSD-ConQuest-V1
_database_code_CSD CIDVOA02
_database_code_depnum_ccdc_archive 'CCDC 1124931'
_chemical_formula_sum 'C12 H16 Cr1 N2 O8'
_chemical_formula_moiety
;
C12 H16 Cr1 N2 O8
;
_journal_coden_Cambridge 29
_journal_volume 598
_journal_year 1991
_journal_page_first 53
_journal_name_full 'Z.Anorg.Allg.Chem. '
loop_
_publ_author_name
"F.A.Cotton"
"L.R.Falvello"
"E.L.Ohlhausen"
"C.A.Murillo"
"J.F.Quesada"
_chemical_name_systematic
;
bis(Nicotinato)-tetra-aqua-chromium
;
_cell_volume    360.473
_exptl_crystal_colour 'yellow-green'
_exptl_crystal_density_diffrn 1.696
_exptl_special_details
;
triclinic polymorph
for solid solution Cr:Zn 0.145:0.855 see [KODYUX]; for Zn end-point see 
[NICAZN03]
;
_diffrn_ambient_temperature ?
_diffrn_special_details
;
The study was carried out at room temperature,in the range 283-303K

;
#These two values have been output from a single CSD field.
_refine_ls_R_factor_gt 0.033
_refine_ls_wR_factor_gt 0.033
_symmetry_cell_setting triclinic
_symmetry_space_group_name_H-M 'P -1'
_symmetry_Int_Tables_number 2
loop_
_symmetry_equiv_pos_site_id
_symmetry_equiv_pos_as_xyz
1 x,y,z
2 -x,-y,-z
_cell_length_a 7.0082(17)
_cell_length_b 7.2217(17)
_cell_length_c 8.855(2)
_cell_angle_alpha 68.073(18)
_cell_angle_beta 68.779(18)
_cell_angle_gamma 63.081(18)
_cell_formula_units_Z 1
loop_
_atom_type_symbol
_atom_type_radius_bond
C 0.68
H 0.23
Cr 1.40
N 0.68
O 0.68
loop_
_atom_site_label
_atom_site_type_symbol
_atom_site_fract_x
_atom_site_fract_y
_atom_site_fract_z
Cr1 Cr 0.00000 0.00000 0.00000
O1 O -0.2013(2) -0.2436(2) 0.0871(1)
O2 O -0.2697(2) 0.2563(2) 0.0669(1)
O3 O -0.1728(2) -0.4011(2) 0.8310(1)
O4 O -0.4104(2) -0.2511(2) 0.6679(1)
N1 N 0.0607(2) -0.1257(2) 0.2442(1)
C1 C -0.0909(2) -0.1688(2) 0.3828(1)
C2 C -0.0481(2) -0.2572(2) 0.5417(1)
C3 C -0.2258(2) -0.3062(2) 0.6916(1)
C4 C 0.1566(2) -0.2951(2) 0.5578(1)
C5 C 0.3136(2) -0.2478(2) 0.4145(2)
C6 C 0.2601(2) -0.1665(2) 0.2615(2)
H1 H -0.196(3) -0.274(3) 0.004(2)
H2 H -0.124(3) -0.350(3) 0.123(2)
H3 H -0.367(3) 0.255(3) 0.147(2)
H4 H -0.267(3) 0.372(3) 0.006(2)
H5 H -0.231(3) -0.132(3) 0.369(2)
H6 H 0.194(3) -0.356(3) 0.663(2)
H7 H 0.447(3) -0.270(3) 0.427(2)
H8 H 0.365(3) -0.129(3) 0.151(2)
O1A O 0.2013(2) 0.2436(2) -0.0871(1)
O2A O 0.2697(2) -0.2563(2) -0.0669(1)
N1A N -0.0607(2) 0.1257(2) -0.2442(1)
H1A H 0.196(3) 0.274(3) -0.004(2)
H2A H 0.124(3) 0.350(3) -0.123(2)
H3A H 0.367(3) -0.255(3) -0.147(2)
H4A H 0.267(3) -0.372(3) -0.006(2)
C1A C 0.0909(2) 0.1688(2) -0.3828(1)
C6A C -0.2601(2) 0.1665(2) -0.2615(2)
C2A C 0.0481(2) 0.2572(2) -0.5417(1)
H5A H 0.231(3) 0.132(3) -0.369(2)
C5A C -0.3136(2) 0.2478(2) -0.4145(2)
H8A H -0.365(3) 0.129(3) -0.151(2)
C3A C 0.2258(2) 0.3062(2) -0.6916(1)
C4A C -0.1566(2) 0.2951(2) -0.5578(1)
H7A H -0.447(3) 0.270(3) -0.427(2)
O3A O 0.1728(2) 0.4011(2) -0.8310(1)
O4A O 0.4104(2) 0.2511(2) -0.6679(1)
H6A H -0.194(3) 0.356(3) -0.663(2)
#END
