
#######################################################################
#
#                 Cambridge Crystallographic Data Centre
#                                CCDC
#
#######################################################################
#
# If this CIF has been generated from an entry in the Cambridge
# Structural Database, then it will include bibliographic, chemical,
# crystal, experimental, refinement or atomic coordinate data resulting
# from the CCDC's data processing and validation procedures.
#
#######################################################################

data_CSD_CIF_CIDVOA03
_audit_creation_date 2002-02-27
_audit_creation_method CSD-ConQuest-V1
_database_code_CSD CIDVOA03
_database_code_depnum_ccdc_archive 'CCDC 179504'
_chemical_formula_sum 'C12 H16 Cr1 N2 O8'
_chemical_formula_moiety
;
C12 H16 Cr1 N2 O8
;
_journal_coeditor_code "IUCr BK0095"
_journal_coden_Cambridge 622
_journal_volume 57
_journal_year 2001
_journal_page_first 800
_journal_name_full 'Acta Crystallogr.,Sect.B:Struct.Sci. '
loop_
_publ_author_name
"R.E.Marsh"
"A.L.Spek"
_chemical_name_systematic
;
trans-Tetra-aqua-bis(pyridine-3-carboxylate-N)-chromium(ii)
;
_cell_volume    736.082
_exptl_crystal_colour 'yellow'
_exptl_crystal_density_diffrn 1.66
_exptl_special_details
;
monoclinic polymorph

;
_diffrn_ambient_temperature ?
_diffrn_special_details
;
The study was carried out at room temperature,in the range 283-303K

;
loop_
_citation_database_id_CSD
_citation_special_details
CIDVOA "is reinterpreted by this entry"
_symmetry_cell_setting monoclinic
_symmetry_space_group_name_H-M 'C 2/m'
_symmetry_Int_Tables_number 12
loop_
_symmetry_equiv_pos_site_id
_symmetry_equiv_pos_as_xyz
1 x,y,z
2 -x,y,-z
3 1/2+x,1/2+y,z
4 1/2-x,1/2+y,-z
5 -x,-y,-z
6 x,-y,z
7 -1/2-x,-1/2-y,-z
8 -1/2+x,-1/2-y,z
_cell_length_a 14.243
_cell_length_b 6.914
_cell_length_c 8.495
_cell_angle_alpha 90
_cell_angle_beta 118.37
_cell_angle_gamma 90
_cell_formula_units_Z 2
loop_
_atom_type_symbol
_atom_type_radius_bond
C 0.68
H 0.23
Cr 1.35
N 0.68
O 0.68
loop_
_atom_site_label
_atom_site_type_symbol
_atom_site_fract_x
_atom_site_fract_y
_atom_site_fract_z
Cr1 Cr 0.00000 0.00000 0.00000
N1 N 0.14700 0.00000 0.24500
C1 C 0.14700 0.00000 0.40300
C2 C 0.24000 0.00000 0.56900
C3 C 0.33800 0.00000 0.56900
C4 C 0.34100 0.00000 0.41000
C5 C 0.24400 0.00000 0.25000
C6 C 0.23100 0.00000 0.73600
O1 O 0.31700 0.00000 0.88500
O2 O 0.13800 0.00000 0.71900
O3 O 0.06000 0.21700 -0.10600
H1 H 0.07600 0.00000 0.39800
H2 H 0.40900 0.00000 0.70000
H3 H 0.40200 0.00000 0.38200
H4 H 0.24100 0.00000 0.13800
H5 H 0.10000 0.20300 -0.18200
H6 H 0.11800 0.31000 -0.01800
N1A N -0.14700 0.00000 -0.24500
C1A C -0.14700 0.00000 -0.40300
C2A C -0.24000 0.00000 -0.56900
C3A C -0.33800 0.00000 -0.56900
C4A C -0.34100 0.00000 -0.41000
C5A C -0.24400 0.00000 -0.25000
H4A H -0.24100 0.00000 -0.13800
H3A H -0.40200 0.00000 -0.38200
H2A H -0.40900 0.00000 -0.70000
C6A C -0.23100 0.00000 -0.73600
O1A O -0.31700 0.00000 -0.88500
O2A O -0.13800 0.00000 -0.71900
H1A H -0.07600 0.00000 -0.39800
O3A O -0.06000 0.21700 0.10600
H5A H -0.10000 0.20300 0.18200
H6A H -0.11800 0.31000 0.01800
O3D O -0.06000 -0.21700 0.10600
H5D H -0.10000 -0.20300 0.18200
H6D H -0.11800 -0.31000 0.01800
O3E O 0.06000 -0.21700 -0.10600
H5E H 0.10000 -0.20300 -0.18200
H6E H 0.11800 -0.31000 -0.01800
#END
