
#######################################################################
#
#                 Cambridge Crystallographic Data Centre
#                                CCDC
#
#######################################################################
#
# If this CIF has been generated from an entry in the Cambridge
# Structural Database, then it will include bibliographic, chemical,
# crystal, experimental, refinement or atomic coordinate data resulting
# from the CCDC's data processing and validation procedures.
#
#######################################################################

data_CSD_CIF_CIFPIQ
_audit_creation_date 1985-03-02
_audit_creation_method CSD-ConQuest-V1
_database_code_CSD CIFPIQ
_database_code_depnum_ccdc_archive 'CCDC 1125020'
_chemical_formula_sum 'C8 H16 Cl2 Co1 N5 O2'
_chemical_formula_moiety
;
C8 H16 Cl1 Co1 N5 O2 1+,Cl1 1-
;
_journal_coden_Cambridge 9
_journal_volume 23
_journal_year 1984
_journal_page_first 891
_journal_name_full 'Inorg.Chem. '
loop_
_publ_author_name
"N.R.Brodsky"
"N.M.Nguyen"
"N.S.Rowan"
"C.B.Storm"
"R.J.Butcher"
"E.Sinn"
_chemical_name_systematic
;
Chloro-ethylenediamine-histidinato-cobalt(iii) chloride
;
_cell_volume    684.097
_exptl_crystal_density_diffrn 1.67
_diffrn_ambient_temperature ?
_diffrn_special_details
;
The study was carried out at room temperature,in the range 283-303K

;
#These two values have been output from a single CSD field.
_refine_ls_R_factor_gt 0.037
_refine_ls_wR_factor_gt 0.037
_symmetry_cell_setting triclinic
_symmetry_space_group_name_H-M 'P -1'
_symmetry_Int_Tables_number 2
loop_
_symmetry_equiv_pos_site_id
_symmetry_equiv_pos_as_xyz
1 x,y,z
2 -x,-y,-z
_cell_length_a 7.939(2)
_cell_length_b 9.247(3)
_cell_length_c 11.021(4)
_cell_angle_alpha 118.75(3)
_cell_angle_beta 97.76(3)
_cell_angle_gamma 97.72(2)
_cell_formula_units_Z 2
loop_
_atom_type_symbol
_atom_type_radius_bond
C 0.68
H 0.23
Cl 0.99
Co 1.33
N 0.68
O 0.68
loop_
_atom_site_label
_atom_site_type_symbol
_atom_site_fract_x
_atom_site_fract_y
_atom_site_fract_z
Co1 Co 0.22067 0.23915 -0.03393
Cl1 Cl 0.23405 0.47414 -0.04852
O1 O 0.22080 0.03980 -0.02030
O2 O 0.33530 -0.18600 -0.09580
N1 N 0.05600 0.10080 -0.21760
N2 N -0.18760 -0.01570 -0.38050
N3 N 0.40820 0.17790 -0.13100
N4 N 0.37820 0.36390 0.15360
N5 N 0.03610 0.28510 0.07030
C1 C -0.10570 0.11420 -0.25420
C2 C -0.07600 -0.11810 -0.43110
C3 C 0.07670 -0.04520 -0.33050
C4 C 0.24790 -0.09850 -0.33930
C5 C 0.38190 -0.00820 -0.19760
C6 C 0.31270 -0.05730 -0.09650
C7 C 0.28290 0.35690 0.25860
C8 C 0.10980 0.39390 0.22480
H1 H -0.14500 0.18700 -0.20600
H2 H -0.28600 -0.03900 -0.43000
H3 H -0.11000 -0.21200 -0.51600
H4 H 0.28700 -0.08500 -0.41200
H5 H 0.23400 -0.21000 -0.37900
H6 H 0.47900 -0.04000 -0.21500
H7 H 0.51600 0.22100 -0.07800
H8 H 0.40900 0.19600 -0.19800
H9 H 0.40400 0.47000 0.18300
H10 H 0.47000 0.31500 0.14600
H11 H 0.26700 0.24200 0.24700
H12 H -0.03900 0.33200 0.04700
H13 H 0.12100 0.50000 0.25200
H14 H 0.04900 0.38200 0.26500
H15 H -0.01500 0.20100 0.05400
H16 H 0.34200 0.43600 0.35000
Cl2 Cl 0.47653 0.76795 0.37561
#END
