
#######################################################################
#
#                 Cambridge Crystallographic Data Centre
#                                CCDC
#
#######################################################################
#
# If this CIF has been generated from an entry in the Cambridge
# Structural Database, then it will include bibliographic, chemical,
# crystal, experimental, refinement or atomic coordinate data resulting
# from the CCDC's data processing and validation procedures.
#
#######################################################################

data_CSD_CIF_CILMIV
_audit_creation_date 2013-11-20
_audit_creation_method CSD-ConQuest-V1
_database_code_CSD CILMIV
_database_code_depnum_ccdc_archive 'CCDC 922173'
_chemical_formula_sum 'C19 H15 Fe1 N3 O1'
_chemical_formula_moiety
;
C19 H15 Fe1 N3 O1
;
_journal_coden_Cambridge 119
_journal_volume 1054
_journal_year 2013
_journal_page_first 164
_journal_name_full 'J.Mol.Struct. '
loop_
_publ_author_name
"Hai-Ying Zhao"
"Le Guo"
"Shu-Feng Chen"
"Zhan-Xi Bian"
_chemical_name_systematic
;
(5-benzoyl-2H-1,2,3-triazol-4-yl)ferrocene
;
_cell_volume    791.034
_exptl_crystal_density_diffrn 1.5
_diffrn_ambient_temperature 296
#These two values have been output from a single CSD field.
_refine_ls_R_factor_gt 0.039
_refine_ls_wR_factor_gt 0.039
_symmetry_cell_setting monoclinic
_symmetry_space_group_name_H-M 'P 21'
_symmetry_Int_Tables_number 4
loop_
_symmetry_equiv_pos_site_id
_symmetry_equiv_pos_as_xyz
1 x,y,z
2 -x,1/2+y,-z
_cell_length_a 8.6629(13)
_cell_length_b 9.3614(14)
_cell_length_c 9.8177(15)
_cell_angle_alpha 90
_cell_angle_beta 96.521(3)
_cell_angle_gamma 90
_cell_formula_units_Z 2
loop_
_atom_type_symbol
_atom_type_radius_bond
C 0.68
H 0.23
Fe 1.52
N 0.68
O 0.68
loop_
_atom_site_label
_atom_site_type_symbol
_atom_site_fract_x
_atom_site_fract_y
_atom_site_fract_z
Fe1 Fe -0.00606(4) 0.10485(4) 0.79094(4)
N1 N 0.4928(3) 0.3869(2) 0.9349(2)
N2 N 0.5203(3) 0.2755(3) 1.0127(3)
H1 H 0.58590 0.27060 1.08520
N3 N 0.4277(2) 0.1692(2) 0.9597(2)
C1 C -0.1015(4) 0.1276(5) 0.9704(4)
H2 H -0.06520 0.08170 1.05790
C2 C -0.2131(4) 0.0733(4) 0.8690(5)
C3 C -0.1293(5) 0.2870(4) 0.7955(6)
H3 H -0.11810 0.37220 0.73940
C4 C -0.2307(4) 0.1711(5) 0.7614(5)
H4 H -0.30110 0.16100 0.67640
C5 C -0.0512(5) 0.2604(5) 0.9240(5)
H5 H 0.02610 0.32310 0.97410
C6 C 0.2248(3) 0.1139(4) 0.7731(2)
C7 C 0.0441(4) 0.0086(4) 0.6149(3)
H6 H -0.02990 -0.00740 0.53320
C8 C 0.1360(3) 0.1338(3) 0.6420(3)
H7 H 0.13870 0.21730 0.58220
C9 C 0.1844(3) -0.0228(3) 0.8239(3)
H8 H 0.22600 -0.06520 0.91180
C10 C 0.0726(4) -0.0855(3) 0.7251(4)
H9 H 0.02270 -0.17860 0.73330
C11 C 0.3357(3) 0.2123(2) 0.8463(3)
C12 C 0.3794(3) 0.3536(3) 0.8298(3)
C13 C 0.4258(3) 0.5772(3) 0.6913(3)
C14 C 0.3610(4) 0.7016(3) 0.6339(4)
H10 H 0.25360 0.71200 0.61960
C15 C 0.5867(4) 0.5626(3) 0.7069(3)
H11 H 0.63150 0.47890 0.74390
C16 C 0.6800(5) 0.6703(4) 0.6686(4)
H12 H 0.78750 0.65980 0.67940
C17 C 0.4576(6) 0.8115(4) 0.5975(4)
H13 H 0.41380 0.89630 0.56220
C18 C 0.6122(6) 0.7963(4) 0.6129(5)
H14 H 0.67480 0.86960 0.58650
C19 C 0.3200(3) 0.4631(3) 0.7292(3)
O1 O 0.1849(3) 0.4589(3) 0.6790(3)
H15 H -0.268(5) -0.018(5) 0.871(4)
#END
