
#######################################################################
#
#                 Cambridge Crystallographic Data Centre
#                                CCDC
#
#######################################################################
#
# If this CIF has been generated from an entry in the Cambridge
# Structural Database, then it will include bibliographic, chemical,
# crystal, experimental, refinement or atomic coordinate data resulting
# from the CCDC's data processing and validation procedures.
#
#######################################################################

data_CSD_CIF_CIMBUW
_audit_creation_date 2008-01-31
_audit_creation_method CSD-ConQuest-V1
_database_code_CSD CIMBUW
_database_code_depnum_ccdc_archive 'CCDC 664240'
_chemical_formula_sum 'C18 H26 Fe1 N2 P2'
_chemical_formula_moiety
;
C18 H26 Fe1 N2 P2
;
_journal_coden_Cambridge 579
_journal_volume 26
_journal_year 2007
_journal_page_first 4677
_journal_name_full 'Organometallics '
loop_
_publ_author_name
"M.S.Balakrishna"
"J.T.Mague"
_chemical_name_systematic
;
(1,3-bis(\h^5^-Cyclopentadienyl)-2,4-di-t-butyl-1,3,2,4-cyclodiphosphazane-P,P
')-iron(ii)
;
_chemical_melting_point 325.15
_cell_volume   3593.866
_exptl_crystal_colour 'yellow'
_exptl_crystal_density_diffrn 1.435
_exptl_crystal_description 'Block'
_exptl_crystal_preparation 'toluene/n-pentane'
_diffrn_ambient_temperature 100
_diffrn_special_details
;
racemic twin

;
#These two values have been output from a single CSD field.
_refine_ls_R_factor_gt 0.0208
_refine_ls_wR_factor_gt 0.0208
_symmetry_cell_setting orthorhombic
_symmetry_space_group_name_H-M 'F d d 2'
_symmetry_Int_Tables_number 43
loop_
_symmetry_equiv_pos_site_id
_symmetry_equiv_pos_as_xyz
1 x,y,z
2 -x,-y,z
3 1/4+x,1/4-y,1/4+z
4 1/4-x,1/4+y,1/4+z
5 x,1/2+y,1/2+z
6 -x,1/2-y,1/2+z
7 1/4+x,3/4-y,3/4+z
8 1/4-x,3/4+y,3/4+z
9 1/2+x,y,1/2+z
10 1/2-x,-y,1/2+z
11 3/4+x,1/4-y,3/4+z
12 3/4-x,1/4+y,3/4+z
13 1/2+x,1/2+y,z
14 1/2-x,1/2-y,z
15 3/4+x,3/4-y,1/4+z
16 3/4-x,3/4+y,1/4+z
_cell_length_a 15.543(1)
_cell_length_b 23.253(2)
_cell_length_c 9.9437(7)
_cell_angle_alpha 90
_cell_angle_beta 90
_cell_angle_gamma 90
_cell_formula_units_Z 8
loop_
_atom_type_symbol
_atom_type_radius_bond
C 0.68
H 0.23
Fe 1.34
N 0.68
P 1.05
loop_
_atom_site_label
_atom_site_type_symbol
_atom_site_fract_x
_atom_site_fract_y
_atom_site_fract_z
Fe1 Fe 0.25000 0.75000 1.21718(2)
P1 P 0.26568(2) 0.803703(16) 0.90602(3)
N1 N 0.17530(8) 0.75961(5) 0.89805(14)
C1 C 0.10284(10) 0.77100(6) 0.80503(14)
C2 C 0.03841(11) 0.72188(7) 0.81856(18)
H1 H 0.06490 0.68600 0.78740
H2 H -0.01260 0.73030 0.76400
H3 H 0.02150 0.71780 0.91300
C3 C 0.06160(11) 0.82751(7) 0.8504(2)
H4 H 0.04050 0.82340 0.94280
H5 H 0.01340 0.83690 0.79070
H6 H 0.10450 0.85840 0.84680
C4 C 0.13246(11) 0.77614(8) 0.65923(18)
H7 H 0.17580 0.80660 0.65200
H8 H 0.08310 0.78560 0.60200
H9 H 0.15750 0.73950 0.63000
C5 C 0.26809(9) 0.81560(6) 1.08710(15)
C6 C 0.34165(9) 0.80926(6) 1.17264(15)
H10 H 0.39880 0.80050 1.14870
C7 C 0.31468(10) 0.81645(6) 1.30846(16)
H11 H 0.34710 0.81480 1.38570
C8 C 0.22486(11) 0.82757(6) 1.30836(15)
H12 H 0.18960 0.83170 1.38630
C9 C 0.19583(10) 0.82715(6) 1.17255(15)
H13 H 0.13930 0.83210 1.15070
P1M P 0.23432(2) 0.696297(16) 0.90602(3)
N1M N 0.32470(8) 0.74039(5) 0.89805(14)
C1M C 0.39716(10) 0.72900(6) 0.80503(14)
C2M C 0.46159(11) 0.77812(7) 0.81856(18)
H1M H 0.43510 0.81400 0.78740
H2M H 0.51260 0.76970 0.76400
H3M H 0.47850 0.78220 0.91300
C3M C 0.43840(11) 0.67249(7) 0.8504(2)
H4M H 0.45950 0.67660 0.94280
H5M H 0.48660 0.66310 0.79070
H6M H 0.39550 0.64160 0.84680
C4M C 0.36754(11) 0.72386(8) 0.65923(18)
H7M H 0.32420 0.69340 0.65200
H8M H 0.41690 0.71440 0.60200
H9M H 0.34250 0.76050 0.63000
C5M C 0.23191(9) 0.68440(6) 1.08710(15)
C6M C 0.15835(9) 0.69074(6) 1.17264(15)
H10M H 0.10120 0.69950 1.14870
C7M C 0.18532(10) 0.68355(6) 1.30846(16)
H11M H 0.15290 0.68520 1.38570
C8M C 0.27514(11) 0.67243(6) 1.30836(15)
H12M H 0.31040 0.66830 1.38630
C9M C 0.30417(10) 0.67285(6) 1.17255(15)
H13M H 0.36070 0.66790 1.15070
#END
