
#######################################################################
#
#                 Cambridge Crystallographic Data Centre
#                                CCDC
#
#######################################################################
#
# If this CIF has been generated from an entry in the Cambridge
# Structural Database, then it will include bibliographic, chemical,
# crystal, experimental, refinement or atomic coordinate data resulting
# from the CCDC's data processing and validation procedures.
#
#######################################################################

data_CSD_CIF_CITBIT
_audit_creation_date 2018-11-24
_audit_creation_method CSD-ConQuest-V1
_database_code_CSD CITBIT
_database_code_depnum_ccdc_archive 'CCDC 1549162'
_chemical_formula_sum 'C28 H44 B2 Co1 F8 N4 P4'
_chemical_formula_moiety
;
C24 H38 Co1 N2 P4 2+,2(B1 F4 1-),2(C2 H3 N1)
;
_journal_coden_Cambridge 1499
_journal_volume 7
_journal_year 2017
_journal_page_first 6008
_journal_name_full 'ACS Catalysis '
loop_
_publ_author_name
"M.Jeletic"
"E.Hulley"
"M.Helm"
"M.Mock"
"A.Appel"
"E.Wiedner"
"John Linehan"
_chemical_name_systematic
;
bis(acetonitrile)-bis(1,2-bis(dimethylphosphino)benzene)-cobalt 
bis(tetrafluoroborate) acetonitrile solvate
;
_cell_volume    933.622
_exptl_crystal_colour 'light violet'
_exptl_crystal_density_diffrn 1.411
_exptl_crystal_description 'prism'
_diffrn_ambient_temperature 140
#These two values have been output from a single CSD field.
_refine_ls_R_factor_gt 0.0333
_refine_ls_wR_factor_gt 0.0333
_symmetry_cell_setting triclinic
_symmetry_space_group_name_H-M 'P -1'
_symmetry_Int_Tables_number 2
loop_
_symmetry_equiv_pos_site_id
_symmetry_equiv_pos_as_xyz
1 x,y,z
2 -x,-y,-z
_cell_length_a 10.0889(5)
_cell_length_b 10.4012(5)
_cell_length_c 10.9505(6)
_cell_angle_alpha 114.987(3)
_cell_angle_beta 111.721(2)
_cell_angle_gamma 93.719(3)
_cell_formula_units_Z 1
loop_
_atom_type_symbol
_atom_type_radius_bond
C 0.68
H 0.23
B 0.83
Co 1.26
F 0.64
N 0.68
P 1.05
loop_
_atom_site_label
_atom_site_type_symbol
_atom_site_fract_x
_atom_site_fract_y
_atom_site_fract_z
Co1 Co 0.00000 0.50000 0.00000
P1 P -0.07041(5) 0.62294(5) 0.17961(5)
P2 P 0.21215(5) 0.53178(5) 0.18765(5)
C1 C 0.0268(2) 0.6712(2) 0.4779(2)
H1 H -0.05950 0.70290 0.47720
C2 C 0.05370(19) 0.62490(18) 0.35157(18)
C3 C 0.1817(2) 0.58050(18) 0.35399(18)
C4 C 0.2829(2) 0.5818(2) 0.4831(2)
H2 H 0.37050 0.55210 0.48550
C5 C 0.1278(2) 0.6702(2) 0.6046(2)
H3 H 0.10940 0.70000 0.69030
C6 C 0.2551(2) 0.6264(2) 0.6073(2)
H4 H 0.32370 0.62690 0.69490
C7 C -0.0601(2) 0.81681(19) 0.2397(2)
H5 H 0.04020 0.86910 0.26940
H6 H -0.08390 0.85830 0.32530
H7 H -0.13090 0.82740 0.15690
C8 C 0.2950(2) 0.3790(2) 0.1706(2)
H8 H 0.22210 0.29410 0.14600
H9 H 0.38060 0.40720 0.26580
H10 H 0.32690 0.35300 0.09090
C9 C 0.3642(2) 0.6831(2) 0.2509(2)
H11 H 0.39390 0.66400 0.17050
H12 H 0.44810 0.69280 0.33900
H13 H 0.33280 0.77440 0.27750
C10 C -0.25472(19) 0.5508(2) 0.1523(2)
H14 H -0.32900 0.56460 0.07400
H15 H -0.26310 0.60320 0.24640
H16 H -0.27110 0.44570 0.12190
N1 N -0.08657(17) 0.29305(16) 0.00121(16)
C11 C -0.1309(2) 0.19061(19) 0.00311(18)
C12 C -0.1871(2) 0.0606(2) 0.0070(2)
H17 H -0.21000 -0.02720 -0.08790
H18 H -0.27710 0.06820 0.02160
H19 H -0.11220 0.05330 0.09000
F1 F -0.28166(15) 0.98100(13) 0.65962(14)
F2 F -0.12961(13) 0.84063(15) 0.71160(13)
F3 F -0.37892(15) 0.75078(16) 0.59824(17)
F4 F -0.26326(16) 0.79244(17) 0.47142(14)
B1 B -0.2634(2) 0.8400(2) 0.6096(2)
C13 C 0.5678(3) 0.9073(3) 0.1759(3)
N2 N 0.5294(3) 0.8251(3) 0.0535(3)
C14 C 0.6153(3) 1.0105(2) 0.3336(3)
H20 H 0.53750 1.05940 0.34500
H21 H 0.70590 1.08430 0.37060
H22 H 0.63460 0.95750 0.39130
P1A P 0.07041(5) 0.37706(5) -0.17961(5)
P2A P -0.21215(5) 0.46822(5) -0.18765(5)
C1A C -0.0268(2) 0.3288(2) -0.4779(2)
H1A H 0.05950 0.29710 -0.47720
C2A C -0.05370(19) 0.37510(18) -0.35157(18)
C3A C -0.1817(2) 0.41950(18) -0.35399(18)
C4A C -0.2829(2) 0.4182(2) -0.4831(2)
H2A H -0.37050 0.44790 -0.48550
C5A C -0.1278(2) 0.3298(2) -0.6046(2)
H3A H -0.10940 0.30000 -0.69030
C6A C -0.2551(2) 0.3736(2) -0.6073(2)
H4A H -0.32370 0.37310 -0.69490
C7A C 0.0601(2) 0.18319(19) -0.2397(2)
H5A H -0.04020 0.13090 -0.26940
H6A H 0.08390 0.14170 -0.32530
H7A H 0.13090 0.17260 -0.15690
C8A C -0.2950(2) 0.6210(2) -0.1706(2)
H8A H -0.22210 0.70590 -0.14600
H9A H -0.38060 0.59280 -0.26580
H10A H -0.32690 0.64700 -0.09090
C9A C -0.3642(2) 0.3169(2) -0.2509(2)
H11A H -0.39390 0.33600 -0.17050
H12A H -0.44810 0.30720 -0.33900
H13A H -0.33280 0.22560 -0.27750
C10A C 0.25472(19) 0.4492(2) -0.1523(2)
H14A H 0.32900 0.43540 -0.07400
H15A H 0.26310 0.39680 -0.24640
H16A H 0.27110 0.55430 -0.12190
N1A N 0.08657(17) 0.70695(16) -0.00121(16)
C11A C 0.1309(2) 0.80939(19) -0.00311(18)
C12A C 0.1871(2) 0.9394(2) -0.0070(2)
H17A H 0.21000 1.02720 0.08790
H18A H 0.27710 0.93180 -0.02160
H19A H 0.11220 0.94670 -0.09000
#END
