
#######################################################################
#
#                 Cambridge Crystallographic Data Centre
#                                CCDC
#
#######################################################################
#
# If this CIF has been generated from an entry in the Cambridge
# Structural Database, then it will include bibliographic, chemical,
# crystal, experimental, refinement or atomic coordinate data resulting
# from the CCDC's data processing and validation procedures.
#
#######################################################################

data_CSD_CIF_CITCUD
_audit_creation_date 1985-03-28
_audit_creation_method CSD-ConQuest-V1
_database_code_CSD CITCUD
_database_code_depnum_ccdc_archive 'CCDC 1126241'
_chemical_formula_sum 'C13 H19 Fe1 N1 O5'
_chemical_formula_moiety
;
C13 H19 Fe1 N1 O5
;
_journal_coden_Cambridge 644
_journal_volume 39
_journal_year 1984
_journal_page_first 468
_journal_name_full 'Z.Naturforsch.,B:Chem.Sci. '
loop_
_publ_author_name
"E.O.Fischer"
"J.Schneider"
"K.Ackermann"
_chemical_name_systematic
;
1,1,1-Tricarbonyl-iron-2-di-isopropylamino-3,5-dioxa-4-ethyl-cyclopenta-1,4-di
ene
;
_cell_volume    780.332
_exptl_crystal_colour 'dark red'
_exptl_special_details
;
H13 deleted (suspected coordinate error)

;
_diffrn_ambient_temperature 243.15
#These two values have been output from a single CSD field.
_refine_ls_R_factor_gt 0.051
_refine_ls_wR_factor_gt 0.051
_symmetry_cell_setting monoclinic
_symmetry_space_group_name_H-M 'P 21/m'
_symmetry_Int_Tables_number 11
loop_
_symmetry_equiv_pos_site_id
_symmetry_equiv_pos_as_xyz
1 x,y,z
2 -x,1/2+y,-z
3 -x,-y,-z
4 x,-1/2-y,z
_cell_length_a 8.960(3)
_cell_length_b 10.285(4)
_cell_length_c 9.452(3)
_cell_angle_alpha 90
_cell_angle_beta 116.38(2)
_cell_angle_gamma 90
_cell_formula_units_Z 2
loop_
_atom_type_symbol
_atom_type_radius_bond
C 0.68
H 0.23
Fe 1.34
N 0.68
O 0.68
loop_
_atom_site_label
_atom_site_type_symbol
_atom_site_fract_x
_atom_site_fract_y
_atom_site_fract_z
Fe1 Fe 0.39899(10) 0.25000 0.01776(9)
C1 C 0.3069(3) 0.1079(4) -0.0878(5)
C2 C 0.2702(8) 0.25000 0.1172(7)
O1 O 0.2338(4) 0.0247(3) -0.1729(4)
O2 O 0.1873(6) 0.25000 0.1822(5)
C3 C 0.5667(7) 0.25000 -0.0540(6)
O3 O 0.7287(5) 0.25000 0.0677(4)
C4 C 0.7377(8) 0.25000 0.2134(7)
C5 C 0.9090(8) 0.25000 0.3425(7)
C6 C 0.9136(10) 0.25000 0.5043(8)
O4 O 0.6092(5) 0.25000 0.2298(5)
N1 N 0.5731(6) 0.25000 -0.1918(5)
C7 C 0.7317(7) 0.25000 -0.2111(7)
C8 C 0.8306(6) 0.1249(3) -0.1503(5)
C9 C 0.4124(7) 0.25000 -0.3371(7)
C10 C 0.3963(6) 0.1269(5) -0.4334(5)
H1 H 0.96600 0.17500 0.33200
H2 H 0.70100 0.25000 -0.32300
H3 H 0.27900 0.12500 -0.53100
H4 H 0.41100 0.05100 -0.36900
H5 H 0.48300 0.12300 -0.46800
C1C C 0.3069(3) 0.3921(4) -0.0878(5)
H1C H 0.96600 0.32500 0.33200
C8C C 0.8306(6) 0.3751(3) -0.1503(5)
C10C C 0.3963(6) 0.3731(5) -0.4334(5)
O1C O 0.2338(4) 0.4753(3) -0.1729(4)
H3C H 0.27900 0.37500 -0.53100
H4C H 0.41100 0.44900 -0.36900
H5C H 0.48300 0.37700 -0.46800
#END
