
#######################################################################
#
#                 Cambridge Crystallographic Data Centre
#                                CCDC
#
#######################################################################
#
# If this CIF has been generated from an entry in the Cambridge
# Structural Database, then it will include bibliographic, chemical,
# crystal, experimental, refinement or atomic coordinate data resulting
# from the CCDC's data processing and validation procedures.
#
#######################################################################

data_CSD_CIF_COLPIC
_audit_creation_date 1985-07-01
_audit_creation_method CSD-ConQuest-V1
_database_code_CSD COLPIC
_chemical_formula_sum 'C8 H5 Cl5 Cr1 N3 O3 P3'
_chemical_formula_moiety
;
C8 H5 Cl5 Cr1 N3 O3 P3
;
_journal_coden_Cambridge 4
_journal_volume 106
_journal_year 1984
_journal_page_first 5561
_journal_name_full 'J.Am.Chem.Soc. '
loop_
_publ_author_name
"H.A.Allcock"
"G.H.Riding"
"R.R.Whittle"
_chemical_name_systematic
;
Tricarbonyl-(\h^5^-cyclopentadienyl)-pentachloro-cyclotriphosphazene-chromium
;
_chemical_melting_point 443.15
_cell_volume    909.958
_exptl_crystal_colour 'bright yellow'
_exptl_crystal_density_diffrn 1.87
_diffrn_ambient_temperature ?
_diffrn_special_details
;
The study was carried out at room temperature,in the range 283-303K

;
#These two values have been output from a single CSD field.
_refine_ls_R_factor_gt 0.054
_refine_ls_wR_factor_gt 0.054
_symmetry_cell_setting monoclinic
_symmetry_space_group_name_H-M 'P 21/m'
_symmetry_Int_Tables_number 11
loop_
_symmetry_equiv_pos_site_id
_symmetry_equiv_pos_as_xyz
1 x,y,z
2 -x,1/2+y,-z
3 -x,-y,-z
4 x,-1/2-y,z
_cell_length_a 8.334(3)
_cell_length_b 12.897(8)
_cell_length_c 8.783(4)
_cell_angle_alpha 90
_cell_angle_beta 105.44(3)
_cell_angle_gamma 90
_cell_formula_units_Z 2
loop_
_atom_type_symbol
_atom_type_radius_bond
C 0.68
H 0.23
Cl 0.99
Cr 1.35
N 0.68
O 0.68
P 1.05
loop_
_atom_site_label
_atom_site_type_symbol
_atom_site_fract_x
_atom_site_fract_y
_atom_site_fract_z
Cr1 Cr 0.2388(2) 0.25000 1.0536(1)
Cl1 Cl 0.1838(3) 0.25000 0.6332(2)
Cl2 Cl -0.2123(2) 0.0505(1) 0.4538(2)
Cl3 Cl -0.4010(2) 0.0724(2) 0.7102(2)
P1 P 0.0496(3) 0.25000 0.8019(2)
P2 P -0.2287(2) 0.1450(1) 0.6292(2)
O1 O 0.6121(9) 0.25000 1.1317(10)
O2 O 0.3081(6) 0.4541(4) 0.9188(5)
N1 N -0.0618(6) 0.1461(4) 0.7641(5)
N2 N -0.3049(9) 0.25000 0.5514(9)
C1 C 0.4706(12) 0.25000 1.1033(11)
C2 C 0.2807(8) 0.3759(5) 0.9660(7)
C3 C 0.0089(10) 0.25000 1.1306(10)
C4 C 0.1035(9) 0.3372(6) 1.1927(8)
C5 C 0.2540(8) 0.3037(5) 1.2905(6)
H1 H -0.091(10) 0.25000 1.078(9)
H2 H 0.077(7) 0.396(4) 1.166(6)
H3 H 0.327(7) 0.343(5) 1.342(6)
C2C C 0.2807(8) 0.1241(5) 0.9660(7)
C4C C 0.1035(9) 0.1628(6) 1.1927(8)
C5C C 0.2540(8) 0.1963(5) 1.2905(6)
N1C N -0.0618(6) 0.3539(4) 0.7641(5)
P2C P -0.2287(2) 0.3550(1) 0.6292(2)
O2C O 0.3081(6) 0.0459(4) 0.9188(5)
H2C H 0.077(7) 0.104(4) 1.166(6)
H3C H 0.327(7) 0.157(5) 1.342(6)
Cl2C Cl -0.2123(2) 0.4495(1) 0.4538(2)
Cl3C Cl -0.4010(2) 0.4276(2) 0.7102(2)
#END
