
#######################################################################
#
#                 Cambridge Crystallographic Data Centre
#                                CCDC
#
#######################################################################
#
# If this CIF has been generated from an entry in the Cambridge
# Structural Database, then it will include bibliographic, chemical,
# crystal, experimental, refinement or atomic coordinate data resulting
# from the CCDC's data processing and validation procedures.
#
#######################################################################

data_CSD_CIF_COMMEW
_audit_creation_date 1985-07-01
_audit_creation_method CSD-ConQuest-V1
_database_code_CSD COMMEW
_database_code_depnum_ccdc_archive 'CCDC 1129318'
_chemical_formula_sum 'C11 H9 B1 Cr1 F4 O4'
_chemical_formula_moiety
;
C11 H9 Cr1 O4 1+,B1 F4 1-
;
_journal_coden_Cambridge 36
_journal_volume 276
_journal_year 1984
_journal_page_first 193
_journal_name_full 'J.Organomet.Chem. '
loop_
_publ_author_name
"U.Behrens"
"J.Kopf"
"K.Lal"
"W.E.Watts"
_chemical_name_systematic
;
Tricarbonyl-(\h^7^-methoxytropylium)-chromium tetrafluoroborate
;
_cell_volume    676.716
_exptl_crystal_density_diffrn 1.688
_diffrn_ambient_temperature ?
_diffrn_special_details
;
The study was carried out at room temperature,in the range 283-303K

;
_refine_special_details
;
The tetrafluoroborate anion is disordered over 2 positions of equal 
occupancy.One set of positions only is retained.
;
#These two values have been output from a single CSD field.
_refine_ls_R_factor_gt 0.045
_refine_ls_wR_factor_gt 0.045
_symmetry_cell_setting triclinic
_symmetry_space_group_name_H-M 'P -1'
_symmetry_Int_Tables_number 2
loop_
_symmetry_equiv_pos_site_id
_symmetry_equiv_pos_as_xyz
1 x,y,z
2 -x,-y,-z
_cell_length_a 7.403(2)
_cell_length_b 9.567(3)
_cell_length_c 10.384(2)
_cell_angle_alpha 89.10(2)
_cell_angle_beta 73.32(2)
_cell_angle_gamma 74.31(3)
_cell_formula_units_Z 2
loop_
_atom_type_symbol
_atom_type_radius_bond
C 0.68
H 0.23
B 0.83
Cr 1.35
F 0.64
O 0.68
loop_
_atom_site_label
_atom_site_type_symbol
_atom_site_fract_x
_atom_site_fract_y
_atom_site_fract_z
Cr1 Cr 0.29622(6) 0.18155(5) 0.31981(4)
C1 C 0.5591(4) 0.2530(3) 0.1795(3)
C2 C 0.3834(4) 0.3293(3) 0.1552(3)
C3 C 0.2356(5) 0.2737(4) 0.1344(3)
C4 C 0.2197(5) 0.1318(4) 0.1357(3)
C5 C 0.3478(6) 0.0075(4) 0.1635(4)
C6 C 0.5261(5) -0.0040(4) 0.1910(3)
C7 C 0.6163(4) 0.1028(3) 0.2011(3)
O1 O 0.6829(3) 0.3218(2) 0.2033(2)
C8 C 0.6425(7) 0.4775(4) 0.1970(5)
C9 C 0.0348(4) 0.2965(4) 0.4058(3)
O2 O -0.1207(4) 0.3647(3) 0.4573(3)
C10 C 0.2427(4) 0.0391(4) 0.4426(3)
O3 O 0.2123(4) -0.0473(3) 0.5160(3)
C11 C 0.3728(4) 0.2685(4) 0.4517(3)
O4 O 0.4218(4) 0.3186(4) 0.5288(3)
H1 H 0.360(5) 0.418(4) 0.160(3)
H2 H 0.131(5) 0.341(4) 0.124(3)
H3 H 0.095(6) 0.124(4) 0.131(4)
H4 H 0.312(5) -0.074(4) 0.176(3)
H5 H 0.579(5) -0.090(4) 0.214(3)
H6 H 0.726(5) 0.074(4) 0.232(3)
H7 H 0.517(6) 0.522(4) 0.268(4)
H8 H 0.752(6) 0.505(4) 0.214(4)
H9 H 0.626(6) 0.514(4) 0.110(4)
B1 B 0.0492(6) -0.2620(4) 0.1634(4)
F1 F 0.0308(6) -0.1431(4) 0.0907(5)
F2 F -0.0835(11) -0.2292(8) 0.2867(4)
F3 F 0.0171(10) -0.3710(4) 0.0996(7)
F4 F 0.2323(8) -0.3045(6) 0.1765(8)
#END
