
#######################################################################
#
#                 Cambridge Crystallographic Data Centre
#                                CCDC
#
#######################################################################
#
# If this CIF has been generated from an entry in the Cambridge
# Structural Database, then it will include bibliographic, chemical,
# crystal, experimental, refinement or atomic coordinate data resulting
# from the CCDC's data processing and validation procedures.
#
#######################################################################

data_CSD_CIF_CONICH04
_audit_creation_date 2016-08-26
_audit_creation_method CSD-ConQuest-V1
_database_code_CSD CONICH04
_database_code_depnum_ccdc_archive 'CCDC 945007'
_chemical_formula_sum 'C12 H16 Co1 N2 O8'
_chemical_formula_moiety
;
C12 H16 Co1 N2 O8
;
_journal_coden_Cambridge 1547
_journal_volume 5
_journal_year 2013
_journal_page_first 515
_journal_name_full 'J.Chem.Pharm.Res. '
loop_
_publ_author_name
"Yuqi Liu"
"Jing Wang"
"Rui Yang"
"Xiaojun Xu"
_chemical_name_systematic
;
tetra-aqua-bis(nicotinato)-cobalt(ii)
;
_cell_volume    726.626
_exptl_crystal_density_diffrn 1.715
_diffrn_ambient_temperature 296
#These two values have been output from a single CSD field.
_refine_ls_R_factor_gt 0.0191
_refine_ls_wR_factor_gt 0.0191
_symmetry_cell_setting monoclinic
_symmetry_space_group_name_H-M 'C 2/m'
_symmetry_Int_Tables_number 12
loop_
_symmetry_equiv_pos_site_id
_symmetry_equiv_pos_as_xyz
1 x,y,z
2 -x,y,-z
3 1/2+x,1/2+y,z
4 1/2-x,1/2+y,-z
5 -x,-y,-z
6 x,-y,z
7 -1/2-x,-1/2-y,-z
8 -1/2+x,-1/2-y,z
_cell_length_a 14.1363(12)
_cell_length_b 6.8778(5)
_cell_length_c 8.4878(6)
_cell_angle_alpha 90
_cell_angle_beta 118.297(5)
_cell_angle_gamma 90
_cell_formula_units_Z 2
loop_
_atom_type_symbol
_atom_type_radius_bond
C 0.68
H 0.23
Co 1.26
N 0.68
O 0.68
loop_
_atom_site_label
_atom_site_type_symbol
_atom_site_fract_x
_atom_site_fract_y
_atom_site_fract_z
Co1 Co 0.50000 0.00000 1.00000
O1 O 0.55779(8) 0.21784(18) 0.89304(15)
O2 O 0.36238(14) 0.00000 0.2802(2)
O3 O 0.18463(13) 0.00000 0.1159(2)
N1 N 0.35195(13) 0.00000 0.7529(2)
C1 C 0.25982(16) 0.00000 0.4317(3)
C2 C 0.16158(16) 0.00000 0.4305(3)
H1 H 0.09780 0.00000 0.32320
C3 C 0.26911(18) 0.00000 0.2629(3)
C4 C 0.35231(16) 0.00000 0.5957(3)
H2 H 0.41830 0.00000 0.59640
C5 C 0.25586(16) 0.00000 0.7493(3)
H3 H 0.25390 0.00000 0.85730
C6 C 0.16046(17) 0.00000 0.5929(3)
H4 H 0.09550 0.00000 0.59580
H5 H 0.5957(15) 0.297(3) 0.962(3)
H6 H 0.5909(15) 0.173(3) 0.846(3)
O1A O 0.44221(8) 0.21784(18) 1.10696(15)
O2A O 0.63762(14) 0.00000 1.7198(2)
O3A O 0.81537(13) 0.00000 1.8841(2)
N1A N 0.64805(13) 0.00000 1.2471(2)
C1A C 0.74018(16) 0.00000 1.5683(3)
C2A C 0.83842(16) 0.00000 1.5695(3)
H1A H 0.90220 0.00000 1.67680
C3A C 0.73089(18) 0.00000 1.7371(3)
C4A C 0.64769(16) 0.00000 1.4043(3)
H2A H 0.58170 0.00000 1.40360
C5A C 0.74414(16) 0.00000 1.2507(3)
H3A H 0.74610 0.00000 1.14270
C6A C 0.83954(17) 0.00000 1.4071(3)
H4A H 0.90450 0.00000 1.40420
H5A H 0.4043(15) 0.297(3) 1.038(3)
H6A H 0.4091(15) 0.173(3) 1.154(3)
O1D O 0.44221(8) -0.21784(18) 1.10696(15)
H5D H 0.4043(15) -0.297(3) 1.038(3)
H6D H 0.4091(15) -0.173(3) 1.154(3)
O1E O 0.55779(8) -0.21784(18) 0.89304(15)
H5E H 0.5957(15) -0.297(3) 0.962(3)
H6E H 0.5909(15) -0.173(3) 0.846(3)
#END
