
#######################################################################
#
#                 Cambridge Crystallographic Data Centre
#                                CCDC
#
#######################################################################
#
# If this CIF has been generated from an entry in the Cambridge
# Structural Database, then it will include bibliographic, chemical,
# crystal, experimental, refinement or atomic coordinate data resulting
# from the CCDC's data processing and validation procedures.
#
#######################################################################

data_CSD_CIF_CONICH03
_audit_creation_date 2006-10-05
_audit_creation_method CSD-ConQuest-V1
_database_code_CSD CONICH03
_database_code_depnum_ccdc_archive 'CCDC 277695'
_chemical_formula_sum 'C12 H16 Co1 N2 O8'
_chemical_formula_moiety
;
C12 H16 Co1 N2 O8
;
_journal_coden_Cambridge 155
_journal_volume 359
_journal_year 2006
_journal_page_first 3205
_journal_name_full 'Inorg.Chim.Acta '
loop_
_publ_author_name
"Jie-Hui Yu"
"Jing Lu"
"Yan Xu"
"Xiao Zhang"
"Ji-Qing Xu"
_chemical_name_systematic
;
trans-tetra-aqua-bis(nicotinate-N)-cobalt(ii)
;
_cell_volume    722.225
_exptl_crystal_colour 'orange'
_exptl_crystal_density_diffrn 1.725
_exptl_special_details
;
fluorescent

;
_exptl_crystal_description 'columnar'
_diffrn_ambient_temperature 293
#These two values have been output from a single CSD field.
_refine_ls_R_factor_gt 0.0207
_refine_ls_wR_factor_gt 0.0207
_symmetry_cell_setting monoclinic
_symmetry_space_group_name_H-M 'C 2/m'
_symmetry_Int_Tables_number 12
loop_
_symmetry_equiv_pos_site_id
_symmetry_equiv_pos_as_xyz
1 x,y,z
2 1/2+x,1/2+y,z
3 -x,y,-z
4 1/2-x,1/2+y,-z
5 -x,-y,-z
6 -1/2-x,-1/2-y,-z
7 x,-y,z
8 -1/2+x,-1/2-y,z
_cell_length_a 14.140(3)
_cell_length_b 6.8287(14)
_cell_length_c 8.4776(17)
_cell_angle_alpha 90
_cell_angle_beta 118.08(3)
_cell_angle_gamma 90
_cell_formula_units_Z 2
loop_
_atom_type_symbol
_atom_type_radius_bond
C 0.68
H 0.23
Co 1.33
N 0.68
O 0.68
loop_
_atom_site_label
_atom_site_type_symbol
_atom_site_fract_x
_atom_site_fract_y
_atom_site_fract_z
Co1 Co 0.50000 0.00000 1.50000
N1 N 0.35156(12) 0.00000 1.25291(19)
O1 O 0.36324(12) 0.00000 0.78165(19)
O2 O 0.18563(12) 0.00000 0.61642(17)
C1 C 0.25554(14) 0.00000 1.2496(2)
H1 H 0.25350 0.00000 1.35770
C2 C 0.15995(15) 0.00000 1.0929(3)
H2 H 0.09510 0.00000 1.09600
C3 C 0.16168(14) 0.00000 0.9303(2)
H3 H 0.09820 0.00000 0.82290
C4 C 0.25989(14) 0.00000 0.9321(2)
C5 C 0.35239(14) 0.00000 1.0961(2)
H4 H 0.41830 0.00000 1.09660
C6 C 0.26993(15) 0.00000 0.7633(2)
O3 O 0.44214(7) 0.21970(16) 1.60767(12)
H5 H 0.4034(15) 0.297(3) 1.541(3)
H6 H 0.4083(15) 0.176(3) 1.652(3)
N1D N 0.64844(12) 0.00000 1.74709(19)
O1D O 0.63676(12) 0.00000 2.21835(19)
O2D O 0.81437(12) 0.00000 2.38358(17)
C1D C 0.74446(14) 0.00000 1.7504(2)
H1D H 0.74650 0.00000 1.64230
C2D C 0.84005(15) 0.00000 1.9071(3)
H2D H 0.90490 0.00000 1.90400
C3D C 0.83832(14) 0.00000 2.0697(2)
H3D H 0.90180 0.00000 2.17710
C4D C 0.74011(14) 0.00000 2.0679(2)
C5D C 0.64761(14) 0.00000 1.9039(2)
H4D H 0.58170 0.00000 1.90340
C6D C 0.73007(15) 0.00000 2.2367(2)
O3F O 0.44214(7) -0.21970(16) 1.60767(12)
O3D O 0.55786(7) -0.21970(16) 1.39233(12)
O3B O 0.55786(7) 0.21970(16) 1.39233(12)
H5F H 0.4034(15) -0.297(3) 1.541(3)
H5D H 0.5966(15) -0.297(3) 1.459(3)
H5B H 0.5966(15) 0.297(3) 1.459(3)
H6F H 0.4083(15) -0.176(3) 1.652(3)
H6D H 0.5917(15) -0.176(3) 1.348(3)
H6B H 0.5917(15) 0.176(3) 1.348(3)
#END
