
#######################################################################
#
#                 Cambridge Crystallographic Data Centre
#                                CCDC
#
#######################################################################
#
# If this CIF has been generated from an entry in the Cambridge
# Structural Database, then it will include bibliographic, chemical,
# crystal, experimental, refinement or atomic coordinate data resulting
# from the CCDC's data processing and validation procedures.
#
#######################################################################

data_CSD_CIF_CONICH05
_audit_creation_date 2016-10-21
_audit_creation_method CSD-ConQuest-V1
_database_code_CSD CONICH05
_database_code_depnum_ccdc_archive 'CCDC 1435761'
_chemical_formula_sum 'C12 H16 Co1 N2 O8'
_chemical_formula_moiety
;
C12 H16 Co1 N2 O8
;
_journal_coden_Cambridge 1534
_journal_volume 8
_journal_year 2015
_journal_page_first 616
_journal_name_full 'Int.J.ChemTech.Res. '
loop_
_publ_author_name
"L.P.Nair"
"B.R.Bijini"
"R.Divya"
"M.Deepa"
_chemical_name_systematic
;
tetra-aqua-bis(nicotinato)-cobalt(ii)
;
_cell_volume    728.248
_exptl_crystal_colour 'purple'
_exptl_crystal_density_diffrn 1.711
_exptl_crystal_description 'block'
_exptl_crystal_preparation 'single gel diffusion method'
_diffrn_ambient_temperature 293
#These two values have been output from a single CSD field.
_refine_ls_R_factor_gt 0.0202
_refine_ls_wR_factor_gt 0.0202
_symmetry_cell_setting monoclinic
_symmetry_space_group_name_H-M 'C 2/m'
_symmetry_Int_Tables_number 12
loop_
_symmetry_equiv_pos_site_id
_symmetry_equiv_pos_as_xyz
1 x,y,z
2 -x,y,-z
3 1/2+x,1/2+y,z
4 1/2-x,1/2+y,-z
5 -x,-y,-z
6 x,-y,z
7 -1/2-x,-1/2-y,-z
8 -1/2+x,-1/2-y,z
_cell_length_a 14.1512(6)
_cell_length_b 6.8828(2)
_cell_length_c 8.4897(5)
_cell_angle_alpha 90
_cell_angle_beta 118.273(3)
_cell_angle_gamma 90
_cell_formula_units_Z 2
loop_
_atom_type_symbol
_atom_type_radius_bond
C 0.68
H 0.23
Co 1.26
N 0.68
O 0.68
loop_
_atom_site_label
_atom_site_type_symbol
_atom_site_fract_x
_atom_site_fract_y
_atom_site_fract_z
C1 C 1.14759(13) 0.00000 1.4041(2)
H1 H 1.08170 0.00000 1.40350
C2 C 1.24040(13) 0.00000 1.5684(2)
C3 C 1.33846(13) 0.00000 1.5697(2)
H2 H 1.40210 0.00000 1.67700
C4 C 1.33981(14) 0.00000 1.4074(2)
H3 H 1.40470 0.00000 1.40450
C5 C 1.24404(14) 0.00000 1.2505(2)
H4 H 1.24590 0.00000 1.14240
C6 C 1.23083(15) 0.00000 1.7374(2)
N1 N 1.14814(11) 0.00000 1.24718(18)
O1 O 1.13770(12) 0.00000 1.71969(19)
O2 O 1.31542(12) 0.00000 1.88415(16)
O3 O 0.94212(7) -0.21780(15) 1.10680(12)
Co1 Co 1.00000 0.00000 1.00000
H5 H 0.9049(14) -0.299(3) 1.039(3)
H6 H 0.9066(15) -0.173(3) 1.150(3)
C1A C 0.85241(13) 0.00000 0.5959(2)
H1A H 0.91830 0.00000 0.59650
C2A C 0.75960(13) 0.00000 0.4316(2)
C3A C 0.66154(13) 0.00000 0.4303(2)
H2A H 0.59790 0.00000 0.32300
C4A C 0.66019(14) 0.00000 0.5926(2)
H3A H 0.59530 0.00000 0.59550
C5A C 0.75596(14) 0.00000 0.7495(2)
H4A H 0.75410 0.00000 0.85760
C6A C 0.76917(15) 0.00000 0.2626(2)
N1A N 0.85186(11) 0.00000 0.75282(18)
O1A O 0.86230(12) 0.00000 0.28031(19)
O2A O 0.68458(12) 0.00000 0.11585(16)
O3A O 1.05788(7) -0.21780(15) 0.89320(12)
H5A H 1.0951(14) -0.299(3) 0.961(3)
H6A H 1.0934(15) -0.173(3) 0.850(3)
O3D O 1.05788(7) 0.21780(15) 0.89320(12)
H5D H 1.0951(14) 0.299(3) 0.961(3)
H6D H 1.0934(15) 0.173(3) 0.850(3)
O3E O 0.94212(7) 0.21780(15) 1.10680(12)
H5E H 0.9049(14) 0.299(3) 1.039(3)
H6E H 0.9066(15) 0.173(3) 1.150(3)
#END
