
#######################################################################
#
#                 Cambridge Crystallographic Data Centre
#                                CCDC
#
#######################################################################
#
# If this CIF has been generated from an entry in the Cambridge
# Structural Database, then it will include bibliographic, chemical,
# crystal, experimental, refinement or atomic coordinate data resulting
# from the CCDC's data processing and validation procedures.
#
#######################################################################

data_CSD_CIF_CONICH02
_audit_creation_date 2003-05-27
_audit_creation_method CSD-ConQuest-V1
_database_code_CSD CONICH02
_database_code_depnum_ccdc_archive 'CCDC 176538'
_chemical_formula_sum 'C12 H16 Co1 N2 O8'
_chemical_formula_moiety
;
C12 H16 Co1 N2 O8
;
_journal_coden_Cambridge 119
_journal_volume 641
_journal_year 2002
_journal_page_first 23
_journal_name_full 'J.Mol.Struct. '
loop_
_publ_author_name
"Hong-Bin Jia"
"Jie-Hui Yu"
"Ji-Qing Xu"
"Ling Ye"
"Hong Ding"
"Wei-Jie Jing"
"Tie-Gang Wang"
"Jia-Ning Xu"
"Zeng-Chun Li"
_chemical_name_systematic
;
Tetraaqua-bis(nicotinate)-cobalt(ii)
;
_cell_volume    722.225
_exptl_crystal_colour 'orange'
_exptl_crystal_description 'rectangular'
_diffrn_ambient_temperature 293
#These two values have been output from a single CSD field.
_refine_ls_R_factor_gt 0.0222
_refine_ls_wR_factor_gt 0.0222
_symmetry_cell_setting monoclinic
_symmetry_space_group_name_H-M 'C 2'
_symmetry_Int_Tables_number 5
loop_
_symmetry_equiv_pos_site_id
_symmetry_equiv_pos_as_xyz
1 x,y,z
2 -x,y,-z
3 1/2+x,1/2+y,z
4 1/2-x,1/2+y,-z
_cell_length_a 14.140(3)
_cell_length_b 6.8287(14)
_cell_length_c 8.4776(17)
_cell_angle_alpha 90
_cell_angle_beta 118.08(3)
_cell_angle_gamma 90
_cell_formula_units_Z 2
loop_
_atom_type_symbol
_atom_type_radius_bond
C 0.68
H 0.23
Co 1.33
N 0.68
O 0.68
loop_
_atom_site_label
_atom_site_type_symbol
_atom_site_fract_x
_atom_site_fract_y
_atom_site_fract_z
Co1 Co 0.50000 0.1782(3) 0.50000
O1 O 0.18539(14) 0.1788(12) -0.3837(2)
O2 O 0.36354(15) 0.1732(12) -0.2180(2)
N1 N 0.35171(13) 0.1798(14) 0.2531(2)
C1 C 0.16156(16) 0.181(2) -0.0696(3)
C2 C 0.26001(16) 0.1788(16) -0.0678(3)
C3 C 0.2701(2) 0.1746(16) -0.2366(3)
C4 C 0.35241(16) 0.1786(18) 0.0959(3)
C5 C 0.15990(18) 0.1744(18) 0.0926(3)
C6 C 0.25551(18) 0.1750(18) 0.2498(3)
O3 O 0.4410(5) 0.3983(6) 0.6041(6)
O4 O 0.5577(5) -0.0415(5) 0.3893(7)
H1 H 0.419(2) 0.153(8) 0.096(4)
H2 H 0.106(2) 0.165(13) -0.172(4)
H3 H 0.093(2) 0.149(6) 0.104(4)
H4 H 0.259(2) 0.146(5) 0.364(4)
H5 H 0.590(2) 0.005(5) 0.353(4)
H6 H 0.400(2) 0.481(5) 0.536(4)
N1A N 0.64829(13) 0.1798(14) 0.7469(2)
C4A C 0.64759(16) 0.1786(18) 0.9041(3)
C2A C 0.73999(16) 0.1788(16) 1.0678(3)
C1A C 0.83844(16) 0.181(2) 1.0696(3)
C5A C 0.84010(18) 0.1744(18) 0.9074(3)
C6A C 0.74449(18) 0.1750(18) 0.7502(3)
H4A H 0.741(2) 0.146(5) 0.636(4)
H3A H 0.907(2) 0.149(6) 0.896(4)
H2A H 0.894(2) 0.165(13) 1.172(4)
C3A C 0.7299(2) 0.1746(16) 1.2366(3)
O1A O 0.81461(14) 0.1788(12) 1.3837(2)
O2A O 0.63646(15) 0.1732(12) 1.2180(2)
H1A H 0.581(2) 0.153(8) 0.904(4)
O3A O 0.5590(5) 0.3983(6) 0.3959(6)
H6A H 0.600(2) 0.481(5) 0.464(4)
O4A O 0.4423(5) -0.0415(5) 0.6107(7)
H5A H 0.410(2) 0.005(5) 0.647(4)
#END
