
#######################################################################
#
#                 Cambridge Crystallographic Data Centre
#                                CCDC
#
#######################################################################
#
# If this CIF has been generated from an entry in the Cambridge
# Structural Database, then it will include bibliographic, chemical,
# crystal, experimental, refinement or atomic coordinate data resulting
# from the CCDC's data processing and validation procedures.
#
#######################################################################

data_CSD_CIF_COPTCY07
_audit_creation_date 1999-10-05
_audit_creation_method CSD-ConQuest-V1
_database_code_CSD COPTCY07
_database_code_depnum_ccdc_archive 'CCDC 1129689'
_chemical_formula_sum 'C32 H16 Co1 N8'
_chemical_formula_moiety
;
C32 H16 Co1 N8
;
_journal_coden_Cambridge 4
_journal_volume 120
_journal_year 1998
_journal_page_first 12798
_journal_name_full 'J.Am.Chem.Soc. '
loop_
_publ_author_name
"P.Ballirano"
"R.Caminiti"
"C.Ercolani"
"A.Maras"
"M.A.Orru"
_chemical_name_systematic
;
Phthalocyaninato-cobalt(ii)
;
_cell_volume    578.484
_exptl_crystal_density_diffrn 1.641
_exptl_special_details
;
alpha triclinic polymorph
powder data

;
_diffrn_ambient_temperature ?
_diffrn_special_details
;
The study was carried out at room temperature,in the range 283-303K

;
#These two values have been output from a single CSD field.
_refine_ls_R_factor_gt 0.055
_refine_ls_wR_factor_gt 0.055
_symmetry_cell_setting triclinic
_symmetry_space_group_name_H-M 'P -1'
_symmetry_Int_Tables_number 2
loop_
_symmetry_equiv_pos_site_id
_symmetry_equiv_pos_as_xyz
1 x,y,z
2 -x,-y,-z
_cell_length_a 12.090(8)
_cell_length_b 3.754(2)
_cell_length_c 12.800(9)
_cell_angle_alpha 88.96(6)
_cell_angle_beta 90.97(6)
_cell_angle_gamma 95.09(7)
_cell_formula_units_Z 1
loop_
_atom_type_symbol
_atom_type_radius_bond
C 0.68
H 0.23
Co 1.33
N 0.68
loop_
_atom_site_label
_atom_site_type_symbol
_atom_site_fract_x
_atom_site_fract_y
_atom_site_fract_z
Co1 Co 0.00000 0.00000 0.00000
N1 N 0.2476(18) 0.361(14) 0.0850(14)
N2 N 0.0645(14) 0.113(12) 0.1339(7)
N3 N -0.0912(22) -0.033(17) 0.2476(12)
N4 N -0.1395(15) -0.133(16) 0.0640(11)
C1 C 0.1611(22) 0.336(11) 0.1470(16)
C2 C 0.1683(22) 0.46(1) 0.2541(17)
C3 C 0.2523(24) 0.658(12) 0.3095(25)
C4 C 0.2589(33) 0.626(16) 0.4179(26)
C5 C 0.1988(27) 0.335(18) 0.4656(21)
C6 C 0.1029(32) 0.185(19) 0.4153(15)
C7 C 0.0868(21) 0.250(14) 0.3091(11)
C8 C 0.0144(18) 0.074(12) 0.2305(10)
C9 C -0.1583(28) -0.151(18) 0.1706(10)
C10 C -0.2673(27) -0.332(15) 0.1892(12)
C11 C -0.3250(33) -0.439(15) 0.2792(14)
C12 C -0.4261(33) -0.647(16) 0.2711(20)
C13 C -0.4625(25) -0.783(14) 0.1749(22)
C14 C -0.3965(32) -0.713(12) 0.0874(17)
C15 C -0.3084(26) -0.449(12) 0.0923(12)
C16 C -0.2365(15) -0.268(10) 0.0143(10)
H1 H -0.425(8) -0.79(4) 0.020(3)
H2 H -0.538(6) -0.880(5) 0.166(5)
H3 H -0.476(6) -0.65(5) 0.328(5)
H4 H -0.290(7) -0.41(4) 0.346(2)
H5 H 0.048(9) 0.05(6) 0.456(5)
H6 H 0.226(7) 0.23(3) 0.528(6)
H7 H 0.311(8) 0.77(3) 0.457(4)
H8 H 0.319(5) 0.74(4) 0.274(4)
C16A C 0.2365(15) 0.268(10) -0.0143(10)
N4A N 0.1395(15) 0.133(16) -0.0640(11)
N2A N -0.0645(14) -0.113(12) -0.1339(7)
C1A C -0.1611(22) -0.336(11) -0.1470(16)
N1A N -0.2476(18) -0.361(14) -0.0850(14)
C2A C -0.1683(22) -0.46(1) -0.2541(17)
C3A C -0.2523(24) -0.658(12) -0.3095(25)
C4A C -0.2589(33) -0.626(16) -0.4179(26)
C5A C -0.1988(27) -0.335(18) -0.4656(21)
C6A C -0.1029(32) -0.185(19) -0.4153(15)
C7A C -0.0868(21) -0.250(14) -0.3091(11)
C8A C -0.0144(18) -0.074(12) -0.2305(10)
N3A N 0.0912(22) 0.033(17) -0.2476(12)
C9A C 0.1583(28) 0.151(18) -0.1706(10)
C10A C 0.2673(27) 0.332(15) -0.1892(12)
C11A C 0.3250(33) 0.439(15) -0.2792(14)
C12A C 0.4261(33) 0.647(16) -0.2711(20)
C13A C 0.4625(25) 0.783(14) -0.1749(22)
C14A C 0.3965(32) 0.713(12) -0.0874(17)
C15A C 0.3084(26) 0.449(12) -0.0923(12)
H1A H 0.425(8) 0.79(4) -0.020(3)
H2A H 0.538(6) 0.880(5) -0.166(5)
H3A H 0.476(6) 0.65(5) -0.328(5)
H4A H 0.290(7) 0.41(4) -0.346(2)
H5A H -0.048(9) -0.05(6) -0.456(5)
H6A H -0.226(7) -0.23(3) -0.528(6)
H7A H -0.311(8) -0.77(3) -0.457(4)
H8A H -0.319(5) -0.74(4) -0.274(4)
#END
