
#######################################################################
#
#                 Cambridge Crystallographic Data Centre
#                                CCDC
#
#######################################################################
#
# If this CIF has been generated from an entry in the Cambridge
# Structural Database, then it will include bibliographic, chemical,
# crystal, experimental, refinement or atomic coordinate data resulting
# from the CCDC's data processing and validation procedures.
#
#######################################################################

data_CSD_CIF_CORFAS
_audit_creation_date 2014-09-15
_audit_creation_method CSD-ConQuest-V1
_database_code_CSD CORFAS
_database_code_depnum_ccdc_archive 'CCDC 1020641'
_chemical_formula_sum 'C42 H76 Cr1 N2 Si2'
_chemical_formula_moiety
;
C42 H76 Cr1 N2 Si2
;
_journal_coden_Cambridge 182
_journal_volume 50
_journal_year 2014
_journal_page_first 13062
_journal_name_full 'Chem.Commun. '
loop_
_publ_author_name
"I.C.Cai"
"M.I.Lipschutz"
"T.Don Tilley"
_chemical_name_systematic
;
bis((2,6-diisopropylphenyl)(triisopropylsilyl)amido)-chromium(ii)
;
_cell_volume   1059.183
_exptl_crystal_colour 'green'
_exptl_crystal_density_diffrn 1.124
_exptl_crystal_description 'block'
_diffrn_ambient_temperature 100
#These two values have been output from a single CSD field.
_refine_ls_R_factor_gt 0.0405
_refine_ls_wR_factor_gt 0.0405
_symmetry_cell_setting triclinic
_symmetry_space_group_name_H-M 'P -1'
_symmetry_Int_Tables_number 2
loop_
_symmetry_equiv_pos_site_id
_symmetry_equiv_pos_as_xyz
1 x,y,z
2 -x,-y,-z
_cell_length_a 10.6605(3)
_cell_length_b 10.8266(3)
_cell_length_c 11.4767(3)
_cell_angle_alpha 98.981(1)
_cell_angle_beta 104.685(1)
_cell_angle_gamma 118.910(1)
_cell_formula_units_Z 1
loop_
_atom_type_symbol
_atom_type_radius_bond
C 0.68
H 0.23
Cr 1.39
N 0.68
Si 1.20
loop_
_atom_site_label
_atom_site_type_symbol
_atom_site_fract_x
_atom_site_fract_y
_atom_site_fract_z
C1 C 0.51726(17) -0.02610(17) 0.19492(14)
C2 C 0.63041(18) -0.05626(17) 0.25647(14)
C3 C 0.58548(19) -0.20166(18) 0.24750(15)
H1 H 0.66060 -0.21970 0.29040
C4 C 0.4336(2) -0.32251(18) 0.17759(15)
H2 H 0.40660 -0.42160 0.17060
C5 C 0.32365(19) -0.29675(18) 0.11914(15)
H3 H 0.22010 -0.37930 0.07200
C6 C 0.35987(18) -0.15139(17) 0.12692(14)
C7 C 0.22496(18) -0.13097(19) 0.08567(15)
H4 H 0.26880 -0.02420 0.09100
C8 C 0.1428(2) -0.1618(2) 0.17943(19)
H5 H 0.06020 -0.14280 0.15670
H6 H 0.21760 -0.09610 0.26610
H7 H 0.09790 -0.26630 0.17550
C9 C 0.1082(2) -0.2286(2) -0.05015(18)
H8 H 0.16130 -0.20790 -0.10980
H9 H 0.02790 -0.20640 -0.07110
H10 H 0.06030 -0.33410 -0.05690
C10 C 0.79831(18) 0.06847(18) 0.33477(15)
H11 H 0.81280 0.16390 0.32430
C11 C 0.9112(2) 0.0439(2) 0.28998(18)
H12 H 0.90560 -0.04450 0.30620
H13 H 1.01700 0.13160 0.33680
H14 H 0.88300 0.02890 0.19840
C12 C 0.8390(2) 0.0862(2) 0.47695(16)
H15 H 0.76770 0.10250 0.50580
H16 H 0.94550 0.17190 0.52580
H17 H 0.83000 -0.00460 0.49010
C13 C 0.65853(18) 0.31153(17) 0.44193(14)
H18 H 0.75880 0.31760 0.46890
C14 C 0.5469(2) 0.18237(19) 0.47785(16)
H19 H 0.59440 0.19850 0.56850
H20 H 0.52510 0.08790 0.42650
H21 H 0.45000 0.17840 0.46150
C15 C 0.6927(2) 0.46085(19) 0.52121(16)
H22 H 0.59800 0.46130 0.49710
H23 H 0.77280 0.54350 0.50480
H24 H 0.72920 0.47260 0.61210
C16 C 0.75972(18) 0.43186(17) 0.23076(15)
H25 H 0.74570 0.38640 0.14190
C17 C 0.92146(18) 0.47657(19) 0.31746(16)
H26 H 0.99920 0.54200 0.28750
H27 H 0.92340 0.38660 0.31490
H28 H 0.94470 0.52950 0.40520
C18 C 0.7607(2) 0.57490(19) 0.23349(18)
H29 H 0.76850 0.62120 0.31770
H30 H 0.66460 0.54960 0.16830
H31 H 0.84960 0.64500 0.21620
C19 C 0.43153(18) 0.31123(19) 0.20852(15)
H32 H 0.48100 0.42140 0.24460
C20 C 0.2965(2) 0.2404(2) 0.25319(17)
H33 H 0.22600 0.27230 0.22280
H34 H 0.33680 0.27240 0.34660
H35 H 0.24030 0.13130 0.21870
C21 C 0.3691(2) 0.2748(2) 0.06273(15)
H36 H 0.31230 0.16660 0.02090
H37 H 0.45590 0.32550 0.03580
H38 H 0.29940 0.30900 0.03880
N1 N 0.55810(14) 0.11313(14) 0.18089(12)
Si1 Si 0.59603(5) 0.28118(5) 0.26438(4)
Cr1 Cr 0.50000 0.00000 0.00000
C1A C 0.48274(17) 0.02610(17) -0.19492(14)
C2A C 0.36959(18) 0.05626(17) -0.25647(14)
C3A C 0.41452(19) 0.20166(18) -0.24750(15)
H1A H 0.33940 0.21970 -0.29040
C4A C 0.5664(2) 0.32251(18) -0.17759(15)
H2A H 0.59340 0.42160 -0.17060
C5A C 0.67635(19) 0.29675(18) -0.11914(15)
H3A H 0.77990 0.37930 -0.07200
C6A C 0.64013(18) 0.15139(17) -0.12692(14)
C7A C 0.77504(18) 0.13097(19) -0.08567(15)
H4A H 0.73120 0.02420 -0.09100
C8A C 0.8572(2) 0.1618(2) -0.17943(19)
H5A H 0.93980 0.14280 -0.15670
H6A H 0.78240 0.09610 -0.26610
H7A H 0.90210 0.26630 -0.17550
C9A C 0.8918(2) 0.2286(2) 0.05015(18)
H8A H 0.83870 0.20790 0.10980
H9A H 0.97210 0.20640 0.07110
H10A H 0.93970 0.33410 0.05690
C10A C 0.20169(18) -0.06847(18) -0.33477(15)
H11A H 0.18720 -0.16390 -0.32430
C11A C 0.0888(2) -0.0439(2) -0.28998(18)
H12A H 0.09440 0.04450 -0.30620
H13A H -0.01700 -0.13160 -0.33680
H14A H 0.11700 -0.02890 -0.19840
C12A C 0.1610(2) -0.0862(2) -0.47695(16)
H15A H 0.23230 -0.10250 -0.50580
H16A H 0.05450 -0.17190 -0.52580
H17A H 0.17000 0.00460 -0.49010
C13A C 0.34147(18) -0.31153(17) -0.44193(14)
H18A H 0.24120 -0.31760 -0.46890
C14A C 0.4531(2) -0.18237(19) -0.47785(16)
H19A H 0.40560 -0.19850 -0.56850
H20A H 0.47490 -0.08790 -0.42650
H21A H 0.55000 -0.17840 -0.46150
C15A C 0.3073(2) -0.46085(19) -0.52121(16)
H22A H 0.40200 -0.46130 -0.49710
H23A H 0.22720 -0.54350 -0.50480
H24A H 0.27080 -0.47260 -0.61210
C16A C 0.24028(18) -0.43186(17) -0.23076(15)
H25A H 0.25430 -0.38640 -0.14190
C17A C 0.07854(18) -0.47657(19) -0.31746(16)
H26A H 0.00080 -0.54200 -0.28750
H27A H 0.07660 -0.38660 -0.31490
H28A H 0.05530 -0.52950 -0.40520
C18A C 0.2393(2) -0.57490(19) -0.23349(18)
H29A H 0.23150 -0.62120 -0.31770
H30A H 0.33540 -0.54960 -0.16830
H31A H 0.15040 -0.64500 -0.21620
C19A C 0.56847(18) -0.31123(19) -0.20852(15)
H32A H 0.51900 -0.42140 -0.24460
C20A C 0.7035(2) -0.2404(2) -0.25319(17)
H33A H 0.77400 -0.27230 -0.22280
H34A H 0.66320 -0.27240 -0.34660
H35A H 0.75970 -0.13130 -0.21870
C21A C 0.6309(2) -0.2748(2) -0.06273(15)
H36A H 0.68770 -0.16660 -0.02090
H37A H 0.54410 -0.32550 -0.03580
H38A H 0.70060 -0.30900 -0.03880
N1A N 0.44190(14) -0.11313(14) -0.18089(12)
Si1A Si 0.40397(5) -0.28118(5) -0.26438(4)
#END
