
#######################################################################
#
#                 Cambridge Crystallographic Data Centre
#                                CCDC
#
#######################################################################
#
# If this CIF has been generated from an entry in the Cambridge
# Structural Database, then it will include bibliographic, chemical,
# crystal, experimental, refinement or atomic coordinate data resulting
# from the CCDC's data processing and validation procedures.
#
#######################################################################

data_CSD_CIF_COSBUI
_audit_creation_date 2009-07-17
_audit_creation_method CSD-ConQuest-V1
_database_code_CSD COSBUI
_database_code_depnum_ccdc_archive 'CCDC 697152'
_chemical_formula_sum 'C24 H20 Co1 N4 O10'
_chemical_formula_moiety
;
C10 H10 N2 2+,C14 H10 Co1 N2 O10 2-
;
_journal_coden_Cambridge 119
_journal_volume 921
_journal_year 2009
_journal_page_first 137
_journal_name_full 'J.Mol.Struct. '
loop_
_publ_author_name
"Ming-Jin Fang"
"Ming-Xing Li"
"Xiang He"
"Min Shao"
"Wei Pang"
"Shou-Rong Zhu"
_chemical_name_systematic
;
4,4'-Bipyridinium diaqua-bis(pyridine-2,5-dicarboxylato-N,O)-cobalt(ii)
;
_chemical_name_common
;
4,4'-Bipyridinium diaqua-bis(6-carboxylatonicotinato-N,O)-cobalt(ii)
;
_cell_volume    555.746
_exptl_crystal_colour 'yellow'
_exptl_crystal_density_diffrn 1.755
_exptl_crystal_description 'needle'
_diffrn_ambient_temperature 296
#These two values have been output from a single CSD field.
_refine_ls_R_factor_gt 0.0454
_refine_ls_wR_factor_gt 0.0454
_symmetry_cell_setting triclinic
_symmetry_space_group_name_H-M 'P -1'
_symmetry_Int_Tables_number 2
loop_
_symmetry_equiv_pos_site_id
_symmetry_equiv_pos_as_xyz
1 x,y,z
2 -x,-y,-z
_cell_length_a 6.993(4)
_cell_length_b 8.694(6)
_cell_length_c 10.351(7)
_cell_angle_alpha 111.955(7)
_cell_angle_beta 90.364(8)
_cell_angle_gamma 106.321(6)
_cell_formula_units_Z 1
loop_
_atom_type_symbol
_atom_type_radius_bond
C 0.68
H 0.23
Co 1.26
N 0.68
O 0.68
loop_
_atom_site_label
_atom_site_type_symbol
_atom_site_fract_x
_atom_site_fract_y
_atom_site_fract_z
Co1 Co 0.00000 0.00000 0.50000
C1 C 0.2235(5) 0.1362(4) 0.7700(3)
C2 C 0.2819(4) 0.2866(4) 0.7249(3)
C3 C 0.4237(5) 0.4425(4) 0.8041(3)
H1 H 0.49360 0.45630 0.88650
C4 C 0.4603(5) 0.5771(4) 0.7597(3)
H2 H 0.55590 0.68330 0.81170
C5 C 0.3548(4) 0.5542(4) 0.6376(3)
C6 C 0.2184(5) 0.3919(4) 0.5623(3)
H3 H 0.14870 0.37420 0.47860
C7 C 0.3851(5) 0.7004(4) 0.5863(3)
C8 C 0.9578(5) 0.2650(5) 0.1615(4)
H4 H 1.00120 0.26200 0.24530
C9 C 1.0274(5) 0.4148(4) 0.1392(3)
H5 H 1.11680 0.51320 0.20760
C10 C 0.9644(4) 0.4197(4) 0.0145(3)
C11 C 0.8306(5) 0.2703(4) -0.0824(4)
H6 H 0.78470 0.26900 -0.16750
C12 C 0.7653(6) 0.1244(5) -0.0540(4)
H7 H 0.67440 0.02450 -0.11990
N1 N 0.1823(4) 0.2602(3) 0.6038(3)
N2 N 0.8291(4) 0.1231(4) 0.0654(3)
H8 H 0.78710 0.02980 0.08150
O1 O 0.0945(3) -0.0019(3) 0.6902(2)
O2 O 0.3029(4) 0.1599(3) 0.8877(2)
O3 O 0.2887(4) 0.6654(3) 0.4731(3)
O4 O 0.5036(4) 0.8422(3) 0.6626(3)
O5 O 0.2456(4) -0.0727(3) 0.4176(3)
H9 H 0.347(4) 0.015(4) 0.434(5)
H10 H 0.286(5) -0.141(4) 0.443(4)
C1A C -0.2235(5) -0.1362(4) 0.2300(3)
C2A C -0.2819(4) -0.2866(4) 0.2751(3)
C3A C -0.4237(5) -0.4425(4) 0.1959(3)
H1A H -0.49360 -0.45630 0.11350
C4A C -0.4603(5) -0.5771(4) 0.2403(3)
H2A H -0.55590 -0.68330 0.18830
C5A C -0.3548(4) -0.5542(4) 0.3624(3)
C6A C -0.2184(5) -0.3919(4) 0.4377(3)
H3A H -0.14870 -0.37420 0.52140
C7A C -0.3851(5) -0.7004(4) 0.4137(3)
C8A C 1.0422(5) 0.7350(5) -0.1615(4)
H4A H 0.99880 0.73800 -0.24530
C9A C 0.9726(5) 0.5852(4) -0.1392(3)
H5A H 0.88320 0.48680 -0.20760
C10A C 1.0356(4) 0.5803(4) -0.0145(3)
C11A C 1.1694(5) 0.7297(4) 0.0824(4)
H6A H 1.21530 0.73100 0.16750
C12A C 1.2347(6) 0.8756(5) 0.0540(4)
H7A H 1.32560 0.97550 0.11990
N1A N -0.1823(4) -0.2602(3) 0.3962(3)
N2A N 1.1709(4) 0.8769(4) -0.0654(3)
H8A H 1.21290 0.97020 -0.08150
O1A O -0.0945(3) 0.0019(3) 0.3098(2)
O2A O -0.3029(4) -0.1599(3) 0.1123(2)
O3A O -0.2887(4) -0.6654(3) 0.5269(3)
O4A O -0.5036(4) -0.8422(3) 0.3374(3)
O5A O -0.2456(4) 0.0727(3) 0.5824(3)
H9A H -0.347(4) -0.015(4) 0.566(5)
H10A H -0.286(5) 0.141(4) 0.557(4)
#END
