
#######################################################################
#
#                 Cambridge Crystallographic Data Centre
#                                CCDC
#
#######################################################################
#
# If this CIF has been generated from an entry in the Cambridge
# Structural Database, then it will include bibliographic, chemical,
# crystal, experimental, refinement or atomic coordinate data resulting
# from the CCDC's data processing and validation procedures.
#
#######################################################################

data_CSD_CIF_COSDFE
_audit_creation_date 1980-09-26
_audit_creation_method CSD-ConQuest-V1
_database_code_CSD COSDFE
_chemical_formula_sum 'C8 H12 Fe1 O2 S4'
_chemical_formula_moiety
;
C8 H12 Fe1 O2 S4
;
_journal_coden_Cambridge 36
_journal_volume 191
_journal_year 1980
_journal_page_first 171
_journal_name_full 'J.Organomet.Chem. '
loop_
_publ_author_name
"D.Sellmann"
"H.-E.Jonk"
"H.-R.Pfeil"
"G.Huttner"
"J.von Seyerl"
_chemical_name_systematic
;
Dicarbonyl-(1,4,7,10-tetrathiadecane)-iron
;
_cell_volume   1207.787
_exptl_crystal_colour 'raspberry-red'
_exptl_crystal_density_diffrn 1.78
_diffrn_ambient_temperature ?
_diffrn_special_details
;
The study was carried out at room temperature,in the range 283-303K

;
#These two values have been output from a single CSD field.
_refine_ls_R_factor_gt 0.029
_refine_ls_wR_factor_gt 0.029
_symmetry_cell_setting monoclinic
_symmetry_space_group_name_H-M 'C 2/c'
_symmetry_Int_Tables_number 15
loop_
_symmetry_equiv_pos_site_id
_symmetry_equiv_pos_as_xyz
1 x,y,z
2 1/2+x,1/2+y,z
3 -x,y,1/2-z
4 1/2-x,1/2+y,1/2-z
5 -x,-y,-z
6 -1/2-x,-1/2-y,-z
7 x,-y,-1/2+z
8 -1/2+x,-1/2-y,-1/2+z
_cell_length_a 9.051(6)
_cell_length_b 11.66(1)
_cell_length_c 11.701(7)
_cell_angle_alpha 90
_cell_angle_beta 102.02(6)
_cell_angle_gamma 90
_cell_formula_units_Z 4
loop_
_atom_type_symbol
_atom_type_radius_bond
C 0.68
H 0.23
Fe 1.34
O 0.68
S 1.02
loop_
_atom_site_label
_atom_site_type_symbol
_atom_site_fract_x
_atom_site_fract_y
_atom_site_fract_z
Fe1 Fe 0.00000 0.06168 0.25000
S1 S -0.07440 -0.07839 0.11103
S2 S -0.23910 0.05033 0.29093
C1 C 0.00520 -0.20690 0.18500
C2 C -0.27580 -0.10060 0.10510
C3 C -0.34520 0.00630 0.14790
C4 C 0.05910 0.17090 0.35590
O1 O 0.09510 0.24480 0.41840
H1 H 0.09900 -0.21200 0.17800
H2 H -0.05800 -0.27300 0.13500
H3 H -0.27800 -0.16700 0.14500
H4 H -0.31700 -0.11900 0.02800
H5 H -0.35100 0.07100 0.08600
H6 H -0.45000 -0.00800 0.14900
S1B S 0.07440 -0.07839 0.38897
S2B S 0.23910 0.05033 0.20907
C4B C -0.05910 0.17090 0.14410
C1B C -0.00520 -0.20690 0.31500
C2B C 0.27580 -0.10060 0.39490
C3B C 0.34520 0.00630 0.35210
O1B O -0.09510 0.24480 0.08160
H1B H -0.09900 -0.21200 0.32200
H2B H 0.05800 -0.27300 0.36500
H3B H 0.27800 -0.16700 0.35500
H4B H 0.31700 -0.11900 0.47200
H5B H 0.35100 0.07100 0.41400
H6B H 0.45000 -0.00800 0.35100
#END
