
#######################################################################
#
#                 Cambridge Crystallographic Data Centre
#                                CCDC
#
#######################################################################
#
# If this CIF has been generated from an entry in the Cambridge
# Structural Database, then it will include bibliographic, chemical,
# crystal, experimental, refinement or atomic coordinate data resulting
# from the CCDC's data processing and validation procedures.
#
#######################################################################

data_CSD_CIF_COTNCL
_audit_creation_date 1974-03-25
_audit_creation_method CSD-ConQuest-V1
_database_code_CSD COTNCL
_database_code_depnum_ccdc_archive 'CCDC 1130110'
_chemical_formula_sum 'C9 H32 Cl3 Co1 N6 O1'
_chemical_formula_moiety
;
C9 H30 Co1 N6 3+,3(Cl1 1-),H2 O1
;
_journal_coeditor_code "IUCr A10309"
_journal_coden_Cambridge 107
_journal_volume 29
_journal_year 1973
_journal_page_first 2438
_journal_name_full 'Acta Crystallogr.,Sect.B:Struct.Crystallogr.Cryst.Chem. '
loop_
_publ_author_name
"R.Nagao"
"F.Marumo"
"Y.Saito"
_chemical_name_systematic
;
(-)~589~-tris(1,3-Diaminopropane)-cobalt(iii) chloride monohydrate
;
_cell_volume    908.776
_exptl_crystal_density_diffrn 1.48
_exptl_special_details
;
Absolute configuration

;
_diffrn_ambient_temperature ?
_diffrn_special_details
;
The study was carried out at room temperature,in the range 283-303K

;
#These two values have been output from a single CSD field.
_refine_ls_R_factor_gt 0.033
_refine_ls_wR_factor_gt 0.033
_symmetry_cell_setting monoclinic
_symmetry_space_group_name_H-M 'P 21'
_symmetry_Int_Tables_number 4
loop_
_symmetry_equiv_pos_site_id
_symmetry_equiv_pos_as_xyz
1 x,y,z
2 -x,1/2+y,-z
_cell_length_a 12.871(6)
_cell_length_b 7.545(2)
_cell_length_c 9.360(6)
_cell_angle_alpha 90
_cell_angle_beta 91.17(6)
_cell_angle_gamma 90
_cell_formula_units_Z 2
loop_
_atom_type_symbol
_atom_type_radius_bond
C 0.68
H 0.20
Cl 0.99
Co 1.26
N 0.68
O 0.68
loop_
_atom_site_label
_atom_site_type_symbol
_atom_site_fract_x
_atom_site_fract_y
_atom_site_fract_z
Cl1 Cl 0.06290 -0.00300 0.02870
Cl2 Cl 0.26810 -0.07220 0.39500
Cl3 Cl 0.41380 0.21180 -0.14380
Co1 Co 0.23620 0.45660 0.19490
C1 C 0.04910 0.63020 0.32760
C2 C -0.00510 0.45420 0.33990
C3 C 0.05540 0.29990 0.35720
C4 C 0.39300 0.50280 0.43720
C5 C 0.44630 0.33090 0.40290
C6 C 0.45070 0.29140 0.24750
C7 C 0.31210 0.76140 0.01220
C8 C 0.29210 0.65440 -0.11970
C9 C 0.19110 0.55350 -0.11640
H1 H 0.09300 0.61500 0.12800
H2 H 0.32900 0.72400 0.21900
H3 H 0.11600 0.35700 -0.00400
H4 H 0.23400 0.33700 -0.01200
H5 H 0.08500 0.66100 0.41600
H6 H -0.00600 0.71600 0.30700
H7 H -0.05100 0.48600 0.43000
H8 H -0.05200 0.43700 0.24400
H9 H 0.09900 0.32100 0.47400
H10 H 0.02000 0.18700 0.35000
H11 H 0.42200 0.61200 0.37500
H12 H 0.15700 0.75900 0.20400
H13 H 0.39600 0.51900 0.54600
H14 H 0.51500 0.33700 0.44200
H15 H 0.41900 0.24400 0.45200
H16 H 0.48600 0.37800 0.19800
H17 H 0.48700 0.19200 0.23200
H18 H 0.25200 0.84100 0.05300
H19 H 0.36500 0.83900 0.00400
H20 H 0.27800 0.74400 -0.20700
H21 H 0.33700 0.54100 -0.13800
H22 H 0.14400 0.62900 -0.09900
H23 H 0.18300 0.18300 0.29600
H24 H 0.17900 0.49100 -0.21800
H25 H 0.10500 0.21400 0.16200
H26 H 0.25100 0.42300 0.46200
H27 H 0.25700 0.59300 0.42300
H28 H 0.34600 0.25600 0.08400
H29 H 0.31200 0.16900 0.21400
H30 H 0.38700 0.60700 0.14200
N1 N 0.12160 0.62870 0.20630
N2 N 0.14070 0.26800 0.25810
N3 N 0.28030 0.49940 0.39430
N4 N 0.34620 0.27110 0.17830
N5 N 0.33140 0.64890 0.13910
N6 N 0.19390 0.41110 -0.00690
H31 H 0.24500 0.12500 -0.41600
H32 H 0.28400 0.24700 -0.30300
O1 O 0.23370 0.23180 -0.37440
#END
