
#######################################################################
#
#                 Cambridge Crystallographic Data Centre
#                                CCDC
#
#######################################################################
#
# If this CIF has been generated from an entry in the Cambridge
# Structural Database, then it will include bibliographic, chemical,
# crystal, experimental, refinement or atomic coordinate data resulting
# from the CCDC's data processing and validation procedures.
#
#######################################################################

data_CSD_CIF_COTQUY
_audit_creation_date 2009-07-17
_audit_creation_method CSD-ConQuest-V1
_database_code_CSD COTQUY
_database_code_depnum_ccdc_archive 'CCDC 734467'
_chemical_formula_sum 'C15 H15 Cl2 Co1 N3'
_chemical_formula_moiety
;
C15 H15 Cl2 Co1 N3
;
_journal_coden_Cambridge 367
_journal_volume 34
_journal_year 2008
_journal_page_first 285
_journal_name_full 'Koord.Khim.(Russ.)(Coord.Chem.) '
loop_
_publ_author_name
"Z.A.Savel'eva"
"L.A.Glinskaya"
"R.F.Klevtsova"
"S.A.Popov"
"A.V.Tkachev"
"N.V.Semikolenova"
"V.A.Zakharov"
"S.V.Larionov"
_chemical_name_systematic
;
dichloro-(2-(3,5-dimethyl-1H-pyrazol-1-yl)-4-methylquinoline)-cobalt(ii)
;
_cell_volume    789.483
_exptl_crystal_colour 'blue'
_exptl_crystal_density_diffrn 1.544
_exptl_special_details
;
isostructural with Fe and Cu analogues

;
_exptl_crystal_preparation 'ethanol/dichloromethane/acetonitrile'
_diffrn_ambient_temperature 295
#These two values have been output from a single CSD field.
_refine_ls_R_factor_gt 0.0352
_refine_ls_wR_factor_gt 0.0352
_symmetry_cell_setting triclinic
_symmetry_space_group_name_H-M 'P -1'
_symmetry_Int_Tables_number 2
loop_
_symmetry_equiv_pos_site_id
_symmetry_equiv_pos_as_xyz
1 x,y,z
2 -x,-y,-z
_cell_length_a 7.6287(7)
_cell_length_b 8.7652(5)
_cell_length_c 13.2942(12)
_cell_angle_alpha 76.728(2)
_cell_angle_beta 74.190(2)
_cell_angle_gamma 68.925(2)
_cell_formula_units_Z 2
loop_
_atom_type_symbol
_atom_type_radius_bond
C 0.68
H 0.23
Cl 0.99
Co 1.33
N 0.68
loop_
_atom_site_label
_atom_site_type_symbol
_atom_site_fract_x
_atom_site_fract_y
_atom_site_fract_z
Co1 Co 0.26161(6) 0.24578(4) 0.21120(3)
Cl1 Cl -0.01337(12) 0.18773(11) 0.25870(6)
Cl2 Cl 0.51873(12) 0.02322(9) 0.19580(7)
N1 N 0.2616(3) 0.4101(3) 0.29879(18)
N2 N 0.2590(3) 0.4447(3) 0.09959(18)
N3 N 0.2445(3) 0.5822(3) 0.13905(18)
C1 C 0.2499(4) 0.5614(3) 0.2474(2)
C2 C 0.2428(4) 0.6900(3) 0.2954(2)
H1 H 0.23990 0.79260 0.25540
C3 C 0.2402(4) 0.6653(4) 0.4017(2)
C4 C 0.2487(4) 0.5052(3) 0.4597(2)
C5 C 0.2618(4) 0.3796(3) 0.4048(2)
C6 C 0.2733(4) 0.2193(4) 0.4604(2)
H2 H 0.28580 0.13570 0.42410
C7 C 0.2664(5) 0.1859(4) 0.5659(2)
H3 H 0.27290 0.08010 0.60140
C8 C 0.2495(5) 0.3100(4) 0.6217(3)
H4 H 0.24400 0.28620 0.69420
C9 C 0.2410(4) 0.4664(4) 0.5699(2)
H5 H 0.23010 0.54770 0.60760
C10 C 0.2295(5) 0.8030(4) 0.4535(3)
H6 H 0.21740 0.90210 0.40300
H7 H 0.34430 0.77530 0.47970
H8 H 0.12000 0.82050 0.51110
C11 C 0.2298(4) 0.7166(4) 0.0601(2)
C12 C 0.2384(4) 0.6593(4) -0.0293(2)
H9 H 0.23370 0.72090 -0.09610
C13 C 0.2556(4) 0.4912(4) -0.0019(2)
C14 C 0.2035(6) 0.8885(4) 0.0710(3)
H10 H 0.19150 0.95820 0.00440
H11 H 0.31250 0.89110 0.09260
H12 H 0.08930 0.92760 0.12310
C15 C 0.2653(5) 0.3742(4) -0.0696(2)
H13 H 0.27590 0.26710 -0.02830
H14 H 0.37540 0.36650 -0.12670
H15 H 0.15090 0.41320 -0.09770
#END
