
#######################################################################
#
#                 Cambridge Crystallographic Data Centre
#                                CCDC
#
#######################################################################
#
# If this CIF has been generated from an entry in the Cambridge
# Structural Database, then it will include bibliographic, chemical,
# crystal, experimental, refinement or atomic coordinate data resulting
# from the CCDC's data processing and validation procedures.
#
#######################################################################

data_CSD_CIF_COTQOS
_audit_creation_date 2009-07-17
_audit_creation_method CSD-ConQuest-V1
_database_code_CSD COTQOS
_database_code_depnum_ccdc_archive 'CCDC 734466'
_chemical_formula_sum 'C15 H15 Cl2 Fe1 N3'
_chemical_formula_moiety
;
C15 H15 Cl2 Fe1 N3
;
_journal_coden_Cambridge 367
_journal_volume 34
_journal_year 2008
_journal_page_first 285
_journal_name_full 'Koord.Khim.(Russ.)(Coord.Chem.) '
loop_
_publ_author_name
"Z.A.Savel'eva"
"L.A.Glinskaya"
"R.F.Klevtsova"
"S.A.Popov"
"A.V.Tkachev"
"N.V.Semikolenova"
"V.A.Zakharov"
"S.V.Larionov"
_chemical_name_systematic
;
dichloro-(2-(3,5-dimethyl-1H-pyrazol-1-yl)-4-methylquinoline)-iron(ii)
;
_cell_volume    797.081
_exptl_crystal_colour 'yellow'
_exptl_crystal_density_diffrn 1.517
_exptl_special_details
;
isostructural with Co and Cu analogues

;
_exptl_crystal_preparation 'ethanol/dichloromethane/acetonitrile'
_diffrn_ambient_temperature 295
#These two values have been output from a single CSD field.
_refine_ls_R_factor_gt 0.0351
_refine_ls_wR_factor_gt 0.0351
_symmetry_cell_setting triclinic
_symmetry_space_group_name_H-M 'P -1'
_symmetry_Int_Tables_number 2
loop_
_symmetry_equiv_pos_site_id
_symmetry_equiv_pos_as_xyz
1 x,y,z
2 -x,-y,-z
_cell_length_a 7.6217(3)
_cell_length_b 8.7991(3)
_cell_length_c 13.3564(5)
_cell_angle_alpha 76.883(1)
_cell_angle_beta 74.201(1)
_cell_angle_gamma 69.169(1)
_cell_formula_units_Z 2
loop_
_atom_type_symbol
_atom_type_radius_bond
C 0.68
H 0.23
Cl 0.99
Fe 1.34
N 0.68
loop_
_atom_site_label
_atom_site_type_symbol
_atom_site_fract_x
_atom_site_fract_y
_atom_site_fract_z
Fe1 Fe 0.26147(6) 0.23603(4) 0.21219(3)
Cl1 Cl -0.02178(11) 0.18801(10) 0.25945(6)
Cl2 Cl 0.52726(12) 0.02001(9) 0.19457(6)
N1 N 0.2618(3) 0.4093(2) 0.29904(16)
N2 N 0.2599(3) 0.4432(3) 0.10169(16)
N3 N 0.2443(3) 0.5806(3) 0.14072(16)
C1 C 0.2490(3) 0.5591(3) 0.24866(19)
C2 C 0.2416(4) 0.6888(3) 0.2962(2)
H1 H 0.23780 0.79110 0.25660
C3 C 0.2401(4) 0.6634(3) 0.4016(2)
C4 C 0.2492(3) 0.5057(3) 0.4591(2)
C5 C 0.2620(3) 0.3798(3) 0.40489(19)
C6 C 0.2741(4) 0.2205(3) 0.4604(2)
H2 H 0.28610 0.13690 0.42460
C7 C 0.2683(4) 0.1883(4) 0.5652(2)
H3 H 0.27620 0.08290 0.60070
C8 C 0.2503(4) 0.3131(4) 0.6205(2)
H4 H 0.24400 0.29040 0.69270
C9 C 0.2421(4) 0.4674(3) 0.5688(2)
H5 H 0.23180 0.54860 0.60610
C10 C 0.2285(5) 0.8028(4) 0.4528(2)
H6 H 0.22930 0.89790 0.40070
H7 H 0.33670 0.77200 0.48510
H8 H 0.11200 0.82760 0.50550
C11 C 0.2285(4) 0.7136(3) 0.0626(2)
C12 C 0.2374(4) 0.6565(3) -0.0264(2)
H9 H 0.23230 0.71760 -0.09290
C13 C 0.2553(4) 0.4895(3) 0.0010(2)
C14 C 0.2007(5) 0.8860(3) 0.0738(2)
H10 H 0.18670 0.95530 0.00780
H11 H 0.31010 0.88990 0.09440
H12 H 0.08730 0.92360 0.12650
C15 C 0.2664(4) 0.3718(4) -0.0667(2)
H13 H 0.27700 0.26550 -0.02550
H14 H 0.37690 0.36440 -0.12330
H15 H 0.15250 0.40970 -0.09490
#END
