
#######################################################################
#
#                 Cambridge Crystallographic Data Centre
#                                CCDC
#
#######################################################################
#
# If this CIF has been generated from an entry in the Cambridge
# Structural Database, then it will include bibliographic, chemical,
# crystal, experimental, refinement or atomic coordinate data resulting
# from the CCDC's data processing and validation procedures.
#
#######################################################################

data_CSD_CIF_CPMNCO03
_audit_creation_date 2006-09-12
_audit_creation_method CSD-ConQuest-V1
_database_code_CSD CPMNCO03
_database_code_depnum_ccdc_archive 'CCDC 277484'
_chemical_formula_sum 'C8 H5 Mn1 O3'
_chemical_formula_moiety
;
C8 H5 Mn1 O3
;
_journal_coden_Cambridge 4
_journal_volume 128
_journal_year 2006
_journal_page_first 6558
_journal_name_full 'J.Am.Chem.Soc. '
loop_
_publ_author_name
"M.Kawano"
"Y.Kobayashi"
"T.Ozeki"
"M.Fujita"
_chemical_name_systematic
;
Tricarbonyl-(\h^5^-cyclopentadienyl)-manganese
;
_cell_volume    781.128
_exptl_crystal_colour 'colorless'
_exptl_crystal_density_diffrn 1.735
_exptl_crystal_description 'block'
_diffrn_ambient_temperature 78
#These two values have been output from a single CSD field.
_refine_ls_R_factor_gt 0.0249
_refine_ls_wR_factor_gt 0.0249
_symmetry_cell_setting monoclinic
_symmetry_space_group_name_H-M 'P 21/n'
_symmetry_Int_Tables_number 14
loop_
_symmetry_equiv_pos_site_id
_symmetry_equiv_pos_as_xyz
1 x,y,z
2 1/2-x,1/2+y,1/2-z
3 -x,-y,-z
4 -1/2+x,-1/2-y,-1/2+z
_cell_length_a 10.7492(3)
_cell_length_b 6.9262(2)
_cell_length_c 11.6456(3)
_cell_angle_alpha 90
_cell_angle_beta 115.720(1)
_cell_angle_gamma 90
_cell_formula_units_Z 4
loop_
_atom_type_symbol
_atom_type_radius_bond
C 0.68
H 0.23
Mn 1.35
O 0.68
loop_
_atom_site_label
_atom_site_type_symbol
_atom_site_fract_x
_atom_site_fract_y
_atom_site_fract_z
Mn1 Mn 0.472075(16) 1.003725(19) 0.708505(14)
C1 C 0.33114(12) 0.87889(15) 0.77332(11)
H1 H 0.3036(17) 0.940(3) 0.8297(15)
C2 C 0.26373(11) 0.90178(15) 0.63978(11)
H2 H 0.1882(18) 0.979(2) 0.5913(16)
C3 C 0.33576(12) 0.78805(15) 0.58537(11)
H3 H 0.3145(16) 0.779(2) 0.5009(14)
C4 C 0.44701(12) 0.69660(15) 0.68623(11)
H4 H 0.5113(16) 0.616(2) 0.6768(14)
C5 C 0.44533(12) 0.75273(15) 0.80284(11)
H5 H 0.5095(16) 0.714(2) 0.8835(14)
O1 O 0.56107(9) 1.28899(13) 0.91641(8)
C6 C 0.52725(11) 1.17829(14) 0.83479(10)
O2 O 0.39657(10) 1.30942(12) 0.51290(8)
C7 C 0.42686(12) 1.19038(14) 0.58893(10)
O3 O 0.75486(10) 0.96285(13) 0.73081(10)
C8 C 0.64465(13) 0.98094(14) 0.72166(11)
#END
