
#######################################################################
#
#                 Cambridge Crystallographic Data Centre
#                                CCDC
#
#######################################################################
#
# If this CIF has been generated from an entry in the Cambridge
# Structural Database, then it will include bibliographic, chemical,
# crystal, experimental, refinement or atomic coordinate data resulting
# from the CCDC's data processing and validation procedures.
#
#######################################################################

data_CSD_CIF_CPMNCO05
_audit_creation_date 2011-10-02
_audit_creation_method CSD-ConQuest-V1
_database_code_CSD CPMNCO05
_database_code_depnum_ccdc_archive 'CCDC 729870'
_chemical_formula_sum 'C8 H5 Mn1 O3'
_chemical_formula_moiety
;
C8 H5 Mn1 O3
;
_journal_coden_Cambridge 1277
_journal_volume 113
_journal_year 2009
_journal_page_first 10845
_journal_name_full 'J.Phys.Chem.A '
loop_
_publ_author_name
"A.O.Borissova"
"M.Yu.Antipin"
"K.A.Lyssenko"
_chemical_name_systematic
;
Tricarbonyl-(\h^5^-cyclopentadienyl)-manganese
;
_cell_volume    780.801
_exptl_crystal_colour 'colorless'
_exptl_crystal_density_diffrn 1.736
_exptl_crystal_description 'prism'
_diffrn_ambient_temperature 100
#These two values have been output from a single CSD field.
_refine_ls_R_factor_gt 0.0231
_refine_ls_wR_factor_gt 0.0231
_symmetry_cell_setting monoclinic
_symmetry_space_group_name_H-M 'P 21/n'
_symmetry_Int_Tables_number 14
loop_
_symmetry_equiv_pos_site_id
_symmetry_equiv_pos_as_xyz
1 x,y,z
2 1/2-x,1/2+y,1/2-z
3 -x,-y,-z
4 -1/2+x,-1/2-y,-1/2+z
_cell_length_a 10.7512(5)
_cell_length_b 6.9258(3)
_cell_length_c 11.6465(5)
_cell_angle_alpha 90
_cell_angle_beta 115.7940(7)
_cell_angle_gamma 90
_cell_formula_units_Z 4
loop_
_atom_type_symbol
_atom_type_radius_bond
C 0.68
H 0.23
Mn 1.47
O 0.68
loop_
_atom_site_label
_atom_site_type_symbol
_atom_site_fract_x
_atom_site_fract_y
_atom_site_fract_z
Mn1 Mn 0.472262(5) 0.003887(7) 0.208734(5)
O1 O 0.75496(4) -0.03761(8) 0.23113(6)
O2 O 0.56096(5) 0.28939(7) 0.41651(4)
O3 O 0.39659(5) 0.30944(6) 0.01303(4)
C1 C 0.44744(4) -0.30318(6) 0.18672(5)
C2 C 0.44564(4) -0.24712(7) 0.30329(5)
C3 C 0.33107(4) -0.12023(7) 0.27348(4)
C4 C 0.26367(4) -0.09769(6) 0.13958(4)
C5 C 0.33580(4) -0.21139(6) 0.08529(4)
C6 C 0.64462(4) -0.01909(7) 0.22198(5)
C7 C 0.52732(4) 0.17858(6) 0.33467(4)
C8 C 0.42711(5) 0.19021(6) 0.08934(4)
H1 H 0.5125(11) -0.3845(16) 0.1791(10)
H2 H 0.5116(12) -0.2904(18) 0.3870(11)
H3 H 0.2972(13) -0.057(2) 0.3288(12)
H4 H 0.1915(14) -0.0212(16) 0.0970(14)
H5 H 0.3118(13) -0.2238(18) 0.0039(12)
#END
