
#######################################################################
#
#                 Cambridge Crystallographic Data Centre
#                                CCDC
#
#######################################################################
#
# If this CIF has been generated from an entry in the Cambridge
# Structural Database, then it will include bibliographic, chemical,
# crystal, experimental, refinement or atomic coordinate data resulting
# from the CCDC's data processing and validation procedures.
#
#######################################################################

data_CSD_CIF_CPMNCO02
_audit_creation_date 1991-06-09
_audit_creation_method CSD-ConQuest-V1
_database_code_CSD CPMNCO02
_chemical_formula_sum 'C8 H5 Mn1 O3'
_chemical_formula_moiety
;
C8 H5 Mn1 O3
;
_journal_coden_Cambridge 36
_journal_volume 394
_journal_year 1990
_journal_page_first 1
_journal_name_full 'J.Organomet.Chem. '
loop_
_publ_author_name
"J.Cowie"
"E.J.M.Hamilton"
"J.C.V.Laurie"
"A.J.Welch"
_chemical_name_systematic
;
Tricarbonyl-(\h^5^-cyclopentadienyl)-manganese
;
_cell_volume    794.982
_exptl_crystal_colour 'yellow'
_exptl_crystal_density_diffrn 1.705
_diffrn_ambient_temperature 185
#These two values have been output from a single CSD field.
_refine_ls_R_factor_gt 0.0418
_refine_ls_wR_factor_gt 0.0418
_symmetry_cell_setting monoclinic
_symmetry_space_group_name_H-M 'P 21/a'
_symmetry_Int_Tables_number 14
loop_
_symmetry_equiv_pos_site_id
_symmetry_equiv_pos_as_xyz
1 x,y,z
2 1/2-x,1/2+y,-z
3 -x,-y,-z
4 -1/2+x,-1/2-y,z
_cell_length_a 11.941(7)
_cell_length_b 6.981(5)
_cell_length_c 10.798(7)
_cell_angle_alpha 90
_cell_angle_beta 117.97(5)
_cell_angle_gamma 90
_cell_formula_units_Z 4
loop_
_atom_type_symbol
_atom_type_radius_bond
C 0.68
H 0.23
Mn 1.35
O 0.68
loop_
_atom_site_label
_atom_site_type_symbol
_atom_site_fract_x
_atom_site_fract_y
_atom_site_fract_z
Mn1 Mn 0.28993(3) 0.00486(4) 0.26318(3)
O1 O 0.48324(18) 0.3074(3) 0.38259(24)
O2 O 0.08500(18) 0.2888(3) 0.14544(21)
O3 O 0.2672(3) -0.0365(4) 0.52081(23)
C1 C 0.40814(21) 0.1887(3) 0.33768(25)
C2 C 0.16497(21) 0.1777(3) 0.19287(23)
C3 C 0.2757(3) -0.0190(3) 0.4209(3)
C4 C 0.41172(25) -0.2086(4) 0.2493(3)
C5 C 0.35952(25) -0.0963(4) 0.1257(3)
C6 C 0.2281(3) -0.1174(4) 0.05959(24)
C7 C 0.1977(3) -0.2445(4) 0.1428(3)
C8 C 0.3114(3) -0.2988(3) 0.2589(3)
H1 H 0.486(4) -0.203(7) 0.309(5)
H2 H 0.398(5) -0.032(6) 0.105(5)
H3 H 0.166(4) -0.059(7) -0.007(5)
H4 H 0.123(4) -0.277(6) 0.129(5)
H5 H 0.33300 -0.36700 0.34500
#END
