
#######################################################################
#
#                 Cambridge Crystallographic Data Centre
#                                CCDC
#
#######################################################################
#
# If this CIF has been generated from an entry in the Cambridge
# Structural Database, then it will include bibliographic, chemical,
# crystal, experimental, refinement or atomic coordinate data resulting
# from the CCDC's data processing and validation procedures.
#
#######################################################################

data_CSD_CIF_CPMNCO01
_audit_creation_date 1982-05-11
_audit_creation_method CSD-ConQuest-V1
_database_code_CSD CPMNCO01
_chemical_formula_sum 'C8 H5 Mn1 O3'
_chemical_formula_moiety
;
C8 H5 Mn1 O3
;
_journal_coden_Cambridge 9
_journal_volume 20
_journal_year 1981
_journal_page_first 2852
_journal_name_full 'Inorg.Chem. '
loop_
_publ_author_name
"P.J.Fitzpatrick"
"Y.Le Page"
"J.Sedman"
"I.S.Butler"
_chemical_name_systematic
;
Tricarbonyl-(\h^5^-cyclopentadienyl)-manganese(i)
;
_cell_volume    823.644
_exptl_crystal_colour 'yellow'
_exptl_crystal_density_diffrn 1.646
_exptl_special_details
;
Isostructural with the Re analogue

;
_diffrn_ambient_temperature ?
_diffrn_special_details
;
The study was carried out at room temperature,in the range 283-303K

;
#These two values have been output from a single CSD field.
_refine_ls_R_factor_gt 0.0205
_refine_ls_wR_factor_gt 0.0205
_symmetry_cell_setting monoclinic
_symmetry_space_group_name_H-M 'P 21/a'
_symmetry_Int_Tables_number 14
loop_
_symmetry_equiv_pos_site_id
_symmetry_equiv_pos_as_xyz
1 x,y,z
2 1/2-x,1/2+y,-z
3 -x,-y,-z
4 -1/2+x,-1/2-y,z
_cell_length_a 12.077(3)
_cell_length_b 7.057(2)
_cell_length_c 10.913(2)
_cell_angle_alpha 90
_cell_angle_beta 117.68(2)
_cell_angle_gamma 90
_cell_formula_units_Z 4
loop_
_atom_type_symbol
_atom_type_radius_bond
C 0.68
H 0.23
Mn 1.35
O 0.68
loop_
_atom_site_label
_atom_site_type_symbol
_atom_site_fract_x
_atom_site_fract_y
_atom_site_fract_z
Mn1 Mn 0.28767 0.00745 0.26242
C1 C 0.40827 -0.20267 0.24889
C2 C 0.35648 -0.09398 0.12757
C3 C 0.22957 -0.11489 0.06367
C4 C 0.19758 -0.23504 0.14294
C5 C 0.30708 -0.29053 0.25612
C6 C 0.40317 0.18827 0.33426
C7 C 0.16587 0.17742 0.19374
C8 C 0.27374 -0.01442 0.41770
O1 O 0.47770 0.30547 0.37943
O2 O 0.08649 0.28822 0.14683
O3 O 0.26398 -0.03226 0.51631
H1 H 0.49000 -0.22340 0.31430
H2 H 0.40110 -0.01780 0.09960
H3 H 0.16810 -0.04470 -0.02080
H4 H 0.11830 -0.27230 0.12220
H5 H 0.32200 -0.36730 0.32760
#END
