
#######################################################################
#
#                 Cambridge Crystallographic Data Centre
#                                CCDC
#
#######################################################################
#
# If this CIF has been generated from an entry in the Cambridge
# Structural Database, then it will include bibliographic, chemical,
# crystal, experimental, refinement or atomic coordinate data resulting
# from the CCDC's data processing and validation procedures.
#
#######################################################################

data_CSD_CIF_CPNOCC10
_audit_creation_date 1971-12-31
_audit_creation_method CSD-ConQuest-V1
_database_code_CSD CPNOCC10
_chemical_formula_sum 'C6 H5 Cr1 N3 O3'
_chemical_formula_moiety
;
C6 H5 Cr1 N3 O3
;
_journal_coden_Cambridge 89
_journal_year 1970
_journal_page_first 605
_journal_name_full 'J.Chem.Soc.A '
loop_
_publ_author_name
"M.A.Bush"
"G.A.Sim"
_chemical_name_systematic
;
Isocyanato-cyclopentadienyl-dinitrosyl-chromium
;
_cell_volume    416.734
_exptl_crystal_density_diffrn 1.71
_exptl_special_details
;
Dx reported as 1.71; we calculate 1.75. Z COORDINATE OF CR1 CHANGED FROM 
0.45704 TO 0.15704
;
_diffrn_ambient_temperature ?
_diffrn_special_details
;
The study was carried out at room temperature,in the range 283-303K

;
#These two values have been output from a single CSD field.
_refine_ls_R_factor_gt 0.036
_refine_ls_wR_factor_gt 0.036
_symmetry_cell_setting monoclinic
_symmetry_space_group_name_H-M 'P 21/m'
_symmetry_Int_Tables_number 11
loop_
_symmetry_equiv_pos_site_id
_symmetry_equiv_pos_as_xyz
1 x,y,z
2 -x,1/2+y,-z
3 -x,-y,-z
4 x,-1/2-y,z
_cell_length_a 6.18(1)
_cell_length_b 9.00(1)
_cell_length_c 7.52(1)
_cell_angle_alpha 90
_cell_angle_beta 94.90(8)
_cell_angle_gamma 90
_cell_formula_units_Z 2
loop_
_atom_type_symbol
_atom_type_radius_bond
C 0.68
H 0.20
Cr 1.28
N 0.68
O 0.68
loop_
_atom_site_label
_atom_site_type_symbol
_atom_site_fract_x
_atom_site_fract_y
_atom_site_fract_z
Cr1 Cr 0.02875 0.25000 0.15704
C1 C -0.21737 0.25000 -0.22091
C2 C 0.32479 0.25000 0.00898
C3 C 0.32468 0.12559 0.11196
C4 C 0.33364 0.17176 0.28907
H1 H 0.31770 0.25000 -0.11680
H2 H 0.31340 0.02570 0.08010
H3 H 0.32900 0.10900 0.37730
N1 N -0.12813 0.25000 -0.08388
N2 N -0.10753 0.10960 0.25400
O1 O -0.31492 0.25000 -0.36280
O2 O -0.17617 0.01420 0.33564
C3C C 0.32468 0.37441 0.11196
C4C C 0.33364 0.32824 0.28907
N2C N -0.10753 0.39040 0.25400
H2C H 0.31340 0.47430 0.08010
H3C H 0.32900 0.39100 0.37730
O2C O -0.17617 0.48580 0.33564
#END
