
#######################################################################
#
#                 Cambridge Crystallographic Data Centre
#                                CCDC
#
#######################################################################
#
# If this CIF has been generated from an entry in the Cambridge
# Structural Database, then it will include bibliographic, chemical,
# crystal, experimental, refinement or atomic coordinate data resulting
# from the CCDC's data processing and validation procedures.
#
#######################################################################

data_CSD_CIF_CREXAN
_audit_creation_date 1972-07-27
_audit_creation_method CSD-ConQuest-V1
_database_code_CSD CREXAN
_chemical_formula_sum 'C9 H15 Cr1 O3 S6'
_chemical_formula_moiety
;
C9 H15 Cr1 O3 S6
;
_journal_coeditor_code "IUCr A08953"
_journal_coden_Cambridge 107
_journal_volume 28
_journal_year 1972
_journal_page_first 972
_journal_name_full 'Acta Crystallogr.,Sect.B:Struct.Crystallogr.Cryst.Chem. '
loop_
_publ_author_name
"S.Merlino"
"F.Sartori"
_chemical_name_systematic
;
tris(O-Ethylxanthate)-chromium(iii)
;
_cell_volume    862.207
_exptl_crystal_density_diffrn 1.591
_exptl_special_details
;
NOTE THAT THE COORDINATES GIVEN IN THE PAPER REFER TO THE RHOMBOHEDRAL CELL

;
_diffrn_ambient_temperature ?
_diffrn_special_details
;
The study was carried out at room temperature,in the range 283-303K

;
#These two values have been output from a single CSD field.
_refine_ls_R_factor_gt 0.069
_refine_ls_wR_factor_gt 0.069
_symmetry_cell_setting rhombohedral
_symmetry_space_group_name_H-M 'R -3'
_symmetry_Int_Tables_number 148
loop_
_symmetry_equiv_pos_site_id
_symmetry_equiv_pos_as_xyz
1 x,y,z
2 z,x,y
3 y,z,x
4 -x,-y,-z
5 -z,-x,-y
6 -y,-z,-x
_cell_length_a 9.72(1)
_cell_length_b 9.72(1)
_cell_length_c 9.72(1)
_cell_angle_alpha 100.8
_cell_angle_beta 100.8
_cell_angle_gamma 100.8
_cell_formula_units_Z 2
loop_
_atom_type_symbol
_atom_type_radius_bond
C 0.68
H 0.20
Cr 1.28
O 0.68
S 0.99
loop_
_atom_site_label
_atom_site_type_symbol
_atom_site_fract_x
_atom_site_fract_y
_atom_site_fract_z
Cr1 Cr 0.29630 -0.70370 0.29630
C1 C 0.10330 -0.52530 0.30990
C2 C -0.09830 -0.43990 0.20440
C3 C -0.14340 -0.30050 0.23620
H1 H -0.06700 -0.45400 0.10300
H2 H -0.18900 -0.53000 0.19700
H3 H -0.23500 -0.29800 0.15100
H4 H -0.05600 -0.21100 0.24300
H5 H -0.17800 -0.28600 0.33700
O1 O 0.02230 -0.43400 0.32380
S1 S 0.23300 -0.51910 0.45460
S2 S 0.09210 -0.64750 0.15660
S1A S 0.45460 -0.76700 0.48090
S1B S 0.48090 -0.54540 0.23300
S2A S 0.15660 -0.90790 0.35250
S2B S 0.35250 -0.84340 0.09210
C1A C 0.30990 -0.89670 0.47470
C1B C 0.47470 -0.69010 0.10330
O1A O 0.32380 -0.97770 0.56600
O1B O 0.56600 -0.67620 0.02230
C2A C 0.20440 -1.09830 0.56010
C2B C 0.56010 -0.79560 -0.09830
C3A C 0.23620 -1.14340 0.69950
H1A H 0.10300 -1.06700 0.54600
H2A H 0.19700 -1.18900 0.47000
C3B C 0.69950 -0.76380 -0.14340
H1B H 0.54600 -0.89700 -0.06700
H2B H 0.47000 -0.80300 -0.18900
H3A H 0.15100 -1.23500 0.70200
H4A H 0.24300 -1.05600 0.78900
H5A H 0.33700 -1.17800 0.71400
H3B H 0.70200 -0.84900 -0.23500
H4B H 0.78900 -0.75700 -0.05600
H5B H 0.71400 -0.66300 -0.17800
#END
