
#######################################################################
#
#                 Cambridge Crystallographic Data Centre
#                                CCDC
#
#######################################################################
#
# If this CIF has been generated from an entry in the Cambridge
# Structural Database, then it will include bibliographic, chemical,
# crystal, experimental, refinement or atomic coordinate data resulting
# from the CCDC's data processing and validation procedures.
#
#######################################################################

data_CSD_CIF_CRMEBZ01
_audit_creation_date 1976-12-25
_audit_creation_method CSD-ConQuest-V1
_database_code_CSD CRMEBZ01
_chemical_formula_sum 'C11 H8 Cr1 O5'
_chemical_formula_moiety
;
C11 H8 Cr1 O5
;
_journal_coeditor_code "IUCr A13572"
_journal_coden_Cambridge 107
_journal_volume 32
_journal_year 1976
_journal_page_first 2285
_journal_name_full 'Acta Crystallogr.,Sect.B:Struct.Crystallogr.Cryst.Chem. '
loop_
_publ_author_name
"J.-Y.Saillard"
"D.Grandjean"
_chemical_name_systematic
;
Tricarbonyl(methylbenzoate) chromium(0)
;
_cell_volume   1134.581
_exptl_crystal_density_diffrn 1.59
_exptl_special_details
;
BOND C6- C10 SHOULD BE 1.493, NOT 1.393. ATOMS H1,H2 REMOVED BECAUSE OF 
PROBABLE COORD. ERRORS
;
_diffrn_ambient_temperature ?
_diffrn_special_details
;
The study was carried out at room temperature,in the range 283-303K

;
#These two values have been output from a single CSD field.
_refine_ls_R_factor_gt 0.034
_refine_ls_wR_factor_gt 0.034
_symmetry_cell_setting triclinic
_symmetry_space_group_name_H-M 'C -1'
_symmetry_Int_Tables_number 2
loop_
_symmetry_equiv_pos_site_id
_symmetry_equiv_pos_as_xyz
1 x,y,z
2 1/2+x,1/2+y,z
3 -x,-y,-z
4 -1/2-x,-1/2-y,-z
_cell_length_a 10.501(3)
_cell_length_b 11.488(11)
_cell_length_c 10.475(8)
_cell_angle_alpha 107.82(6)
_cell_angle_beta 101.26(6)
_cell_angle_gamma 101.33(7)
_cell_formula_units_Z 4
loop_
_atom_type_symbol
_atom_type_radius_bond
C 0.68
H 0.23
Cr 1.35
O 0.68
loop_
_atom_site_label
_atom_site_type_symbol
_atom_site_fract_x
_atom_site_fract_y
_atom_site_fract_z
Cr1 Cr 0.00984 0.20993 0.20274
C1 C 0.01608 0.20643 0.02771
C2 C -0.02560 0.22719 0.51926
C3 C -0.10551 0.35120 0.69417
C4 C -0.10463 0.31243 0.20217
C5 C -0.14193 0.07241 0.12111
C6 C 0.16602 0.11370 0.25604
C7 C 0.08186 0.11438 0.34507
C8 C 0.06409 0.23140 0.42544
C9 C 0.13008 0.34549 0.41297
C10 C 0.21323 0.34250 0.32302
C11 C 0.22821 0.22610 0.24186
H1 H -0.08400 0.29952 0.74907
H2 H 0.17366 0.03685 0.20618
H3 H 0.02419 0.03847 0.35139
H4 H 0.11450 0.42231 0.46761
H5 H 0.24620 0.41173 0.31556
H6 H 0.28788 0.22267 0.17651
O1 O 0.02047 0.20271 -0.08329
O2 O -0.17896 0.37399 0.19819
O3 O -0.23691 -0.01217 0.07076
O4 O -0.02711 0.34418 0.59352
O5 O -0.08571 0.13195 0.52818
#END
