
#######################################################################
#
#                 Cambridge Crystallographic Data Centre
#                                CCDC
#
#######################################################################
#
# If this CIF has been generated from an entry in the Cambridge
# Structural Database, then it will include bibliographic, chemical,
# crystal, experimental, refinement or atomic coordinate data resulting
# from the CCDC's data processing and validation procedures.
#
#######################################################################

data_CSD_CIF_CUFGIT
_audit_creation_date 1985-09-19
_audit_creation_method CSD-ConQuest-V1
_database_code_CSD CUFGIT
_chemical_formula_sum 'C14 H15 Cl2 Co1 N3 O1'
_chemical_formula_moiety
;
C14 H15 Cl2 Co1 N3 O1
;
_journal_coden_Cambridge 154
_journal_volume 37
_journal_year 1984
_journal_page_first 2421
_journal_name_full 'Aust.J.Chem. '
loop_
_publ_author_name
"A.T.Baker"
"N.J.Ferguson"
"H.A.Goodwin"
_chemical_name_systematic
;
Aqua-dichloro-(2-(3,5-dimethylpyrazol-1-yl)quinoline)-cobalt(ii)
;
_cell_volume    753.650
_exptl_crystal_colour 'purple'
_exptl_crystal_density_diffrn 1.635
_diffrn_ambient_temperature ?
_diffrn_special_details
;
The study was carried out at room temperature,in the range 283-303K

;
#These two values have been output from a single CSD field.
_refine_ls_R_factor_gt 0.023
_refine_ls_wR_factor_gt 0.023
_symmetry_cell_setting triclinic
_symmetry_space_group_name_H-M 'P -1'
_symmetry_Int_Tables_number 2
loop_
_symmetry_equiv_pos_site_id
_symmetry_equiv_pos_as_xyz
1 x,y,z
2 -x,-y,-z
_cell_length_a 7.435(2)
_cell_length_b 9.701(3)
_cell_length_c 11.845(4)
_cell_angle_alpha 71.02(2)
_cell_angle_beta 77.75(2)
_cell_angle_gamma 69.86(2)
_cell_formula_units_Z 2
loop_
_atom_type_symbol
_atom_type_radius_bond
C 0.68
H 0.23
Cl 0.99
Co 1.33
N 0.68
O 0.68
loop_
_atom_site_label
_atom_site_type_symbol
_atom_site_fract_x
_atom_site_fract_y
_atom_site_fract_z
Co1 Co 0.80995(3) 0.78293(3) 0.67033(2)
H1 H 0.744(5) 0.974(4) 0.468(3)
Cl1 Cl 0.50274(7) 0.80362(7) 0.64093(5)
H2 H 0.923(5) 0.952(4) 0.432(3)
Cl2 Cl 0.89705(8) 0.94233(6) 0.74037(5)
H3 H 0.966(4) 0.272(3) 0.971(3)
N1 N 0.7794(2) 0.6235(2) 0.8481(1)
H4 H 0.788(4) 0.315(3) 1.140(3)
N2 N 1.0248(2) 0.5866(2) 0.6603(1)
H5 H 0.541(4) 0.508(3) 1.234(3)
O1 O 0.8342(3) 0.9165(2) 0.4871(1)
H6 H 0.338(4) 0.763(4) 1.218(3)
C1 C 0.8944(3) 0.4832(2) 0.8597(2)
H7 H 0.327(4) 0.943(4) 1.031(3)
C2 C 0.9050(3) 0.3651(2) 0.9678(2)
H8 H 0.531(4) 0.878(3) 0.866(3)
C3 C 0.7863(3) 0.3967(2) 1.0663(2)
H9 H 1.327(4) 0.311(3) 0.575(3)
C4 C 0.6587(3) 0.5436(2) 1.0597(2)
H10 H 1.042(5) 0.135(4) 0.829(3)
C5 C 0.5341(3) 0.5834(3) 1.1602(2)
H11 H 1.234(5) 0.154(4) 0.869(3)
C6 C 0.4171(3) 0.7292(3) 1.1493(2)
H12 H 1.241(5) 0.112(4) 0.751(3)
C7 C 0.4157(3) 0.8404(2) 1.0382(2)
H13 H 1.123(5) 0.696(4) 0.413(3)
C8 C 0.5337(3) 0.8054(2) 0.9388(2)
H14 H 1.341(5) 0.594(4) 0.430(3)
C9 C 0.6587(3) 0.6570(2) 0.9476(2)
H15 H 1.252(5) 0.726(4) 0.474(3)
N3 N 1.0158(2) 0.4586(2) 0.7536(1)
C10 C 1.1410(3) 0.3293(2) 0.7255(2)
C11 C 1.2318(3) 0.3778(3) 0.6134(2)
C12 C 1.1589(3) 0.5358(3) 0.5760(2)
C13 C 1.1697(4) 0.1685(3) 0.8013(3)
C14 C 1.2180(4) 0.6408(3) 0.4628(2)
#END
