
#######################################################################
#
#                 Cambridge Crystallographic Data Centre
#                                CCDC
#
#######################################################################
#
# If this CIF has been generated from an entry in the Cambridge
# Structural Database, then it will include bibliographic, chemical,
# crystal, experimental, refinement or atomic coordinate data resulting
# from the CCDC's data processing and validation procedures.
#
#######################################################################

data_CSD_CIF_CUGPAV
_audit_creation_date 1985-09-20
_audit_creation_method CSD-ConQuest-V1
_database_code_CSD CUGPAV
_database_code_depnum_ccdc_archive 'CCDC 1132641'
_chemical_formula_sum 'C13 H10 Cr1 O6'
_chemical_formula_moiety
;
C13 H10 Cr1 O6
;
_journal_coden_Cambridge 36
_journal_volume 277
_journal_year 1984
_journal_page_first 267
_journal_name_full 'J.Organomet.Chem. '
loop_
_publ_author_name
"K.H.Dotz"
"W.Sturm"
"M.Popall"
"J.Riede"
_chemical_name_systematic
;
cis-Tetracarbonyl-(methoxy-(1-methoxy-2-phenyl)-carbene)-chromium
;
_chemical_melting_point 371.15
_cell_volume    659.227
_exptl_crystal_colour 'violet-black'
_exptl_crystal_density_diffrn 1.58
_exptl_special_details
;
Melting point range 371.15-372.15K
X(O1) should be negative. As can be seen from Fig. 1, the distance C5-C56 
=1.394 in Table 5 is nonsense. It may be C51-C56 and then is redundant. 
Authors' correction: x and z of O2 and x and y of O4 and y(C6) all are 
negative, not positive
;
_diffrn_ambient_temperature ?
_diffrn_special_details
;
The study was carried out at room temperature,in the range 283-303K

;
#These two values have been output from a single CSD field.
_refine_ls_R_factor_gt 0.034
_refine_ls_wR_factor_gt 0.034
_symmetry_cell_setting triclinic
_symmetry_space_group_name_H-M 'P -1'
_symmetry_Int_Tables_number 2
loop_
_symmetry_equiv_pos_site_id
_symmetry_equiv_pos_as_xyz
1 x,y,z
2 -x,-y,-z
_cell_length_a 8.376(3)
_cell_length_b 8.869(4)
_cell_length_c 9.350(3)
_cell_angle_alpha 81.15(3)
_cell_angle_beta 105.50(3)
_cell_angle_gamma 96.74(3)
_cell_formula_units_Z 2
loop_
_atom_type_symbol
_atom_type_radius_bond
C 0.68
H 0.23
Cr 1.35
O 0.68
loop_
_atom_site_label
_atom_site_type_symbol
_atom_site_fract_x
_atom_site_fract_y
_atom_site_fract_z
Cr1 Cr 0.16047(6) 0.21074(5) 0.28383(5)
C1 C 0.0003(4) 0.2295(3) 0.3883(3)
C2 C 0.0130(4) 0.2862(3) 0.1000(3)
C3 C 0.2902(4) 0.1080(3) 0.4641(3)
C4 C 0.0601(4) 0.0229(4) 0.2439(3)
O1 O -0.0992(3) 0.2321(3) 0.4513(3)
O2 O -0.0809(3) 0.3197(2) -0.0090(2)
O3 O 0.3627(3) 0.0389(3) 0.5695(3)
O4 O -0.0102(3) -0.0954(2) 0.2184(2)
C5 C 0.3550(3) 0.2254(3) 0.1947(3)
C6 C 0.4663(5) 0.3662(3) 0.2107(3)
C7 C 0.6126(4) 0.3963(3) 0.1616(3)
C8 C 0.7058(4) 0.5357(4) 0.1777(3)
C9 C 0.6550(4) 0.6447(4) 0.2416(4)
C10 C 0.5118(4) 0.6182(3) 0.2913(3)
C11 C 0.4189(3) 0.4799(3) 0.2751(3)
O5 O 0.2756(2) 0.4398(2) 0.3221(2)
C12 C 0.2104(4) 0.5558(3) 0.3787(3)
O6 O 0.4141(2) 0.1346(2) 0.1258(2)
C13 C 0.3261(4) -0.0114(4) 0.0967(4)
H1 H 0.18200 0.64200 0.30000
H2 H 0.11300 0.51600 0.39200
H3 H 0.28200 0.57500 0.46400
H4 H 0.33900 -0.05600 0.16900
H5 H 0.64700 0.32100 0.11600
H6 H 0.80400 0.55400 0.14400
H7 H 0.72100 0.74000 0.25300
H8 H 0.47500 0.69600 0.33400
H9 H 0.37000 -0.05600 0.03000
H10 H 0.21100 0.00000 0.05200
#END
