
#######################################################################
#
#                 Cambridge Crystallographic Data Centre
#                                CCDC
#
#######################################################################
#
# If this CIF has been generated from an entry in the Cambridge
# Structural Database, then it will include bibliographic, chemical,
# crystal, experimental, refinement or atomic coordinate data resulting
# from the CCDC's data processing and validation procedures.
#
#######################################################################

data_CSD_CIF_CUJPAY
_audit_creation_date 2000-05-24
_audit_creation_method CSD-ConQuest-V1
_database_code_CSD CUJPAY
_chemical_formula_sum 'C14 H22 Mn1 N8 O2'
_chemical_formula_moiety
;
C14 H22 Mn1 N8 O2
;
_journal_coden_Cambridge 369
_journal_volume 24
_journal_year 1999
_journal_page_first 29
_journal_name_full 'Transition Met.Chem. '
loop_
_publ_author_name
"M.A.S.Goher"
"F.A.Mautner"
"M.A.M.Abu-Youssef"
_chemical_name_systematic
;
trans-Diaqua-diazido-bis(3,4-dimethylpyridine-N)-manganese(ii)
;
_cell_volume    460.483
_exptl_crystal_colour 'yellow'
_exptl_crystal_density_diffrn 1.404
_diffrn_ambient_temperature ?
_diffrn_special_details
;
The study was carried out at room temperature,in the range 283-303K

;
#These two values have been output from a single CSD field.
_refine_ls_R_factor_gt 0.0791
_refine_ls_wR_factor_gt 0.0791
_symmetry_cell_setting triclinic
_symmetry_space_group_name_H-M 'P -1'
_symmetry_Int_Tables_number 2
loop_
_symmetry_equiv_pos_site_id
_symmetry_equiv_pos_as_xyz
1 x,y,z
2 -x,-y,-z
_cell_length_a 7.103(2)
_cell_length_b 7.833(2)
_cell_length_c 10.019(2)
_cell_angle_alpha 109.59(2)
_cell_angle_beta 91.00(2)
_cell_angle_gamma 116.54(2)
_cell_formula_units_Z 1
loop_
_atom_type_symbol
_atom_type_radius_bond
C 0.68
H 0.23
Mn 1.35
N 0.68
O 0.68
loop_
_atom_site_label
_atom_site_type_symbol
_atom_site_fract_x
_atom_site_fract_y
_atom_site_fract_z
Mn1 Mn 0.50000 0.50000 0.50000
O1 O 0.2232(5) 0.1911(4) 0.4369(3)
N1 N 0.2787(6) 0.5933(6) 0.4321(4)
N2 N 0.2418(5) 0.7313(5) 0.4758(4)
N3 N 0.1957(6) 0.8643(6) 0.5167(4)
N4 N 0.4452(5) 0.6016(5) 0.7309(3)
C1 C 0.6039(6) 0.6824(6) 0.8447(4)
C2 C 0.5884(7) 0.7565(6) 0.9883(4)
C3 C 0.3930(7) 0.7472(6) 1.0182(4)
C4 C 0.2290(7) 0.6627(7) 0.8998(5)
C5 C 0.2607(7) 0.5950(7) 0.7613(4)
C6 C 0.7777(8) 0.8449(8) 1.1073(5)
C7 C 0.3555(7) 0.8190(7) 1.1698(5)
H1 H 0.7342(6) 0.6893(6) 0.8256(4)
H2 H 0.0960(7) 0.6520(7) 0.9148(5)
H3 H 0.1482(7) 0.5421(7) 0.6850(4)
H4 H 0.7428(19) 0.7610(28) 1.1638(21)
H5 H 0.8117(32) 0.9832(18) 1.1682(20)
H6 H 0.8991(16) 0.8468(45) 1.0660(5)
H7 H 0.4580(13) 0.9621(9) 1.2210(6)
H8 H 0.3718(12) 0.7385(13) 1.2186(5)
H9 H 0.2129(10) 0.8022(12) 1.1663(5)
H10 H 0.2306(10) 0.1007(7) 0.4585(5)
H11 H 0.1135(7) 0.1960(8) 0.4590(5)
O1A O 0.7768(5) 0.8089(4) 0.5631(3)
H10A H 0.7694(10) 0.8993(7) 0.5415(5)
H11A H 0.8865(7) 0.8040(8) 0.5410(5)
N1A N 0.7213(6) 0.4067(6) 0.5679(4)
N2A N 0.7582(5) 0.2687(5) 0.5242(4)
N3A N 0.8043(6) 0.1357(6) 0.4833(4)
N4A N 0.5548(5) 0.3984(5) 0.2691(3)
C1A C 0.3961(6) 0.3176(6) 0.1553(4)
C2A C 0.4116(7) 0.2435(6) 0.0117(4)
C3A C 0.6070(7) 0.2528(6) -0.0182(4)
C4A C 0.7710(7) 0.3373(7) 0.1002(5)
C5A C 0.7393(7) 0.4050(7) 0.2387(4)
H3A H 0.8518(7) 0.4579(7) 0.3150(4)
H2A H 0.9040(7) 0.3480(7) 0.0852(5)
C7A C 0.6445(7) 0.1810(7) -0.1698(5)
H7A H 0.5420(13) 0.0379(9) -0.2210(6)
H8A H 0.6282(12) 0.2615(13) -0.2186(5)
H9A H 0.7871(10) 0.1978(12) -0.1663(5)
C6A C 0.2223(8) 0.1551(8) -0.1073(5)
H4A H 0.2572(19) 0.2390(28) -0.1638(21)
H5A H 0.1883(32) 0.0168(18) -0.1682(20)
H6A H 0.1009(16) 0.1532(45) -0.0660(5)
H1A H 0.2658(6) 0.3107(6) 0.1744(4)
#END
