
#######################################################################
#
#                 Cambridge Crystallographic Data Centre
#                                CCDC
#
#######################################################################
#
# If this CIF has been generated from an entry in the Cambridge
# Structural Database, then it will include bibliographic, chemical,
# crystal, experimental, refinement or atomic coordinate data resulting
# from the CCDC's data processing and validation procedures.
#
#######################################################################

data_CSD_CIF_CUKCEQ10
_audit_creation_date 1989-07-11
_audit_creation_method CSD-ConQuest-V1
_database_code_CSD CUKCEQ10
_chemical_formula_sum 'C18 H28 Mn1 N14 O8'
_chemical_formula_moiety
;
C12 H20 Mn1 N8 O2 2+,2(C3 H4 N2),2(N1 O3 1-)
;
_journal_coeditor_code "IUCr HU0167"
_journal_coden_Cambridge 591
_journal_volume 44
_journal_year 1988
_journal_page_first 1564
_journal_name_full 'Acta Crystallogr.,Sect.C:Cryst.Struct.Commun. '
loop_
_publ_author_name
"P.Lumme"
"E.Lindell"
"I.Mutikainen"
_chemical_name_systematic
;
trans-Diaqua-tetrakis(pyrazol-2-yl)-manganese(ii) dinitrate pyrazole solvate
;
_cell_volume    740.278
_exptl_crystal_colour 'colorless'
_exptl_crystal_density_diffrn 1.44
_exptl_special_details
;
We calculate dx = 1.40

;
_diffrn_ambient_temperature ?
_diffrn_special_details
;
The study was carried out at room temperature,in the range 283-303K

;
#These two values have been output from a single CSD field.
_refine_ls_R_factor_gt 0.045
_refine_ls_wR_factor_gt 0.045
_symmetry_cell_setting triclinic
_symmetry_space_group_name_H-M 'P -1'
_symmetry_Int_Tables_number 2
loop_
_symmetry_equiv_pos_site_id
_symmetry_equiv_pos_as_xyz
1 x,y,z
2 -x,-y,-z
_cell_length_a 9.150(2)
_cell_length_b 9.449(4)
_cell_length_c 9.583(4)
_cell_angle_alpha 79.75(4)
_cell_angle_beta 87.83(3)
_cell_angle_gamma 65.33(3)
_cell_formula_units_Z 1
loop_
_atom_type_symbol
_atom_type_radius_bond
C 0.68
H 0.23
Mn 1.35
N 0.68
O 0.68
loop_
_atom_site_label
_atom_site_type_symbol
_atom_site_fract_x
_atom_site_fract_y
_atom_site_fract_z
Mn1 Mn 0.00000 0.00000 0.00000
N1 N 0.1002(3) 0.1471(3) 0.0888(3)
N2 N 0.2557(4) 0.1037(4) 0.1243(3)
N3 N -0.0098(3) 0.1402(3) -0.2199(3)
N4 N 0.0796(4) 0.2219(4) -0.2612(3)
N5 N 0.3517(4) -0.2144(4) -0.3032(3)
N6 N 0.4617(4) -0.3579(4) -0.3218(4)
N7 N 0.5977(4) -0.3080(4) 0.1737(3)
C1 C 0.2767(6) 0.2145(6) 0.1795(5)
C2 C 0.1306(7) 0.3344(6) 0.1830(5)
C3 C 0.0243(5) 0.2889(5) 0.1253(5)
C4 C 0.0509(5) 0.2908(5) -0.3990(4)
C5 C -0.0628(5) 0.2549(6) -0.4509(4)
C6 C -0.0967(5) 0.1600(6) -0.3360(4)
C7 C 0.5381(5) -0.3471(6) -0.4433(5)
C8 C 0.4806(6) -0.1934(5) -0.5051(4)
C9 C 0.3652(5) -0.1165(5) -0.4147(4)
O1 O 0.2412(3) -0.1566(4) -0.0396(3)
O2 O 0.4881(4) -0.3481(4) 0.1509(3)
O3 O 0.5740(4) -0.1665(3) 0.1422(3)
O4 O 0.7255(3) -0.4085(4) 0.2312(4)
H1 H 0.319(5) 0.025(4) 0.095(4)
H2 H 0.380(5) 0.201(4) 0.202(4)
H3 H 0.113(4) 0.438(4) 0.204(4)
H4 H -0.081(5) 0.346(4) 0.106(4)
H5 H 0.139(4) 0.214(4) -0.194(4)
H6 H 0.121(4) 0.352(4) -0.450(4)
H7 H -0.112(4) 0.278(4) -0.557(4)
H8 H -0.181(4) 0.111(4) -0.318(3)
H9 H 0.470(4) -0.447(4) -0.263(4)
H10 H 0.616(4) -0.436(4) -0.474(4)
H11 H 0.518(4) -0.146(4) -0.594(4)
H12 H 0.311(4) 0.000(4) -0.423(3)
H13 H 0.299(5) -0.197(5) 0.008(4)
H14 H 0.274(4) -0.166(4) -0.128(4)
N1A N -0.1002(3) -0.1471(3) -0.0888(3)
N3A N 0.0098(3) -0.1402(3) 0.2199(3)
O1A O -0.2412(3) 0.1566(4) 0.0396(3)
N2A N -0.2557(4) -0.1037(4) -0.1243(3)
C3A C -0.0243(5) -0.2889(5) -0.1253(5)
N4A N -0.0796(4) -0.2219(4) 0.2612(3)
C6A C 0.0967(5) -0.1600(6) 0.3360(4)
H13A H -0.299(5) 0.197(5) -0.008(4)
H14A H -0.274(4) 0.166(4) 0.128(4)
C1A C -0.2767(6) -0.2145(6) -0.1795(5)
H1A H -0.319(5) -0.025(4) -0.095(4)
C2A C -0.1306(7) -0.3344(6) -0.1830(5)
H4A H 0.081(5) -0.346(4) -0.106(4)
C4A C -0.0509(5) -0.2908(5) 0.3990(4)
H5A H -0.139(4) -0.214(4) 0.194(4)
C5A C 0.0628(5) -0.2549(6) 0.4509(4)
H8A H 0.181(4) -0.111(4) 0.318(3)
H2A H -0.380(5) -0.201(4) -0.202(4)
H3A H -0.113(4) -0.438(4) -0.204(4)
H6A H -0.121(4) -0.352(4) 0.450(4)
H7A H 0.112(4) -0.278(4) 0.557(4)
#END
