
#######################################################################
#
#                 Cambridge Crystallographic Data Centre
#                                CCDC
#
#######################################################################
#
# If this CIF has been generated from an entry in the Cambridge
# Structural Database, then it will include bibliographic, chemical,
# crystal, experimental, refinement or atomic coordinate data resulting
# from the CCDC's data processing and validation procedures.
#
#######################################################################

data_CSD_CIF_CUWTAQ
_audit_creation_date 2011-01-04
_audit_creation_method CSD-ConQuest-V1
_database_code_CSD CUWTAQ
_database_code_depnum_ccdc_archive 'CCDC 742523'
_chemical_formula_sum 'C11 H17 Co1 N1 O7 S2'
_chemical_formula_moiety
;
C11 H17 Co1 N1 O7 S2
;
_journal_coden_Cambridge 1350
_journal_volume 12
_journal_year 2010
_journal_page_first 1576
_journal_name_full 'CrystEngComm '
loop_
_publ_author_name
"M.Felloni"
"A.J.Blake"
"P.Hubberstey"
"S.J.Teat"
"C.Wilson"
"M.Schroder"
_chemical_name_systematic
;
mer-Aqua-bis(dimethylsulfoxide-O)-(pyridine-2,6-dicarboxylato-N,O,O')-cobalt(i
i)
;
_chemical_name_common
;
mer-Aqua-bis(dimethylsulfoxide-O)-(dipicolinato-N,O,O')-cobalt(ii)
;
_cell_volume   1596.563
_exptl_crystal_colour 'pink'
_exptl_crystal_density_diffrn 1.657
_exptl_crystal_description 'block'
_diffrn_ambient_temperature 150
#These two values have been output from a single CSD field.
_refine_ls_R_factor_gt 0.0257
_refine_ls_wR_factor_gt 0.0257
_symmetry_cell_setting monoclinic
_symmetry_space_group_name_H-M 'C 2/c'
_symmetry_Int_Tables_number 15
loop_
_symmetry_equiv_pos_site_id
_symmetry_equiv_pos_as_xyz
1 x,y,z
2 -x,y,1/2-z
3 1/2+x,1/2+y,z
4 1/2-x,1/2+y,1/2-z
5 -x,-y,-z
6 x,-y,-1/2+z
7 -1/2-x,-1/2-y,-z
8 -1/2+x,-1/2-y,-1/2+z
_cell_length_a 9.8087(14)
_cell_length_b 11.592(2)
_cell_length_c 14.463(2)
_cell_angle_alpha 90
_cell_angle_beta 103.865(12)
_cell_angle_gamma 90
_cell_formula_units_Z 4
loop_
_atom_type_symbol
_atom_type_radius_bond
C 0.68
H 0.23
Co 1.26
N 0.68
O 0.68
S 1.02
loop_
_atom_site_label
_atom_site_type_symbol
_atom_site_fract_x
_atom_site_fract_y
_atom_site_fract_z
Co1 Co 0.50000 0.17824(3) 0.75000
N1 N 0.50000 0.3538(2) 0.75000
O1 O 0.64022(14) 0.17244(11) 0.88938(9)
S1 S 0.58942(5) 0.10144(4) 0.96324(3)
C1 C 0.5455(3) 0.2028(2) 1.0443(2)
H1 H 0.51990 0.16220 1.09550
H2 H 0.46800 0.24940 1.01150
H3 H 0.62510 0.25130 1.06950
O2 O 0.50000 0.0054(2) 0.75000
H4 H 0.4366(21) -0.0354(20) 0.7212(18)
C2 C 0.7445(3) 0.0420(2) 1.0383(2)
H5 H 0.72020 -0.00120 1.08870
H6 H 0.80750 0.10330 1.06510
H7 H 0.78920 -0.00800 1.00160
C3 C 0.4025(2) 0.40951(15) 0.78281(12)
O3 O 0.32962(14) 0.22166(11) 0.81086(10)
C4 C 0.3989(2) 0.5294(2) 0.78428(13)
H8 H 0.33120 0.56850 0.80741
O4 O 0.20209(14) 0.36937(12) 0.84397(10)
C5 C 0.50000 0.5893(2) 0.75000
H9 H 0.50000 0.66950 0.75000
C6 C 0.3019(2) 0.3275(2) 0.81531(12)
O1A O 0.35978(14) 0.17244(11) 0.61062(9)
S1A S 0.41058(5) 0.10144(4) 0.53676(3)
C1A C 0.4545(3) 0.2028(2) 0.4557(2)
H1A H 0.48010 0.16220 0.40450
H2A H 0.53200 0.24940 0.48850
H3A H 0.37490 0.25130 0.43050
H4A H 0.5634(21) -0.0354(20) 0.7788(18)
C2A C 0.2555(3) 0.0420(2) 0.4617(2)
H5A H 0.27980 -0.00120 0.41130
H6A H 0.19250 0.10330 0.43490
H7A H 0.21080 -0.00800 0.49840
C3A C 0.5975(2) 0.40951(15) 0.71719(12)
O3A O 0.67038(14) 0.22166(11) 0.68914(10)
C4A C 0.6011(2) 0.5294(2) 0.71572(13)
H8A H 0.66880 0.56850 0.69259
O4A O 0.79791(14) 0.36937(12) 0.65603(10)
C6A C 0.6981(2) 0.3275(2) 0.68469(12)
#END
