
#######################################################################
#
#                 Cambridge Crystallographic Data Centre
#                                CCDC
#
#######################################################################
#
# If this CIF has been generated from an entry in the Cambridge
# Structural Database, then it will include bibliographic, chemical,
# crystal, experimental, refinement or atomic coordinate data resulting
# from the CCDC's data processing and validation procedures.
#
#######################################################################

data_CSD_CIF_CYCPCR01
_audit_creation_date 1996-09-09
_audit_creation_method CSD-ConQuest-V1
_database_code_CSD CYCPCR01
_chemical_formula_sum 'C10 H10 Cr1'
_chemical_formula_moiety
;
C10 H10 Cr1
;
_journal_coden_Cambridge 36
_journal_volume 507
_journal_year 1996
_journal_page_first 275
_journal_name_full 'J.Organomet.Chem. '
loop_
_publ_author_name
"K.R.Flower"
"P.B.Hitchcock"
_chemical_name_systematic
;
bis(Cyclopentadienyl)-chromium(ii)
;
_chemical_name_common
;
Chromocene
;
_cell_volume    404.183
_exptl_crystal_colour 'red'
_exptl_crystal_density_diffrn 1.5
_diffrn_ambient_temperature 173
_refine_special_details
;
Cyclopentadienyl ring is disordered over two sites with occupancies 
;
#These two values have been output from a single CSD field.
_refine_ls_R_factor_gt 0.0424
_refine_ls_wR_factor_gt 0.0424
_symmetry_cell_setting monoclinic
_symmetry_space_group_name_H-M 'P 21/c'
_symmetry_Int_Tables_number 14
loop_
_symmetry_equiv_pos_site_id
_symmetry_equiv_pos_as_xyz
1 x,y,z
2 -x,1/2+y,1/2-z
3 -x,-y,-z
4 x,-1/2-y,-1/2+z
_cell_length_a 5.786(7)
_cell_length_b 7.815(9)
_cell_length_c 10.787(9)
_cell_angle_alpha 90
_cell_angle_beta 124.04(8)
_cell_angle_gamma 90
_cell_formula_units_Z 2
loop_
_atom_type_symbol
_atom_type_radius_bond
C 0.68
H 0.23
Cr 1.35
loop_
_atom_site_label
_atom_site_type_symbol
_atom_site_fract_x
_atom_site_fract_y
_atom_site_fract_z
Cr1 Cr 0.00000 0.00000 0.00000
C1 C -0.4252(5) 0.0701(3) -0.1681(3)
C2 C -0.3175(5) 0.1820(3) -0.0473(3)
C3 C -0.0896(7) 0.2677(3) -0.0316(4)
C4 C -0.0615(7) 0.2067(5) -0.1463(5)
C5 C -0.2713(9) 0.0848(4) -0.2305(3)
C6? C -0.3852(30) 0.1241(22) -0.1129(22)
C7? C -0.1788(37) 0.2490(21) -0.0241(17)
C8? C 0.0061(27) 0.2578(18) -0.0712(17)
C9? C -0.0860(36) 0.1382(23) -0.1891(19)
C10? C -0.3278(35) 0.0556(20) -0.2149(20)
H1 H -0.5552(79) -0.0059(37) -0.1954(42)
H2 H -0.3762(77) 0.1896(45) 0.0165(38)
H3 H 0.0199(65) 0.3399(48) 0.0381(40)
H4 H 0.055(11) 0.2359(72) -0.1542(59)
H5 H -0.2877(95) 0.0210(46) -0.2980(55)
C1B C 0.4252(5) -0.0701(3) 0.1681(3)
C2B C 0.3175(5) -0.1820(3) 0.0473(3)
C3B C 0.0896(7) -0.2677(3) 0.0316(4)
C4B C 0.0615(7) -0.2067(5) 0.1463(5)
C5B C 0.2713(9) -0.0848(4) 0.2305(3)
H1B H 0.5552(79) 0.0059(37) 0.1954(42)
H2B H 0.3762(77) -0.1896(45) -0.0165(38)
H3B H -0.0199(65) -0.3399(48) -0.0381(40)
H4B H -0.055(11) -0.2359(72) 0.1542(59)
H5B H 0.2877(95) -0.0210(46) 0.2980(55)
#END
