
#######################################################################
#
#                 Cambridge Crystallographic Data Centre
#                                CCDC
#
#######################################################################
#
# If this CIF has been generated from an entry in the Cambridge
# Structural Database, then it will include bibliographic, chemical,
# crystal, experimental, refinement or atomic coordinate data resulting
# from the CCDC's data processing and validation procedures.
#
#######################################################################

data_CSD_CIF_DAGLAA
_audit_creation_date 2011-12-21
_audit_creation_method CSD-ConQuest-V1
_database_code_CSD DAGLAA
_database_code_depnum_ccdc_archive 'CCDC 840296'
_chemical_formula_sum 'C14 H16 Co1 I2 N2'
_chemical_formula_moiety
;
C14 H16 Co1 I2 N2
;
_journal_coden_Cambridge 1078
_journal_year 2011
_journal_name_full 'CSD Communication(Private Communication) '
loop_
_publ_author_name
"A.Lennartson"
"M.Hakansson"
_chemical_name_systematic
;
(N,N'-Diphenylethane-1,2-diamine)-bis(iodo)-cobalt
;
_cell_volume   1617.130
_exptl_crystal_colour 'green'
_exptl_crystal_density_diffrn 2.156
_exptl_special_details
;
contribution from Department of Physics and Chemistry,University of Southern 
Denmark, Campusvej 55,5230 Odense M, Denmark
;
_exptl_crystal_description 'needle'
_diffrn_ambient_temperature 293
#These two values have been output from a single CSD field.
_refine_ls_R_factor_gt 0.0431
_refine_ls_wR_factor_gt 0.0431
_symmetry_cell_setting monoclinic
_symmetry_space_group_name_H-M 'C 2/c'
_symmetry_Int_Tables_number 15
loop_
_symmetry_equiv_pos_site_id
_symmetry_equiv_pos_as_xyz
1 x,y,z
2 -x,y,1/2-z
3 1/2+x,1/2+y,z
4 1/2-x,1/2+y,1/2-z
5 -x,-y,-z
6 x,-y,-1/2+z
7 -1/2-x,-1/2-y,-z
8 -1/2+x,-1/2-y,-1/2+z
_cell_length_a 19.599(7)
_cell_length_b 7.689(2)
_cell_length_c 12.087(5)
_cell_angle_alpha 90
_cell_angle_beta 117.400(9)
_cell_angle_gamma 90
_cell_formula_units_Z 4
loop_
_atom_type_symbol
_atom_type_radius_bond
C 0.68
H 0.23
Co 1.26
I 1.40
N 0.68
loop_
_atom_site_label
_atom_site_type_symbol
_atom_site_fract_x
_atom_site_fract_y
_atom_site_fract_z
C1 C -0.0431(4) 0.2144(7) 0.7317(6)
H1 H -0.06740 0.11150 0.68300
H2 H -0.05030 0.21360 0.80590
C2 C -0.1555(3) 0.4076(6) 0.6294(4)
C3 C -0.2015(4) 0.4911(9) 0.5204(6)
H3 H -0.18260 0.51950 0.46490
C4 C -0.2759(4) 0.5334(11) 0.4928(7)
H4 H -0.30680 0.59000 0.41830
C5 C -0.3047(4) 0.4941(9) 0.5717(7)
H5 H -0.35480 0.52470 0.55270
C6 C -0.2601(4) 0.4103(13) 0.6783(7)
H6 H -0.27980 0.38210 0.73270
C7 C -0.1860(4) 0.3656(10) 0.7083(6)
H7 H -0.15620 0.30660 0.78220
N1 N -0.0776(3) 0.3712(6) 0.6582(4)
Co1 Co 0.00000 0.56911(12) 0.75000
I1 I 0.02588(3) 0.75497(5) 0.60142(4)
H8 H -0.072(3) 0.373(8) 0.591(3)
C1A C 0.0431(4) 0.2144(7) 0.7683(6)
H1A H 0.06740 0.11150 0.81700
H2A H 0.05030 0.21360 0.69410
C2A C 0.1555(3) 0.4076(6) 0.8706(4)
C3A C 0.2015(4) 0.4911(9) 0.9796(6)
H3A H 0.18260 0.51950 1.03510
C4A C 0.2759(4) 0.5334(11) 1.0072(7)
H4A H 0.30680 0.59000 1.08170
C5A C 0.3047(4) 0.4941(9) 0.9283(7)
H5A H 0.35480 0.52470 0.94730
C6A C 0.2601(4) 0.4103(13) 0.8217(7)
H6A H 0.27980 0.38210 0.76730
C7A C 0.1860(4) 0.3656(10) 0.7917(6)
H7A H 0.15620 0.30660 0.71780
N1A N 0.0776(3) 0.3712(6) 0.8418(4)
I1A I -0.02588(3) 0.75497(5) 0.89858(4)
H8A H 0.072(3) 0.373(8) 0.909(3)
#END
