
#######################################################################
#
#                 Cambridge Crystallographic Data Centre
#                                CCDC
#
#######################################################################
#
# If this CIF has been generated from an entry in the Cambridge
# Structural Database, then it will include bibliographic, chemical,
# crystal, experimental, refinement or atomic coordinate data resulting
# from the CCDC's data processing and validation procedures.
#
#######################################################################

data_CSD_CIF_DAGMAA
_audit_creation_date 2004-12-02
_audit_creation_method CSD-ConQuest-V1
_database_code_CSD DAGMAA
_database_code_depnum_ccdc_archive 'CCDC 247372'
_chemical_formula_sum 'C14 H10 Cl2 Cr1 N1'
_chemical_formula_moiety
;
C14 H10 Cl2 Cr1 N1
;
_journal_coden_Cambridge 579
_journal_volume 23
_journal_year 2004
_journal_page_first 3832
_journal_name_full 'Organometallics '
loop_
_publ_author_name
"M.Enders"
"G.Kohl"
"H.Pritzkow"
_chemical_name_systematic
;
dichloro-(\h^5^-(8-quinolyl)cyclopentadienyl)-chromium(iii)
;
_cell_volume    627.004
_exptl_crystal_colour 'blue'
_exptl_crystal_density_diffrn 1.669
_exptl_crystal_description 'irregular'
_exptl_crystal_preparation 'dichloromethane'
_diffrn_ambient_temperature 190
#These two values have been output from a single CSD field.
_refine_ls_R_factor_gt 0.0255
_refine_ls_wR_factor_gt 0.0255
_symmetry_cell_setting triclinic
_symmetry_space_group_name_H-M 'P -1'
_symmetry_Int_Tables_number 2
loop_
_symmetry_equiv_pos_site_id
_symmetry_equiv_pos_as_xyz
1 x,y,z
2 -x,-y,-z
_cell_length_a 8.3521(10)
_cell_length_b 9.0356(11)
_cell_length_c 10.1556(12)
_cell_angle_alpha 100.079(2)
_cell_angle_beta 114.016(2)
_cell_angle_gamma 107.594(2)
_cell_formula_units_Z 2
loop_
_atom_type_symbol
_atom_type_radius_bond
C 0.68
H 0.23
Cl 0.99
Cr 1.35
N 0.68
loop_
_atom_site_label
_atom_site_type_symbol
_atom_site_fract_x
_atom_site_fract_y
_atom_site_fract_z
Cr1 Cr 0.96377(3) 0.25983(2) 0.16799(2)
Cl1 Cl 0.78269(5) 0.17503(4) -0.09307(4)
Cl2 Cl 0.75427(4) 0.32709(3) 0.23299(3)
N1 N 0.88009(14) 0.02833(11) 0.18853(11)
C1 C 1.20592(17) 0.12921(14) 0.39096(14)
C2 C 1.01662(16) 0.00095(13) 0.30285(13)
C3 C 0.70185(17) -0.08954(14) 0.10543(14)
C4 C 0.64592(18) -0.24227(14) 0.12775(15)
C5 C 0.77924(19) -0.27126(14) 0.24139(15)
C6 C 0.96976(18) -0.14845(14) 0.33384(14)
C7 C 1.1157(2) -0.16551(16) 0.45714(15)
C8 C 1.2967(2) -0.03962(18) 0.54352(15)
C9 C 1.34232(18) 0.10771(17) 0.50956(15)
C10 C 1.23905(17) 0.27577(15) 0.34130(14)
C11 C 1.2478(2) 0.27292(16) 0.20308(16)
C12 C 1.2355(2) 0.41779(17) 0.17317(18)
C13 C 1.2159(2) 0.50906(15) 0.28915(18)
C14 C 1.22013(18) 0.42266(15) 0.39438(16)
H1 H 0.604(2) -0.067(2) 0.0275(19)
H2 H 0.516(3) -0.322(2) 0.062(2)
H3 H 0.740(3) -0.371(2) 0.256(2)
H4 H 1.087(3) -0.264(2) 0.481(2)
H5 H 1.391(3) -0.051(2) 0.626(2)
H6 H 1.466(3) 0.194(2) 0.567(2)
H7 H 1.252(3) 0.188(2) 0.137(2)
H8 H 1.232(3) 0.445(3) 0.090(2)
H9 H 1.195(3) 0.606(2) 0.291(2)
H10 H 1.204(3) 0.448(2) 0.476(2)
#END
