
#######################################################################
#
#                 Cambridge Crystallographic Data Centre
#                                CCDC
#
#######################################################################
#
# If this CIF has been generated from an entry in the Cambridge
# Structural Database, then it will include bibliographic, chemical,
# crystal, experimental, refinement or atomic coordinate data resulting
# from the CCDC's data processing and validation procedures.
#
#######################################################################

data_CSD_CIF_DAMXUL
_audit_creation_date 2005-04-11
_audit_creation_method CSD-ConQuest-V1
_database_code_CSD DAMXUL
_database_code_depnum_ccdc_archive 'CCDC 260440'
_database_code_depnum_ccdc_journal 1267/1319
_chemical_formula_sum 'C16 H48 Mn1 N8 O14'
_chemical_formula_moiety
;
H12 Mn1 O6 2+,C4 H4 O4 2-,2(C6 H12 N4),4(H2 O1)
;
_journal_coden_Cambridge 1267
_journal_volume 219
_journal_year 2004
_journal_page_first 237
_journal_name_full 'Z.Kristallogr.-New Cryst.Struct. '
loop_
_publ_author_name
"Xiang Ge"
"Jie Sun"
"Yue-Qing Zheng"
_chemical_name_systematic
;
Hexaaqua-manganese(ii) succinate hexamethylenetetramine solvate tetrahydrate
;
_cell_volume    717.700
_exptl_crystal_colour 'colorless'
_exptl_crystal_density_diffrn 1.461
_exptl_crystal_description 'block'
_diffrn_ambient_temperature 293
#These two values have been output from a single CSD field.
_refine_ls_R_factor_gt 0.0275
_refine_ls_wR_factor_gt 0.0275
_symmetry_cell_setting triclinic
_symmetry_space_group_name_H-M 'P -1'
_symmetry_Int_Tables_number 2
loop_
_symmetry_equiv_pos_site_id
_symmetry_equiv_pos_as_xyz
1 x,y,z
2 -x,-y,-z
_cell_length_a 9.3880(19)
_cell_length_b 9.4210(19)
_cell_length_c 9.4490(19)
_cell_angle_alpha 80.88(3)
_cell_angle_beta 78.48(3)
_cell_angle_gamma 61.50(3)
_cell_formula_units_Z 1
loop_
_atom_type_symbol
_atom_type_radius_bond
C 0.68
H 0.23
Mn 1.35
N 0.68
O 0.68
loop_
_atom_site_label
_atom_site_type_symbol
_atom_site_fract_x
_atom_site_fract_y
_atom_site_fract_z
Mn1 Mn 0.00000 0.00000 1.00000
O1 O 0.19527(12) 0.03909(13) 0.86937(12)
O2 O 0.18685(12) -0.17552(12) 1.13619(10)
O3 O 0.06825(12) -0.21310(11) 0.88966(10)
H1 H 0.293(3) -0.031(2) 0.870(2)
H2 H 0.190(3) 0.114(3) 0.811(2)
H3 H 0.219(3) -0.275(3) 1.130(2)
H4 H 0.208(2) -0.167(2) 1.214(2)
H5 H 0.133(3) -0.237(2) 0.808(2)
H6 H -0.005(3) -0.239(2) 0.889(2)
N1 N 0.26205(15) 0.30094(15) 0.37309(12)
N2 N 0.17923(13) 0.29265(13) 0.14625(12)
N3 N 0.46858(13) 0.19107(13) 0.16306(13)
N4 N 0.28361(14) 0.48178(13) 0.16308(12)
C1 C 0.14725(18) 0.27771(19) 0.30532(15)
H7 H 0.15560 0.17120 0.33710
H8 H 0.03630 0.35750 0.33740
C2 C 0.42940(18) 0.17897(18) 0.32190(16)
H9 H 0.50710 0.19340 0.36440
H10 H 0.44050 0.07160 0.35420
C3 C 0.34828(17) 0.17095(16) 0.10021(16)
H11 H 0.37210 0.18020 -0.00460
H12 H 0.35830 0.06350 0.12960
C4 C 0.45021(16) 0.35585(16) 0.11654(15)
H13 H 0.52830 0.37170 0.15700
H14 H 0.47470 0.36630 0.01180
C5 C 0.24818(19) 0.46315(17) 0.32226(14)
H15 H 0.13830 0.54500 0.35430
H16 H 0.32410 0.48010 0.36500
C6 C 0.16798(16) 0.45450(15) 0.09999(14)
H17 H 0.19100 0.46520 -0.00480
H18 H 0.05730 0.53660 0.12920
O4 O 0.28824(13) -0.19110(15) 0.39813(11)
O5 O 0.26637(12) -0.27803(11) 0.63079(10)
C7 C 0.21536(14) -0.17709(15) 0.52584(13)
C8 C 0.05606(14) -0.02365(14) 0.55664(12)
H19 H -0.00080 -0.03940 0.65070
H20 H 0.08080 0.06440 0.56070
O6 O 0.19865(16) 0.28631(16) 0.68308(14)
H21 H 0.220(4) 0.284(3) 0.597(3)
H22 H 0.264(3) 0.315(3) 0.705(3)
O7 O 0.40709(15) 0.39855(15) 0.72269(13)
H23 H 0.492(3) 0.344(3) 0.677(2)
H24 H 0.374(3) 0.490(3) 0.680(2)
O1A O -0.19527(12) -0.03909(13) 1.13063(12)
H1A H -0.293(3) 0.031(2) 1.130(2)
H2A H -0.190(3) -0.114(3) 1.189(2)
O2A O -0.18685(12) 0.17552(12) 0.86381(10)
H3A H -0.219(3) 0.275(3) 0.870(2)
H4A H -0.208(2) 0.167(2) 0.786(2)
O3A O -0.06825(12) 0.21310(11) 1.11034(10)
H5A H -0.133(3) 0.237(2) 1.192(2)
H6A H 0.005(3) 0.239(2) 1.111(2)
C8A C -0.05606(14) 0.02365(14) 0.44336(12)
C7A C -0.21536(14) 0.17709(15) 0.47416(13)
O4A O -0.28824(13) 0.19110(15) 0.60187(11)
O5A O -0.26637(12) 0.27803(11) 0.36921(10)
H19A H 0.00080 0.03940 0.34930
H20A H -0.08080 -0.06440 0.43930
#END
