
#######################################################################
#
#                 Cambridge Crystallographic Data Centre
#                                CCDC
#
#######################################################################
#
# If this CIF has been generated from an entry in the Cambridge
# Structural Database, then it will include bibliographic, chemical,
# crystal, experimental, refinement or atomic coordinate data resulting
# from the CCDC's data processing and validation procedures.
#
#######################################################################

data_CSD_CIF_DAPBUR
_audit_creation_date 2000-02-17
_audit_creation_method CSD-ConQuest-V1
_database_code_CSD DAPBUR
_database_code_depnum_ccdc_archive 'CCDC 134832'
_database_code_depnum_ccdc_journal 186/1562
_chemical_formula_sum 'C6 H8 Mn1 N6 O2'
_chemical_formula_moiety
;
(C6 H8 Mn1 N6 O2)n
;
_journal_coden_Cambridge 186
_journal_year 1999
_journal_page_first 2987
_journal_name_full 'J.Chem.Soc.,Dalton Trans. '
loop_
_publ_author_name
"S.R.Batten"
"P.Jensen"
"C.J.Kepert"
"M.Kurmoo"
"B.Moubaraki"
"K.S.Murray"
"D.J.Price"
_chemical_name_systematic
;
catena(bis(\m~2~-Dicyanamido)-bis(methanol)-manganese)
;
_cell_volume    524.927
_exptl_crystal_colour 'colorless'
_exptl_crystal_density_diffrn 1.589
_exptl_special_details
;
air-sensitive
isomorphous with the iron analogue

;
_exptl_crystal_description 'blocks'
_diffrn_ambient_temperature 150
#These two values have been output from a single CSD field.
_refine_ls_R_factor_gt 0.0237
_refine_ls_wR_factor_gt 0.0237
_symmetry_cell_setting monoclinic
_symmetry_space_group_name_H-M 'C 2/m'
_symmetry_Int_Tables_number 12
loop_
_symmetry_equiv_pos_site_id
_symmetry_equiv_pos_as_xyz
1 x,y,z
2 1/2+x,1/2+y,z
3 x,-y,z
4 1/2+x,1/2-y,z
5 -x,-y,-z
6 -1/2-x,-1/2-y,-z
7 -x,y,-z
8 -1/2-x,-1/2+y,-z
_cell_length_a 12.409(1)
_cell_length_b 7.481(1)
_cell_length_c 6.528(1)
_cell_angle_alpha 90
_cell_angle_beta 119.979(3)
_cell_angle_gamma 90
_cell_formula_units_Z 2
loop_
_atom_type_symbol
_atom_type_radius_bond
C 0.68
H 0.23
Mn 1.35
N 0.68
O 0.68
loop_
_atom_site_label
_atom_site_type_symbol
_atom_site_fract_x
_atom_site_fract_y
_atom_site_fract_z
Mn1 Mn 0.00000 0.00000 0.00000
N1 N 0.05705(13) 0.2117(2) 0.2713(2)
C1 C 0.08663(12) 0.3496(2) 0.3610(2)
N2 N 0.1259(2) 0.50000 0.4792(3)
O1 O -0.18609(15) 0.00000 -0.0473(3)
H1 H -0.2422(34) 0.00000 -0.1819(70)
C2 C -0.2279(3) 0.00000 0.1191(5)
H2 H -0.1611(38) 0.00000 0.2698(79)
H3 H -0.2770(24) -0.1053(37) 0.1051(45)
C1B C 0.08663(12) 0.6504(2) 0.3610(2)
N1B N 0.05705(13) 0.7883(2) 0.2713(2)
Mn1B Mn 0.00000 1.00000 0.00000
N1B* N 0.05705(13) -0.2117(2) 0.2713(2)
N1D N -0.05705(13) -0.2117(2) -0.2713(2)
N1F N -0.05705(13) 0.2117(2) -0.2713(2)
O1D O 0.18609(15) 0.00000 0.0473(3)
H3B H -0.2770(24) 0.1053(37) 0.1051(45)
C1B* C 0.08663(12) -0.3496(2) 0.3610(2)
H1D H 0.2422(34) 0.00000 0.1819(70)
C2D C 0.2279(3) 0.00000 -0.1191(5)
N2* N 0.1259(2) -0.50000 0.4792(3)
H2D H 0.1611(38) 0.00000 -0.2698(79)
H3D H 0.2770(24) 0.1053(37) -0.1051(45)
H3F H 0.2770(24) -0.1053(37) -0.1051(45)
C1* C 0.08663(12) -0.6504(2) 0.3610(2)
N1* N 0.05705(13) -0.7883(2) 0.2713(2)
Mn1* Mn 0.00000 -1.00000 0.00000
#END
