
#######################################################################
#
#                 Cambridge Crystallographic Data Centre
#                                CCDC
#
#######################################################################
#
# If this CIF has been generated from an entry in the Cambridge
# Structural Database, then it will include bibliographic, chemical,
# crystal, experimental, refinement or atomic coordinate data resulting
# from the CCDC's data processing and validation procedures.
#
#######################################################################

data_CSD_CIF_DAPCOM
_audit_creation_date 2000-02-17
_audit_creation_method CSD-ConQuest-V1
_database_code_CSD DAPCOM
_database_code_depnum_ccdc_archive 'CCDC 134833'
_database_code_depnum_ccdc_journal 186/1562
_chemical_formula_sum 'C6 H8 Fe1 N6 O2'
_chemical_formula_moiety
;
(C6 H8 Fe1 N6 O2)n
;
_journal_coden_Cambridge 186
_journal_year 1999
_journal_page_first 2987
_journal_name_full 'J.Chem.Soc.,Dalton Trans. '
loop_
_publ_author_name
"S.R.Batten"
"P.Jensen"
"C.J.Kepert"
"M.Kurmoo"
"B.Moubaraki"
"K.S.Murray"
"D.J.Price"
_chemical_name_systematic
;
catena(bis(\m~2~-Dicyanamido)-bis(methanol)-iron)
;
_cell_volume    505.027
_exptl_crystal_colour 'colorless'
_exptl_crystal_density_diffrn 1.657
_exptl_special_details
;
isomorphous with the manganese analogue

;
_exptl_crystal_description 'prismatic'
_diffrn_ambient_temperature 123
#These two values have been output from a single CSD field.
_refine_ls_R_factor_gt 0.0424
_refine_ls_wR_factor_gt 0.0424
loop_
_citation_database_id_CSD
_citation_special_details
DAPCOM01 "is reinterpreted by this entry"
_symmetry_cell_setting monoclinic
_symmetry_space_group_name_H-M 'C 2/m'
_symmetry_Int_Tables_number 12
loop_
_symmetry_equiv_pos_site_id
_symmetry_equiv_pos_as_xyz
1 x,y,z
2 1/2+x,1/2+y,z
3 x,-y,z
4 1/2+x,1/2-y,z
5 -x,-y,-z
6 -1/2-x,-1/2-y,-z
7 -x,y,-z
8 -1/2-x,-1/2+y,-z
_cell_length_a 12.2247(7)
_cell_length_b 7.3921(5)
_cell_length_c 6.4610(4)
_cell_angle_alpha 90
_cell_angle_beta 120.119(1)
_cell_angle_gamma 90
_cell_formula_units_Z 2
loop_
_atom_type_symbol
_atom_type_radius_bond
C 0.68
H 0.23
Fe 1.34
N 0.68
O 0.68
loop_
_atom_site_label
_atom_site_type_symbol
_atom_site_fract_x
_atom_site_fract_y
_atom_site_fract_z
Fe1 Fe 0.00000 0.00000 0.00000
O1 O -0.1820(3) 0.00000 -0.0475(5)
N1 N 0.0545(2) -0.7902(3) 0.2642(4)
N2 N 0.1269(3) -0.50000 0.4787(5)
C1 C 0.0855(2) -0.6520(3) 0.3573(4)
C2 C -0.2244(4) 0.00000 0.1218(8)
H1 H -0.153(5) 0.00000 0.287(10)
H2 H -0.276(3) -0.094(5) 0.101(6)
H3 H -0.241(5) 0.00000 -0.177(9)
C1B C 0.0855(2) -0.3480(3) 0.3573(4)
N1B N 0.0545(2) -0.2098(3) 0.2642(4)
Fe1* Fe 0.00000 -1.00000 0.00000
O1D O 0.1820(3) 0.00000 0.0475(5)
N1* N 0.0545(2) 0.2098(3) 0.2642(4)
N1F N -0.0545(2) 0.2098(3) -0.2642(4)
Fe1** Fe 0.00000 1.00000 0.00000
N1B* N 0.0545(2) 0.7902(3) 0.2642(4)
N1D N -0.0545(2) -0.2098(3) -0.2642(4)
C2D C 0.2244(4) 0.00000 -0.1218(8)
H3D H 0.241(5) 0.00000 0.177(9)
C1* C 0.0855(2) 0.3480(3) 0.3573(4)
C1B* C 0.0855(2) 0.6520(3) 0.3573(4)
H2B H -0.276(3) 0.094(5) 0.101(6)
H1D H 0.153(5) 0.00000 -0.287(10)
H2D H 0.276(3) 0.094(5) -0.101(6)
H2F H 0.276(3) -0.094(5) -0.101(6)
N2* N 0.1269(3) 0.50000 0.4787(5)
#END
