
#######################################################################
#
#                 Cambridge Crystallographic Data Centre
#                                CCDC
#
#######################################################################
#
# If this CIF has been generated from an entry in the Cambridge
# Structural Database, then it will include bibliographic, chemical,
# crystal, experimental, refinement or atomic coordinate data resulting
# from the CCDC's data processing and validation procedures.
#
#######################################################################

data_CSD_CIF_DAQSUM
_audit_creation_date 2017-05-17
_audit_creation_method CSD-ConQuest-V1
_database_code_CSD DAQSUM
_database_code_depnum_ccdc_archive 'CCDC 1510832'
_chemical_formula_sum 'C6 H11 Fe1 N2 O7'
_chemical_formula_moiety
;
C6 H11 Fe1 N2 O7
;
_journal_coden_Cambridge 1290
_journal_year 2017
_journal_page_first 2303
_journal_name_full 'Eur.J.Inorg.Chem. '
loop_
_publ_author_name
"M.Wolf"
"P.Klufers"
_chemical_name_systematic
;
(2,2'[(2-hydroxyethyl)azanediyl]diacetato)-nitrosyl-iron(ii)
;
_cell_volume   1010.044
_exptl_crystal_colour 'green'
_exptl_crystal_density_diffrn 1.835
_exptl_crystal_description 'platelet'
_diffrn_ambient_temperature 173
_diffrn_special_details
;
twin

;
#These two values have been output from a single CSD field.
_refine_ls_R_factor_gt 0.0356
_refine_ls_wR_factor_gt 0.0356
_symmetry_cell_setting monoclinic
_symmetry_space_group_name_H-M 'C c'
_symmetry_Int_Tables_number 9
loop_
_symmetry_equiv_pos_site_id
_symmetry_equiv_pos_as_xyz
1 x,y,z
2 x,-y,1/2+z
3 1/2+x,1/2+y,z
4 1/2+x,1/2-y,1/2+z
_cell_length_a 7.0472(2)
_cell_length_b 21.7450(8)
_cell_length_c 6.7771(3)
_cell_angle_alpha 90
_cell_angle_beta 103.451(2)
_cell_angle_gamma 90
_cell_formula_units_Z 4
loop_
_atom_type_symbol
_atom_type_radius_bond
C 0.68
H 0.23
Fe 1.52
N 0.68
O 0.68
loop_
_atom_site_label
_atom_site_type_symbol
_atom_site_fract_x
_atom_site_fract_y
_atom_site_fract_z
Fe1 Fe 0.04453(5) 0.35767(2) 0.10655(5)
N1 N -0.1555(5) 0.35288(14) -0.1041(5)
O1 O -0.2951(6) 0.3526(3) -0.2200(7)
N2 N 0.2706(4) 0.37793(14) 0.3874(4)
C1 C 0.2704(5) 0.32700(16) 0.5301(5)
H1 H 0.30310 0.34290 0.67080
H2 H 0.37110 0.29650 0.51690
C2 C 0.0708(5) 0.29580(15) 0.4877(5)
O2 O -0.0431(3) 0.30329(11) 0.3170(4)
O3 O 0.0335(4) 0.26345(11) 0.6265(4)
C3 C 0.4535(5) 0.38612(17) 0.3214(5)
H3 H 0.51650 0.34570 0.31590
H4 H 0.54400 0.41230 0.42030
C4 C 0.4119(5) 0.41617(15) 0.1125(5)
O4 O 0.2379(4) 0.41259(12) 0.0032(4)
O5 O 0.5476(4) 0.44195(13) 0.0587(4)
C5 C 0.2140(5) 0.43719(16) 0.4665(6)
H5 H 0.26280 0.47160 0.39650
H6 H 0.27560 0.44040 0.61310
C6 C -0.0041(6) 0.44253(17) 0.4351(6)
H7 H -0.05380 0.41140 0.51700
H8 H -0.04020 0.48390 0.47530
O6 O -0.0834(4) 0.43241(13) 0.2233(4)
H9 H -0.20520 0.43640 0.19760
O7 O 0.1770(4) 0.27973(12) 0.0205(4)
H10 H 0.142(6) 0.275(2) -0.103(5)
H11 H 0.286(5) 0.264(2) 0.064(6)
#END
