
#######################################################################
#
#                 Cambridge Crystallographic Data Centre
#                                CCDC
#
#######################################################################
#
# If this CIF has been generated from an entry in the Cambridge
# Structural Database, then it will include bibliographic, chemical,
# crystal, experimental, refinement or atomic coordinate data resulting
# from the CCDC's data processing and validation procedures.
#
#######################################################################

data_CSD_CIF_DAQTOH
_audit_creation_date 2017-05-17
_audit_creation_method CSD-ConQuest-V1
_database_code_CSD DAQTOH
_database_code_depnum_ccdc_archive 'CCDC 1510836'
_chemical_formula_sum 'C4 H8 Fe1 N1 O8'
_chemical_formula_moiety
;
C4 H8 Fe1 N1 O8
;
_journal_coden_Cambridge 1290
_journal_year 2017
_journal_page_first 2303
_journal_name_full 'Eur.J.Inorg.Chem. '
loop_
_publ_author_name
"M.Wolf"
"P.Klufers"
_chemical_name_systematic
;
(2,2'-oxydiacetato)-nitrosyl-diaqua-iron
;
_cell_volume    857.280
_exptl_crystal_colour 'black'
_exptl_crystal_density_diffrn 1.968
_exptl_crystal_description 'block'
_diffrn_ambient_temperature 100
_diffrn_special_details
;
twin

;
_refine_special_details
;
O1 disordered by symmetry over two configurations with occupancy 0.5.

;
#These two values have been output from a single CSD field.
_refine_ls_R_factor_gt 0.0137
_refine_ls_wR_factor_gt 0.0137
_symmetry_cell_setting orthorhombic
_symmetry_space_group_name_H-M 'A b a 2'
_symmetry_Int_Tables_number 41
loop_
_symmetry_equiv_pos_site_id
_symmetry_equiv_pos_as_xyz
1 x,y,z
2 -x,-y,z
3 1/2-x,y,1/2+z
4 1/2+x,-y,1/2+z
5 x,1/2+y,1/2+z
6 -x,1/2-y,1/2+z
7 1/2-x,1/2+y,z
8 1/2+x,1/2-y,z
_cell_length_a 8.8713(8)
_cell_length_b 10.8750(7)
_cell_length_c 8.8860(6)
_cell_angle_alpha 90
_cell_angle_beta 90
_cell_angle_gamma 90
_cell_formula_units_Z 4
loop_
_atom_type_symbol
_atom_type_radius_bond
C 0.68
H 0.23
Fe 1.52
N 0.68
O 0.68
loop_
_atom_site_label
_atom_site_type_symbol
_atom_site_fract_x
_atom_site_fract_y
_atom_site_fract_z
Fe1 Fe 0.50000 0.50000 0.33239(8)
N1 N 0.50000 0.50000 0.1333(4)
O1 O 0.5261(9) 0.4819(8) 0.0090(4)
O2 O 0.50000 0.50000 0.5713(4)
C1 C 0.56943(18) 0.40249(15) 0.65161(19)
H1 H 0.49350 0.35570 0.70990
H2 H 0.64640 0.43480 0.72190
C2 C 0.64211(18) 0.32097(15) 0.5328(2)
O3 O 0.62710(14) 0.34937(11) 0.39554(16)
O4 O 0.71386(14) 0.22944(10) 0.57849(19)
O5 O 0.30576(13) 0.3937(1) 0.33847(18)
H3 H 0.298(3) 0.349(2) 0.266(2)
H4 H 0.279(3) 0.354(2) 0.412(2)
O1A O 0.4739(9) 0.5181(8) 0.0090(4)
C1A C 0.43057(18) 0.59751(15) 0.65161(19)
H1A H 0.50650 0.64430 0.70990
H2A H 0.35360 0.56520 0.72190
C2A C 0.35789(18) 0.67903(15) 0.5328(2)
O3A O 0.37290(14) 0.65063(11) 0.39554(16)
O4A O 0.28614(14) 0.77056(10) 0.57849(19)
O5A O 0.69424(13) 0.6063(1) 0.33847(18)
H3A H 0.702(3) 0.651(2) 0.266(2)
H4A H 0.721(3) 0.646(2) 0.412(2)
#END
