
#######################################################################
#
#                 Cambridge Crystallographic Data Centre
#                                CCDC
#
#######################################################################
#
# If this CIF has been generated from an entry in the Cambridge
# Structural Database, then it will include bibliographic, chemical,
# crystal, experimental, refinement or atomic coordinate data resulting
# from the CCDC's data processing and validation procedures.
#
#######################################################################

data_CSD_CIF_DAQTUN
_audit_creation_date 2017-05-17
_audit_creation_method CSD-ConQuest-V1
_database_code_CSD DAQTUN
_database_code_depnum_ccdc_archive 'CCDC 1510837'
_chemical_formula_sum 'C11 H14 Br1 Fe1 N2 O7'
_chemical_formula_moiety
;
C11 H14 Br1 Fe1 N2 O7
;
_journal_coden_Cambridge 1290
_journal_year 2017
_journal_page_first 2303
_journal_name_full 'Eur.J.Inorg.Chem. '
loop_
_publ_author_name
"M.Wolf"
"P.Klufers"
_chemical_name_systematic
;
(2,2'-[(4-bromophenyl)azanediyl]diacetato)-nitrosyl-diaqua-iron
;
_cell_volume    790.322
_exptl_crystal_colour 'brown'
_exptl_crystal_density_diffrn 1.773
_exptl_special_details
;
Absolute configuration

;
_exptl_crystal_description 'Platelet'
_diffrn_ambient_temperature 173
_diffrn_special_details
;
twin

;
#These two values have been output from a single CSD field.
_refine_ls_R_factor_gt 0.0301
_refine_ls_wR_factor_gt 0.0301
_symmetry_cell_setting monoclinic
_symmetry_space_group_name_H-M 'P 21'
_symmetry_Int_Tables_number 4
loop_
_symmetry_equiv_pos_site_id
_symmetry_equiv_pos_as_xyz
1 x,y,z
2 -x,1/2+y,-z
_cell_length_a 7.1492(5)
_cell_length_b 7.4128(5)
_cell_length_c 14.9927(9)
_cell_angle_alpha 90
_cell_angle_beta 95.911(2)
_cell_angle_gamma 90
_cell_formula_units_Z 2
loop_
_atom_type_symbol
_atom_type_radius_bond
C 0.68
H 0.23
Br 1.21
Fe 1.52
N 0.68
O 0.68
loop_
_atom_site_label
_atom_site_type_symbol
_atom_site_fract_x
_atom_site_fract_y
_atom_site_fract_z
Fe1 Fe 0.2441(1) 0.31317(12) 0.44475(4)
N1 N 0.2532(7) 0.2883(7) 0.5644(3)
O1 O 0.2512(12) 0.2196(9) 0.6289(3)
N2 N 0.2073(6) 0.2999(7) 0.2886(2)
C1 C 0.0041(6) 0.3280(12) 0.2663(3)
H1 H -0.03620 0.26640 0.20890
H2 H -0.02020 0.45860 0.25760
C2 C -0.1143(7) 0.2578(8) 0.3384(3)
O2 O -0.0352(5) 0.2481(5) 0.4184(2)
O3 O -0.2822(6) 0.2258(7) 0.3166(3)
C3 C 0.2650(8) 0.1143(6) 0.2668(3)
H3 H 0.39150 0.11930 0.24570
H4 H 0.17680 0.06790 0.21680
C4 C 0.2699(8) -0.0158(7) 0.3436(3)
O4 O 0.2980(6) 0.0476(5) 0.4235(2)
O5 O 0.2613(9) -0.1762(7) 0.3254(2)
C5 C 0.3136(9) 0.4375(7) 0.2410(3)
H5 H 0.44790 0.43170 0.26490
H6 H 0.26650 0.55890 0.25490
C6 C 0.2992(7) 0.4153(7) 0.1397(3)
C7 C 0.1541(10) 0.4931(8) 0.0849(4)
H7 H 0.06400 0.56480 0.11100
C8 C 0.1367(10) 0.4687(10) -0.0084(4)
H8 H 0.03500 0.52090 -0.04530
C9 C 0.2718(10) 0.3664(9) -0.0452(3)
Br1 Br 0.25372(11) 0.33162(13) -0.17137(4)
C10 C 0.4216(9) 0.2935(9) 0.0075(4)
H9 H 0.51540 0.22780 -0.01920
C11 C 0.4354(7) 0.3163(10) 0.1002(3)
H10 H 0.53780 0.26430 0.13680
O6 O 0.1760(8) 0.5836(5) 0.4400(3)
H11 H 0.197(10) 0.670(6) 0.413(3)
H12 H 0.151(10) 0.622(8) 0.486(3)
O7 O 0.5200(5) 0.3785(7) 0.4377(3)
H13 H 0.583(7) 0.332(11) 0.406(3)
H14 H 0.586(7) 0.405(10) 0.480(3)
#END
