
#######################################################################
#
#                 Cambridge Crystallographic Data Centre
#                                CCDC
#
#######################################################################
#
# If this CIF has been generated from an entry in the Cambridge
# Structural Database, then it will include bibliographic, chemical,
# crystal, experimental, refinement or atomic coordinate data resulting
# from the CCDC's data processing and validation procedures.
#
#######################################################################

data_CSD_CIF_DAQTAT
_audit_creation_date 2017-05-17
_audit_creation_method CSD-ConQuest-V1
_database_code_CSD DAQTAT
_database_code_depnum_ccdc_archive 'CCDC 1510833'
_chemical_formula_sum 'C4 H9 Fe1 N2 O7'
_chemical_formula_moiety
;
C4 H9 Fe1 N2 O7
;
_journal_coden_Cambridge 1290
_journal_year 2017
_journal_page_first 2303
_journal_name_full 'Eur.J.Inorg.Chem. '
loop_
_publ_author_name
"M.Wolf"
"P.Klufers"
_chemical_name_systematic
;
(2,2'-azanediyldiacetato)-nitrosyl-diaqua-iron
;
_cell_volume    889.425
_exptl_crystal_colour 'black'
_exptl_crystal_density_diffrn 1.889
_exptl_crystal_description 'rod'
_diffrn_ambient_temperature 173
#These two values have been output from a single CSD field.
_refine_ls_R_factor_gt 0.0247
_refine_ls_wR_factor_gt 0.0247
_symmetry_cell_setting orthorhombic
_symmetry_space_group_name_H-M 'C m c 21'
_symmetry_Int_Tables_number 36
loop_
_symmetry_equiv_pos_site_id
_symmetry_equiv_pos_as_xyz
1 x,y,z
2 -x,-y,1/2+z
3 -x,y,z
4 x,-y,1/2+z
5 1/2+x,1/2+y,z
6 1/2-x,1/2-y,1/2+z
7 1/2-x,1/2+y,z
8 1/2+x,1/2-y,1/2+z
_cell_length_a 11.2905(7)
_cell_length_b 9.0840(5)
_cell_length_c 8.6720(4)
_cell_angle_alpha 90
_cell_angle_beta 90
_cell_angle_gamma 90
_cell_formula_units_Z 4
loop_
_atom_type_symbol
_atom_type_radius_bond
C 0.68
H 0.23
Fe 1.52
N 0.68
O 0.68
loop_
_atom_site_label
_atom_site_type_symbol
_atom_site_fract_x
_atom_site_fract_y
_atom_site_fract_z
Fe1 Fe 0.50000 0.28045(6) 0.00731(2)
N1 N 0.50000 0.2357(5) -0.1928(5)
O1 O 0.50000 0.1605(8) -0.2940(6)
N2 N 0.50000 0.2862(4) 0.2689(5)
H1 H 0.50000 0.38350 0.30220
C1 C 0.6096(3) 0.2128(4) 0.3197(4)
H2 H 0.59070 0.14670 0.40700
H3 H 0.66550 0.28850 0.35780
C2 C 0.6701(3) 0.1241(4) 0.1948(4)
O2 O 0.6298(2) 0.1301(3) 0.0578(3)
O3 O 0.7587(2) 0.0503(3) 0.2321(3)
O4 O 0.6249(2) 0.4458(3) -0.0043(4)
H4 H 0.666(4) 0.471(6) 0.063(5)
H5 H 0.669(4) 0.438(5) -0.072(5)
C1B C 0.3904(3) 0.2128(4) 0.3197(4)
H2B H 0.40930 0.14670 0.40700
H3B H 0.33450 0.28850 0.35780
C2B C 0.3299(3) 0.1241(4) 0.1948(4)
O2B O 0.3702(2) 0.1301(3) 0.0578(3)
O3B O 0.2413(2) 0.0503(3) 0.2321(3)
O4B O 0.3751(2) 0.4458(3) -0.0043(4)
H4B H 0.334(4) 0.471(6) 0.063(5)
H5B H 0.331(4) 0.438(5) -0.072(5)
#END
