
#######################################################################
#
#                 Cambridge Crystallographic Data Centre
#                                CCDC
#
#######################################################################
#
# If this CIF has been generated from an entry in the Cambridge
# Structural Database, then it will include bibliographic, chemical,
# crystal, experimental, refinement or atomic coordinate data resulting
# from the CCDC's data processing and validation procedures.
#
#######################################################################

data_CSD_CIF_DEGWES
_audit_creation_date 2006-09-26
_audit_creation_method CSD-ConQuest-V1
_database_code_CSD DEGWES
_database_code_depnum_ccdc_archive 'CCDC 612730'
_chemical_formula_sum 'C38 H67 Cr1 Mg1 N4 Na1'
_chemical_formula_moiety
;
C38 H67 Cr1 Mg1 N4 Na1
;
_journal_coden_Cambridge 579
_journal_volume 25
_journal_year 2006
_journal_page_first 2415
_journal_name_full 'Organometallics '
loop_
_publ_author_name
"P.C.Andrikopoulos"
"D.R.Armstrong"
"E.Hevia"
"A.R.Kennedy"
"R.E.Mulvey"
_chemical_name_systematic
;
(\m~3~-\h^2^,\h^6^-toluene)-(\m~2~-2,2,6,6-tetramethylpiperidyl)-(2,2,6,6-tetr
amethylpiperidyl)-(\h^6^-toluene)-chromium-magnesium-sodium
;
_cell_volume    965.825
_exptl_crystal_colour 'orange'
_exptl_crystal_density_diffrn 1.168
_exptl_crystal_description 'triangular plate'
_diffrn_ambient_temperature 123
#These two values have been output from a single CSD field.
_refine_ls_R_factor_gt 0.064
_refine_ls_wR_factor_gt 0.064
_symmetry_cell_setting triclinic
_symmetry_space_group_name_H-M 'P 1'
_symmetry_Int_Tables_number 1
loop_
_symmetry_equiv_pos_site_id
_symmetry_equiv_pos_as_xyz
1 x,y,z
_cell_length_a 8.4126(5)
_cell_length_b 11.0513(7)
_cell_length_c 11.2962(8)
_cell_angle_alpha 74.006(3)
_cell_angle_beta 73.075(3)
_cell_angle_gamma 85.554(3)
_cell_formula_units_Z 1
loop_
_atom_type_symbol
_atom_type_radius_bond
C 0.68
H 0.23
Cr 1.35
Mg 1.11
N 0.68
Na 1.77
loop_
_atom_site_label
_atom_site_type_symbol
_atom_site_fract_x
_atom_site_fract_y
_atom_site_fract_z
Cr1 Cr 0.76429(9) 0.02184(8) -0.00279(8)
Mg1 Mg 1.0734(2) -0.27224(16) -0.05549(16)
Na1 Na 1.1892(2) -0.06127(19) -0.33032(19)
N1 N 1.0087(5) -0.3917(4) 0.1201(4)
N2 N 1.2334(5) -0.2887(4) -0.2301(4)
N3 N 1.1407(6) 0.0456(4) -0.5489(4)
N4 N 1.3687(5) 0.1304(4) -0.4175(5)
C1 C 0.8524(7) 0.1765(5) -0.1709(6)
C2 C 0.7974(8) 0.0806(6) -0.2059(6)
H1 H 0.71830 0.09690 -0.25360
C3 C 0.8622(7) -0.0456(6) -0.1686(5)
H2 H 0.82230 -0.11020 -0.19330
C4 C 0.9811(7) -0.0794(5) -0.0979(5)
C5 C 1.0287(7) 0.0235(6) -0.0639(6)
H3 H 1.10720 0.00800 -0.01570
C6 C 0.9675(7) 0.1494(6) -0.0967(6)
H4 H 1.00340 0.21370 -0.06920
C7 C 0.7918(8) 0.3108(6) -0.2138(7)
H5 H 0.86690 0.35410 -0.29660
H6 H 0.78990 0.35580 -0.14980
H7 H 0.67950 0.30880 -0.22240
C8 C 0.5353(7) 0.1029(6) 0.0834(6)
C9 C 0.6496(8) 0.0984(6) 0.1558(6)
H8 H 0.67310 0.17220 0.17540
C10 C 0.7283(8) -0.0170(6) 0.1985(6)
H9 H 0.80520 -0.02100 0.24660
C11 C 0.6916(7) -0.1253(6) 0.1691(5)
H10 H 0.74480 -0.20260 0.19680
C12 C 0.5781(8) -0.1202(6) 0.0999(6)
H11 H 0.55290 -0.19410 0.08140
C13 C 0.5002(7) -0.0055(6) 0.0571(6)
H12 H 0.42280 -0.00270 0.00960
C14 C 0.4474(8) 0.2268(7) 0.0382(7)
H13 H 0.43080 0.23170 -0.04530
H14 H 0.51600 0.29800 0.03030
H15 H 0.33950 0.22980 0.10080
C15 C 1.0843(7) -0.3864(6) 0.2219(5)
C16 C 0.9583(8) -0.4137(6) 0.3552(5)
H16 H 1.01790 -0.42110 0.42060
H17 H 0.88030 -0.34210 0.35910
C17 C 0.8609(8) -0.5327(6) 0.3866(6)
H18 H 0.77720 -0.54430 0.47120
H19 H 0.93650 -0.60600 0.39090
C18 C 0.7750(7) -0.5240(6) 0.2838(6)
H20 H 0.69110 -0.45600 0.28650
H21 H 0.71610 -0.60410 0.30200
C19 C 0.8979(7) -0.4971(5) 0.1486(5)
C20 C 1.2379(8) -0.4724(6) 0.2276(6)
H22 H 1.20260 -0.56070 0.25760
H23 H 1.29140 -0.45380 0.28700
H24 H 1.31670 -0.45690 0.14180
C21 C 1.1465(8) -0.2510(6) 0.1891(6)
H25 H 1.23210 -0.23210 0.10640
H26 H 1.19360 -0.24200 0.25600
H27 H 1.05360 -0.19250 0.18410
C22 C 0.9896(8) -0.6237(5) 0.1325(6)
H28 H 1.07170 -0.60850 0.04810
H29 H 0.90840 -0.68620 0.13970
H30 H 1.04600 -0.65520 0.19970
C23 C 0.7960(7) -0.4633(6) 0.0517(6)
H31 H 0.73380 -0.38570 0.05930
H32 H 0.71820 -0.53180 0.06930
H33 H 0.87070 -0.45060 -0.03540
C24 C 1.1861(7) -0.3539(5) -0.3118(5)
C25 C 1.3025(7) -0.3220(6) -0.4503(6)
H34 H 1.27130 -0.37430 -0.49850
H35 H 1.28730 -0.23260 -0.49330
C26 C 1.4833(7) -0.3443(6) -0.4541(6)
H36 H 1.55440 -0.31760 -0.54380
H37 H 1.50260 -0.43500 -0.41920
C27 C 1.5266(7) -0.2682(6) -0.3735(6)
H38 H 1.51830 -0.17740 -0.41490
H39 H 1.64310 -0.28580 -0.37140
C28 C 1.4127(7) -0.2981(6) -0.2349(6)
C29 C 1.0102(7) -0.3069(6) -0.3216(6)
H40 H 0.93180 -0.32520 -0.23550
H41 H 0.97400 -0.34980 -0.37450
H42 H 1.01390 -0.21590 -0.36090
C30 C 1.1717(8) -0.4986(6) -0.2615(7)
H43 H 1.28310 -0.53530 -0.27050
H44 H 1.11540 -0.53090 -0.31130
H45 H 1.10760 -0.52150 -0.17090
C31 C 1.4464(7) -0.2006(7) -0.1722(6)
H46 H 1.41220 -0.11730 -0.21520
H47 H 1.56530 -0.19940 -0.17970
H48 H 1.38320 -0.22260 -0.08130
C32 C 1.4628(9) -0.4283(7) -0.1584(7)
H49 H 1.37540 -0.45800 -0.07780
H50 H 1.56740 -0.41980 -0.13960
H51 H 1.47700 -0.48900 -0.20960
C33 C 1.1677(8) -0.0231(6) -0.6459(6)
H52 H 1.09740 -0.09860 -0.61130
H53 H 1.28470 -0.04780 -0.67010
H54 H 1.13930 0.03070 -0.72170
C34 C 0.9668(8) 0.0872(7) -0.5178(6)
H55 H 0.94410 0.14300 -0.59510
H56 H 0.94710 0.13270 -0.45160
H57 H 0.89310 0.01370 -0.48590
C35 C 1.2581(9) 0.1549(6) -0.6013(6)
H58 H 1.36700 0.12630 -0.64750
H59 H 1.21630 0.21980 -0.66510
C36 C 1.2846(8) 0.2143(6) -0.5072(6)
H60 H 1.17580 0.23970 -0.45750
H61 H 1.35240 0.29140 -0.55340
C37 C 1.5391(7) 0.1063(6) -0.4814(6)
H62 H 1.54120 0.05780 -0.54260
H63 H 1.59410 0.05830 -0.41770
H64 H 1.59740 0.18640 -0.52740
C38 C 1.3682(8) 0.1948(6) -0.3191(6)
H65 H 1.41930 0.14020 -0.25580
H66 H 1.25350 0.21340 -0.27620
H67 H 1.43150 0.27340 -0.35990
#END
