
#######################################################################
#
#                 Cambridge Crystallographic Data Centre
#                                CCDC
#
#######################################################################
#
# If this CIF has been generated from an entry in the Cambridge
# Structural Database, then it will include bibliographic, chemical,
# crystal, experimental, refinement or atomic coordinate data resulting
# from the CCDC's data processing and validation procedures.
#
#######################################################################

data_CSD_CIF_DETCEN
_audit_creation_date 2018-02-08
_audit_creation_method CSD-ConQuest-V1
_database_code_CSD DETCEN
_database_code_depnum_ccdc_archive 'CCDC 1588539'
_chemical_formula_sum 'C32 H33 Co1 I2 N6 O8'
_chemical_formula_moiety
;
C18 H24 Co1 N6 O4 1+,C7 H5 I1 O2,C7 H4 I1 O2 1-
;
_journal_coden_Cambridge 579
_journal_volume 37
_journal_year 2018
_journal_page_first 570
_journal_name_full 'Organometallics '
loop_
_publ_author_name
"Phil Liebing"
"F.Oehler"
"M.Wagner"
"P.F.Tripet"
"A.Togni"
_chemical_name_systematic
;
bis(N^2^-hydroxy-N^3^-oxidobutane-2,3-diimine)-bis(pyridine)-cobalt(iii) 
2-iodobenzoic acid 2-iodobenzoate
;
_cell_volume    865.042
_exptl_crystal_colour 'orange'
_exptl_crystal_density_diffrn 1.809
_exptl_crystal_description 'plate'
_diffrn_ambient_temperature 100
#These two values have been output from a single CSD field.
_refine_ls_R_factor_gt 0.0265
_refine_ls_wR_factor_gt 0.0265
_symmetry_cell_setting triclinic
_symmetry_space_group_name_H-M 'P -1'
_symmetry_Int_Tables_number 2
loop_
_symmetry_equiv_pos_site_id
_symmetry_equiv_pos_as_xyz
1 x,y,z
2 -x,-y,-z
_cell_length_a 7.3734(2)
_cell_length_b 11.2053(3)
_cell_length_c 11.9880(4)
_cell_angle_alpha 106.387(2)
_cell_angle_beta 99.638(2)
_cell_angle_gamma 108.412(2)
_cell_formula_units_Z 1
loop_
_atom_type_symbol
_atom_type_radius_bond
C 0.68
H 0.23
Co 1.26
I 1.40
N 0.68
O 0.68
loop_
_atom_site_label
_atom_site_type_symbol
_atom_site_fract_x
_atom_site_fract_y
_atom_site_fract_z
C1 C 0.6389(4) 0.2726(2) 0.5592(2)
C2 C 0.4228(4) 0.2239(2) 0.5070(2)
C3 C 0.7758(4) 0.4163(3) 0.6046(3)
H1 H 0.72230 0.47100 0.65830
H2 H 0.78830 0.44620 0.53590
H3 H 0.90700 0.42660 0.64950
C4 C 0.3115(4) 0.3106(3) 0.4899(2)
H4 H 0.39440 0.40480 0.54000
H5 H 0.18870 0.28260 0.51390
H6 H 0.27830 0.30150 0.40440
C5 C 0.6233(3) 0.0675(2) 0.7602(2)
H7 H 0.75250 0.08430 0.74930
C6 C 0.6030(4) 0.0896(2) 0.8758(2)
H8 H 0.71640 0.12140 0.94320
C7 C 0.4147(4) 0.0649(2) 0.8922(2)
H9 H 0.39740 0.08130 0.97110
C8 C 0.2522(4) 0.0160(2) 0.7916(2)
H10 H 0.12130 -0.00350 0.80020
C9 C 0.2834(3) -0.0039(2) 0.6787(2)
H11 H 0.17170 -0.03780 0.60980
N1 N 0.6995(3) 0.1764(2) 0.56126(18)
N2 N 0.3355(3) 0.0944(2) 0.47421(18)
N3 N 0.4670(3) 0.02297(19) 0.66239(18)
O1 O 0.8925(2) 0.20145(18) 0.60519(16)
H12 H 0.888(5) 0.093(3) 0.598(3)
O2 O 0.1384(2) 0.03216(18) 0.42365(16)
Co1 Co 0.50000 0.00000 0.50000
C10 C 0.3021(4) 0.3374(3) 0.1252(2)
C11 C 0.5053(4) 0.4064(3) 0.1817(2)
C12 C 0.6012(4) 0.5396(3) 0.1927(3)
H13 H 0.74060 0.58480 0.23000
C13 C 0.4934(5) 0.6057(3) 0.1493(3)
H14 H 0.55780 0.69760 0.15920
C14 C 0.2916(5) 0.5383(3) 0.0914(3)
H15 H 0.21750 0.58320 0.06020
C15 C 0.1983(5) 0.4050(3) 0.0791(3)
H16 H 0.06020 0.35870 0.03810
C16 C 0.1887(4) 0.1946(2) 0.1153(2)
O3 O 0.0634(3) 0.11944(18) 0.01090(17)
O4 O 0.2199(3) 0.1594(2) 0.20188(18)
I1 I 0.68548(3) 0.31146(2) 0.24197(2)
H17? H 0.00000 0.00000 0.00000
C1A C 0.3611(4) -0.2726(2) 0.4408(2)
C2A C 0.5772(4) -0.2239(2) 0.4930(2)
C3A C 0.2242(4) -0.4163(3) 0.3954(3)
H1A H 0.27770 -0.47100 0.34170
H2A H 0.21170 -0.44620 0.46410
H3A H 0.09300 -0.42660 0.35050
C4A C 0.6885(4) -0.3106(3) 0.5101(2)
H4A H 0.60560 -0.40480 0.46000
H5A H 0.81130 -0.28260 0.48610
H6A H 0.72170 -0.30150 0.59560
C5A C 0.3767(3) -0.0675(2) 0.2398(2)
H7A H 0.24750 -0.08430 0.25070
C6A C 0.3970(4) -0.0896(2) 0.1242(2)
H8A H 0.28360 -0.12140 0.05680
C7A C 0.5853(4) -0.0649(2) 0.1078(2)
H9A H 0.60260 -0.08130 0.02890
C8A C 0.7478(4) -0.0160(2) 0.2084(2)
H10A H 0.87870 0.00350 0.19980
C9A C 0.7166(3) 0.0039(2) 0.3213(2)
H11A H 0.82830 0.03780 0.39020
N1A N 0.3005(3) -0.1764(2) 0.43874(18)
N2A N 0.6645(3) -0.0944(2) 0.52579(18)
N3A N 0.5330(3) -0.02297(19) 0.33761(18)
O1A O 0.1075(2) -0.20145(18) 0.39481(16)
H12A H 0.112(5) -0.093(3) 0.402(3)
O2A O 0.8616(2) -0.03216(18) 0.57635(16)
#END
