
#######################################################################
#
#                 Cambridge Crystallographic Data Centre
#                                CCDC
#
#######################################################################
#
# If this CIF has been generated from an entry in the Cambridge
# Structural Database, then it will include bibliographic, chemical,
# crystal, experimental, refinement or atomic coordinate data resulting
# from the CCDC's data processing and validation procedures.
#
#######################################################################

data_CSD_CIF_DETTUR01
_audit_creation_date 1987-11-26
_audit_creation_method CSD-ConQuest-V1
_database_code_CSD DETTUR01
_database_code_depnum_ccdc_archive 'CCDC 1139356'
_chemical_formula_sum 'C12 H40 Cl3 Fe1 N6 O5'
_chemical_formula_moiety
;
C12 H30 Fe1 N6 3+,3(Cl1 1-),5(H2 O1)
;
_journal_coeditor_code "IUCr A26619"
_journal_coden_Cambridge 622
_journal_volume 43
_journal_year 1987
_journal_page_first 174
_journal_name_full 'Acta Crystallogr.,Sect.B:Struct.Sci. '
loop_
_publ_author_name
"R.E.Marsh"
_chemical_name_systematic
;
bis(1,4,7-Triazacyclononane-N,N',N'')-iron(iii) trichloride pentahydrate
;
_cell_volume   1771.499
_exptl_crystal_colour 'red'
_diffrn_ambient_temperature ?
_diffrn_special_details
;
The study was carried out at room temperature,in the range 283-303K

;
_refine_special_details
;
Within a water molecule layer one site is shared equally by a water molecule 
O(1) and chloride Cl(2). Water molecule O(2) is half populated. This disorder 
is the result of the two fold axis of sg R32. They have not been retained.
;
#These two values have been output from a single CSD field.
_refine_ls_R_factor_gt 0.021
_refine_ls_wR_factor_gt 0.021
loop_
_citation_database_id_CSD
_citation_special_details
DETTUR "is reinterpreted by this entry"
_symmetry_cell_setting rhombohedral
_symmetry_space_group_name_H-M 'R 3 2'
_symmetry_Int_Tables_number 155
loop_
_symmetry_equiv_pos_site_id
_symmetry_equiv_pos_as_xyz
1 x,y,z
2 1/3+x,2/3+y,2/3+z
3 2/3+x,1/3+y,1/3+z
4 -y,x-y,z
5 -x+y,-x,z
6 1/3-y,2/3+x-y,2/3+z
7 1/3-x+y,2/3-x,2/3+z
8 2/3-y,1/3+x-y,1/3+z
9 2/3-x+y,1/3-x,1/3+z
10 y,x,-z
11 2/3+y,1/3+x,1/3-z
12 1/3+y,2/3+x,2/3-z
13 x-y,-y,-z
14 -x,-x+y,-z
15 2/3+x-y,1/3-y,1/3-z
16 2/3-x,1/3-x+y,1/3-z
17 1/3+x-y,2/3-y,2/3-z
18 1/3-x,2/3-x+y,2/3-z
_cell_length_a 8.076(2)
_cell_length_b 8.076(2)
_cell_length_c 31.363(6)
_cell_angle_alpha 90
_cell_angle_beta 90
_cell_angle_gamma 120
_cell_formula_units_Z 3
loop_
_atom_type_symbol
_atom_type_radius_bond
C 0.68
H 0.23
Cl 0.99
Fe 1.34
N 0.68
loop_
_atom_site_label
_atom_site_type_symbol
_atom_site_fract_x
_atom_site_fract_y
_atom_site_fract_z
Cl1 Cl 0.00000 0.00000 0.35242(2)
Fe1 Fe 0.00000 0.00000 0.00000
N1 N 0.1085(2) -0.1126(2) 0.04033(2)
C1 C 0.2833(2) 0.0506(2) 0.05954(5)
C2 C -0.0355(2) -0.2349(2) 0.07343(2)
H1 H 0.143(2) -0.186(2) 0.0283(4)
H2 H 0.375(2) 0.096(2) 0.0381(5)
H3 H 0.331(2) 0.005(2) 0.0828(8)
H4 H -0.025(3) -0.347(3) 0.0780(8)
H5 H 0.001(2) -0.165(2) 0.1013(5)
N1C N 0.1126(2) 0.2211(2) 0.04033(2)
N1D N -0.2211(2) -0.1085(2) 0.04033(2)
N1I N -0.1126(2) 0.1085(2) -0.04033(2)
N1L N 0.2211(2) 0.1126(2) -0.04033(2)
N1M N -0.1085(2) -0.2211(2) -0.04033(2)
C2C C 0.2349(2) 0.1994(2) 0.07343(2)
C1D C -0.2327(2) -0.2833(2) 0.05954(5)
C1C C -0.0506(2) 0.2327(2) 0.05954(5)
H1C H 0.186(2) 0.329(2) 0.0283(4)
C2D C -0.1994(2) 0.0355(2) 0.07343(2)
H1D H -0.329(2) -0.143(2) 0.0283(4)
C1I C 0.0506(2) 0.2833(2) -0.05954(5)
C2I C -0.2349(2) -0.0355(2) -0.07343(2)
H1I H -0.186(2) 0.143(2) -0.0283(4)
C1L C 0.2327(2) -0.0506(2) -0.05954(5)
C2L C 0.1994(2) 0.2349(2) -0.07343(2)
H1L H 0.329(2) 0.186(2) -0.0283(4)
C1M C -0.2833(2) -0.2327(2) -0.05954(5)
C2M C 0.0355(2) -0.1994(2) -0.07343(2)
H1M H -0.143(2) -0.329(2) -0.0283(4)
H4C H 0.347(3) 0.322(3) 0.0780(8)
H5C H 0.165(2) 0.166(2) 0.1013(5)
H2D H -0.279(2) -0.375(2) 0.0381(5)
H3D H -0.326(2) -0.331(2) 0.0828(8)
H2C H -0.096(2) 0.279(2) 0.0381(5)
H3C H -0.005(2) 0.326(2) 0.0828(8)
H4D H -0.322(3) 0.025(3) 0.0780(8)
H5D H -0.166(2) -0.001(2) 0.1013(5)
H2I H 0.096(2) 0.375(2) -0.0381(5)
H3I H 0.005(2) 0.331(2) -0.0828(8)
H4I H -0.347(3) -0.025(3) -0.0780(8)
H5I H -0.165(2) 0.001(2) -0.1013(5)
H2L H 0.279(2) -0.096(2) -0.0381(5)
H3L H 0.326(2) -0.005(2) -0.0828(8)
H4L H 0.322(3) 0.347(3) -0.0780(8)
H5L H 0.166(2) 0.165(2) -0.1013(5)
H2M H -0.375(2) -0.279(2) -0.0381(5)
H3M H -0.331(2) -0.326(2) -0.0828(8)
H4M H 0.025(3) -0.322(3) -0.0780(8)
H5M H -0.001(2) -0.166(2) -0.1013(5)
#END
