
#######################################################################
#
#                 Cambridge Crystallographic Data Centre
#                                CCDC
#
#######################################################################
#
# If this CIF has been generated from an entry in the Cambridge
# Structural Database, then it will include bibliographic, chemical,
# crystal, experimental, refinement or atomic coordinate data resulting
# from the CCDC's data processing and validation procedures.
#
#######################################################################

data_CSD_CIF_DEYBOA
_audit_creation_date 2013-06-16
_audit_creation_method CSD-ConQuest-V1
_database_code_CSD DEYBOA
_database_code_depnum_ccdc_archive 'CCDC 910492'
_chemical_formula_sum 'C18 H20 Mn1 N10 O10'
_chemical_formula_moiety
;
C18 H20 Mn1 N10 O10
;
_journal_coden_Cambridge 29
_journal_volume 639
_journal_year 2013
_journal_page_first 974
_journal_name_full 'Z.Anorg.Allg.Chem. '
loop_
_publ_author_name
"Xi-Ying Zhang"
"Zheng-Yu Liu"
"Zhong-Yi Liu"
"En-Cui Yang"
"Xiao-Jun Zhao"
_chemical_name_systematic
;
Diaqua-bis(4-nitrobenzoato-O)-bis(1H-1,2,4-triazol-3-amine)-manganese(ii)
;
_cell_volume    578.650
_exptl_crystal_colour 'yellow'
_exptl_crystal_density_diffrn 1.697
_exptl_crystal_description 'block'
_diffrn_ambient_temperature 173
#These two values have been output from a single CSD field.
_refine_ls_R_factor_gt 0.0328
_refine_ls_wR_factor_gt 0.0328
_symmetry_cell_setting triclinic
_symmetry_space_group_name_H-M 'P -1'
_symmetry_Int_Tables_number 2
loop_
_symmetry_equiv_pos_site_id
_symmetry_equiv_pos_as_xyz
1 x,y,z
2 -x,-y,-z
_cell_length_a 7.3540(11)
_cell_length_b 7.5884(11)
_cell_length_c 11.922(3)
_cell_angle_alpha 91.739(3)
_cell_angle_beta 96.303(3)
_cell_angle_gamma 118.480(2)
_cell_formula_units_Z 1
loop_
_atom_type_symbol
_atom_type_radius_bond
C 0.68
H 0.23
Mn 1.61
N 0.68
O 0.68
loop_
_atom_site_label
_atom_site_type_symbol
_atom_site_fract_x
_atom_site_fract_y
_atom_site_fract_z
Mn1 Mn 0.50000 1.00000 0.50000
O1 O 0.5837(2) 0.9432(2) 0.33872(12)
O2 O 0.2852(3) 0.8431(3) 0.22178(13)
O3 O 0.7513(3) 0.7000(3) -0.21588(13)
O4 O 0.9835(3) 0.6820(3) -0.09639(14)
O5 O 0.2121(2) 0.9869(2) 0.40374(12)
H1 H 0.23350 0.95450 0.34050
H2 H 0.09740 0.89280 0.41660
N1 N 0.2209(3) 0.3492(3) 0.46167(15)
H3 H 0.20000 0.24080 0.42100
N2 N 0.1458(3) 0.3498(3) 0.56189(15)
N3 N 0.3287(3) 0.6669(3) 0.51466(15)
N4 N 0.1771(3) 0.6149(3) 0.68633(16)
H4 H 0.07500 0.53560 0.72570
H5 H 0.19760 0.74180 0.68790
N5 N 0.8311(3) 0.7059(3) -0.11857(16)
C1 C 0.2130(3) 0.5444(3) 0.58967(18)
C2 C 0.3290(3) 0.5353(3) 0.43549(18)
H6 H 0.39750 0.57210 0.37020
C3 C 0.4681(3) 0.8728(3) 0.24309(18)
C4 C 0.5633(3) 0.8241(3) 0.14866(18)
C5 C 0.4577(4) 0.7764(3) 0.03835(18)
H7 H 0.32460 0.76930 0.02370
C6 C 0.5457(3) 0.7394(3) -0.04972(18)
H8 H 0.47680 0.71060 -0.12550
C7 C 0.7367(4) 0.7454(3) -0.02481(18)
C8 C 0.8438(4) 0.7867(3) 0.08463(18)
H9 H 0.97310 0.78600 0.09950
C9 C 0.7552(3) 0.8285(3) 0.17086(18)
H10 H 0.82610 0.86070 0.24630
O1A O 0.4163(2) 1.0568(2) 0.66128(12)
O2A O 0.7148(3) 1.1569(3) 0.77822(13)
O3A O 0.2487(3) 1.3000(3) 1.21588(13)
O4A O 0.0165(3) 1.3180(3) 1.09639(14)
O5A O 0.7879(2) 1.0131(2) 0.59626(12)
H1A H 0.76650 1.04550 0.65950
H2A H 0.90260 1.10720 0.58340
N1A N 0.7791(3) 1.6508(3) 0.53833(15)
H3A H 0.80000 1.75920 0.57900
N2A N 0.8542(3) 1.6502(3) 0.43811(15)
N3A N 0.6713(3) 1.3331(3) 0.48534(15)
N4A N 0.8229(3) 1.3851(3) 0.31367(16)
H4A H 0.92500 1.46440 0.27430
H5A H 0.80240 1.25820 0.31210
N5A N 0.1689(3) 1.2941(3) 1.11857(16)
C1A C 0.7870(3) 1.4556(3) 0.41033(18)
C2A C 0.6710(3) 1.4647(3) 0.56451(18)
H6A H 0.60250 1.42790 0.62980
C3A C 0.5319(3) 1.1272(3) 0.75691(18)
C4A C 0.4367(3) 1.1759(3) 0.85134(18)
C5A C 0.5423(4) 1.2236(3) 0.96165(18)
H7A H 0.67540 1.23070 0.97630
C6A C 0.4543(3) 1.2606(3) 1.04972(18)
H8A H 0.52320 1.28940 1.12550
C7A C 0.2633(4) 1.2546(3) 1.02481(18)
C8A C 0.1562(4) 1.2133(3) 0.91537(18)
H9A H 0.02690 1.21400 0.90050
C9A C 0.2448(3) 1.1715(3) 0.82914(18)
H10A H 0.17390 1.13930 0.75370
#END
