
#######################################################################
#
#                 Cambridge Crystallographic Data Centre
#                                CCDC
#
#######################################################################
#
# If this CIF has been generated from an entry in the Cambridge
# Structural Database, then it will include bibliographic, chemical,
# crystal, experimental, refinement or atomic coordinate data resulting
# from the CCDC's data processing and validation procedures.
#
#######################################################################

data_CSD_CIF_DEZMIF
_audit_creation_date 2007-07-03
_audit_creation_method CSD-ConQuest-V1
_database_code_CSD DEZMIF
_database_code_depnum_ccdc_archive 'CCDC 606790'
_chemical_formula_sum 'C18 H42 Fe1 Mo2 N6 O6 S6'
_chemical_formula_moiety
;
C18 H42 Fe1 N6 O6 2+,Mo2 S6 2-
;
_journal_coden_Cambridge 119
_journal_volume 833
_journal_year 2007
_journal_page_first 8
_journal_name_full 'J.Mol.Struct. '
loop_
_publ_author_name
"Yong Li"
"Zhao-Xia Zhang"
"Ke-Chang Li"
"Ji-Qing Xu"
"Wen-Dong Song"
"Ling-Yun Pan"
_chemical_name_systematic
;
hexakis(Dimethylformamide-O)-iron(ii) 
bis(\m~2~-sulfido)-tetrathio-di-molybdenum
;
_cell_volume    899.613
_exptl_crystal_colour 'red-brown'
_exptl_crystal_density_diffrn 1.622
_exptl_crystal_description 'block'
_diffrn_ambient_temperature 293
#These two values have been output from a single CSD field.
_refine_ls_R_factor_gt 0.0497
_refine_ls_wR_factor_gt 0.0497
_symmetry_cell_setting triclinic
_symmetry_space_group_name_H-M 'P -1'
_symmetry_Int_Tables_number 2
loop_
_symmetry_equiv_pos_site_id
_symmetry_equiv_pos_as_xyz
1 x,y,z
2 -x,-y,-z
_cell_length_a 8.8119(18)
_cell_length_b 9.838(2)
_cell_length_c 11.374(2)
_cell_angle_alpha 71.43(3)
_cell_angle_beta 74.41(3)
_cell_angle_gamma 83.03(3)
_cell_formula_units_Z 1
loop_
_atom_type_symbol
_atom_type_radius_bond
C 0.68
H 0.23
Fe 1.34
Mo 1.19
N 0.68
O 0.68
S 1.02
loop_
_atom_site_label
_atom_site_type_symbol
_atom_site_fract_x
_atom_site_fract_y
_atom_site_fract_z
Mo1 Mo 0.01302(6) 0.95356(6) 0.39321(4)
Fe1 Fe 0.50000 0.50000 0.00000
S1 S 0.1876(2) 1.0826(3) 0.4269(2)
S2 S 0.1253(3) 0.7455(3) 0.3696(2)
S3 S -0.0746(3) 1.0761(3) 0.2236(2)
O1 O 0.2601(7) 0.4672(8) 0.0851(6)
O2 O 0.4554(7) 0.7089(7) 0.0127(6)
O3 O 0.4529(7) 0.5798(8) -0.1842(5)
N1 N 0.0122(7) 0.5538(8) 0.1490(7)
C1 C 0.4844(11) 0.8166(9) -0.0824(8)
H1 H 0.56320 0.80790 -0.15300
C2 C 0.1479(10) 0.5537(9) 0.0685(7)
H2 H 0.16240 0.62580 -0.00930
N2 N 0.4092(8) 0.9439(7) -0.0890(6)
N3 N 0.5460(9) 0.6421(9) -0.4002(7)
C3 C 0.5465(9) 0.5638(11) -0.2858(8)
H3 H 0.62200 0.48900 -0.27660
C4 C 0.2687(10) 0.9610(9) 0.0063(7)
H4 H 0.25120 0.87330 0.07530
H5 H 0.18000 0.98420 -0.03150
H6 H 0.28140 1.03710 0.03840
C5 C 0.4322(10) 0.7663(12) -0.4227(10)
H7 H 0.36070 0.76800 -0.34280
H8 H 0.37380 0.75760 -0.47990
H9 H 0.48840 0.85360 -0.45980
C6 C -0.1021(13) 0.6670(14) 0.1280(13)
H10 H -0.06170 0.73870 0.04860
H11 H -0.12600 0.70890 0.19670
H12 H -0.19620 0.63020 0.12420
C7 C 0.6620(12) 0.6153(12) -0.5069(8)
H13 H 0.72550 0.53140 -0.47700
H14 H 0.72780 0.69630 -0.54920
H15 H 0.61020 0.60030 -0.56570
C8 C 0.4381(15) 1.0681(12) -0.2066(10)
H16 H 0.53070 1.04800 -0.26680
H17 H 0.45310 1.15180 -0.18550
H18 H 0.34910 1.08500 -0.24360
C9 C -0.0233(13) 0.4365(13) 0.2733(11)
H19 H 0.06520 0.36950 0.27750
H20 H -0.11460 0.38800 0.27930
H21 H -0.04350 0.47690 0.34280
Mo1A Mo -0.01302(6) 1.04644(6) 0.60679(4)
S1A S -0.1876(2) 0.9174(3) 0.5731(2)
S2A S -0.1253(3) 1.2545(3) 0.6304(2)
S3A S 0.0746(3) 0.9239(3) 0.7764(2)
O1A O 0.7399(7) 0.5328(8) -0.0851(6)
O2A O 0.5446(7) 0.2911(7) -0.0127(6)
O3A O 0.5471(7) 0.4202(8) 0.1842(5)
N1A N 0.9878(7) 0.4462(8) -0.1490(7)
C1A C 0.5156(11) 0.1834(9) 0.0824(8)
H1A H 0.43680 0.19210 0.15300
C2A C 0.8521(10) 0.4463(9) -0.0685(7)
H2A H 0.83760 0.37420 0.00930
N2A N 0.5908(8) 0.0561(7) 0.0890(6)
N3A N 0.4540(9) 0.3579(9) 0.4002(7)
C3A C 0.4535(9) 0.4362(11) 0.2858(8)
H3A H 0.37800 0.51100 0.27660
C4A C 0.7313(10) 0.0390(9) -0.0063(7)
H4A H 0.74880 0.12670 -0.07530
H5A H 0.82000 0.01580 0.03150
H6A H 0.71860 -0.03710 -0.03840
C5A C 0.5678(10) 0.2337(12) 0.4227(10)
H7A H 0.63930 0.23200 0.34280
H8A H 0.62620 0.24240 0.47990
H9A H 0.51160 0.14640 0.45980
C6A C 1.1021(13) 0.3330(14) -0.1280(13)
H10A H 1.06170 0.26130 -0.04860
H11A H 1.12600 0.29110 -0.19670
H12A H 1.19620 0.36980 -0.12420
C7A C 0.3380(12) 0.3847(12) 0.5069(8)
H13A H 0.27450 0.46860 0.47700
H14A H 0.27220 0.30370 0.54920
H15A H 0.38980 0.39970 0.56570
C8A C 0.5619(15) -0.0681(12) 0.2066(10)
H16A H 0.46930 -0.04800 0.26680
H17A H 0.54690 -0.15180 0.18550
H18A H 0.65090 -0.08500 0.24360
C9A C 1.0233(13) 0.5635(13) -0.2733(11)
H19A H 0.93480 0.63050 -0.27750
H20A H 1.11460 0.61200 -0.27930
H21A H 1.04350 0.52310 -0.34280
#END
