
#######################################################################
#
#                 Cambridge Crystallographic Data Centre
#                                CCDC
#
#######################################################################
#
# If this CIF has been generated from an entry in the Cambridge
# Structural Database, then it will include bibliographic, chemical,
# crystal, experimental, refinement or atomic coordinate data resulting
# from the CCDC's data processing and validation procedures.
#
#######################################################################

data_CSD_CIF_DIHZEC
_audit_creation_date 2018-06-27
_audit_creation_method CSD-ConQuest-V1
_database_code_CSD DIHZEC
_database_code_depnum_ccdc_archive 'CCDC 1845265'
_chemical_formula_sum 'C14 H15 Fe1 N2 O7'
_chemical_formula_moiety
;
C12 H12 Fe1 N1 O7,C2 H3 N1
;
_journal_coeditor_code "lo5021"
_journal_coden_Cambridge 1743
_journal_volume 74
_journal_year 2018
_journal_page_first 354
_journal_name_full 'Acta Crystallogr.,Sect.B:Struct.Sci.,Cryst.Eng. and Mat. '
loop_
_publ_author_name
"S.C.Zacharias"
"G.Ramon"
"S.A.Bourne"
_chemical_name_systematic
;
(pyridine-2,6-dicarboxylato)-acetylacetonato-aqua-iron(iii) acetonitrile 
solvate
;
_cell_volume    811.823
_exptl_crystal_colour 'red'
_exptl_crystal_density_diffrn 1.551
_exptl_crystal_description 'block'
_diffrn_ambient_temperature 173
#These two values have been output from a single CSD field.
_refine_ls_R_factor_gt 0.0299
_refine_ls_wR_factor_gt 0.0299
_symmetry_cell_setting triclinic
_symmetry_space_group_name_H-M 'P -1'
_symmetry_Int_Tables_number 2
loop_
_symmetry_equiv_pos_site_id
_symmetry_equiv_pos_as_xyz
1 x,y,z
2 -x,-y,-z
_cell_length_a 8.6448(17)
_cell_length_b 9.0260(18)
_cell_length_c 10.773(2)
_cell_angle_alpha 93.169(5)
_cell_angle_beta 100.097(4)
_cell_angle_gamma 99.996(4)
_cell_formula_units_Z 2
loop_
_atom_type_symbol
_atom_type_radius_bond
C 0.68
H 0.23
Fe 1.52
N 0.68
O 0.68
loop_
_atom_site_label
_atom_site_type_symbol
_atom_site_fract_x
_atom_site_fract_y
_atom_site_fract_z
Fe1 Fe 0.46320(3) 0.20831(2) 0.77491(2)
O1 O 0.44718(13) 0.21224(13) 0.58467(10)
O2 O 0.55669(14) 0.17060(13) 0.4164(1)
O3 O 0.78817(14) 0.08880(15) 1.05692(11)
O4 O 0.57301(13) 0.16050(13) 0.94692(10)
O5 O 0.27937(14) 0.28558(13) 0.80993(12)
O6 O 0.58614(14) 0.42002(13) 0.80171(12)
O7 O 0.32582(13) -0.00186(12) 0.74359(10)
H1 H 0.32386 -0.03559 0.82723
H2 H 0.37704 -0.05692 0.70931
N1 N 0.66642(15) 0.13576(14) 0.73883(12)
C1 C 0.55665(18) 0.17288(17) 0.53058(15)
C2 C 0.69162(18) 0.12729(17) 0.62090(14)
C3 C 0.82546(19) 0.07832(19) 0.59290(16)
H3 H 0.84394 0.07189 0.50857
C4 C 0.9321(2) 0.0388(2) 0.69210(17)
H4 H 1.02574 0.00582 0.67591
C5 C 0.90268(19) 0.0472(2) 0.81529(16)
H5 H 0.97433 0.01929 0.88353
C6 C 0.76620(18) 0.09728(17) 0.83479(14)
C7 C 0.70694(18) 0.11589(18) 0.95766(15)
C8 C 0.0984(3) 0.4403(3) 0.8523(2)
H6 H 0.01972 0.40058 0.77547
H7 H 0.09701 0.54754 0.87076
H8 H 0.07151 0.38446 0.92345
C9 C 0.2616(2) 0.4224(2) 0.83257(17)
C10 C 0.3808(2) 0.5478(2) 0.84028(18)
H9 H 0.35502 0.64433 0.85621
C11 C 0.5373(2) 0.54137(19) 0.82607(15)
C12 C 0.6565(2) 0.6858(2) 0.83842(19)
H10 H 0.76460 0.66321 0.84790
H11 H 0.64839 0.74927 0.91294
H12 H 0.63444 0.73938 0.76249
N2 N 1.0270(3) 0.6977(2) 0.6117(2)
C13 C 0.9051(3) 0.6253(2) 0.5761(2)
C14 C 0.7481(3) 0.5321(2) 0.5325(2)
H13 H 0.75324 0.45774 0.46427
H14 H 0.67164 0.59604 0.50100
H15 H 0.71327 0.47954 0.60292
#END
