
#######################################################################
#
#                 Cambridge Crystallographic Data Centre
#                                CCDC
#
#######################################################################
#
# If this CIF has been generated from an entry in the Cambridge
# Structural Database, then it will include bibliographic, chemical,
# crystal, experimental, refinement or atomic coordinate data resulting
# from the CCDC's data processing and validation procedures.
#
#######################################################################

data_CSD_CIF_DIJLOA
_audit_creation_date 2018-06-27
_audit_creation_method CSD-ConQuest-V1
_database_code_CSD DIJLOA
_database_code_depnum_ccdc_archive 'CCDC 1574832'
_chemical_formula_sum 'C18 H24 Fe1 N2 O4 S2'
_chemical_formula_moiety
;
C18 H24 Fe1 N2 O4 S2
;
_journal_coden_Cambridge 36
_journal_volume 870
_journal_year 2018
_journal_page_first 121
_journal_name_full 'J.Organomet.Chem. '
loop_
_publ_author_name
"K.Chanawanno"
"T.S.Blesener"
"B.R.Schrage"
"V.N.Nemykin"
"R.S.Herrick"
"C.J.Ziegler"
_chemical_name_systematic
;
1,1'-bis((pyrrolidin-1-yl)sulfonyl)-ferrocene
;
_cell_volume    900.789
_exptl_crystal_colour 'yellow'
_exptl_crystal_density_diffrn 1.668
_exptl_crystal_description 'block'
_diffrn_ambient_temperature 100
#These two values have been output from a single CSD field.
_refine_ls_R_factor_gt 0.0477
_refine_ls_wR_factor_gt 0.0477
_symmetry_cell_setting triclinic
_symmetry_space_group_name_H-M 'P -1'
_symmetry_Int_Tables_number 2
loop_
_symmetry_equiv_pos_site_id
_symmetry_equiv_pos_as_xyz
1 x,y,z
2 -x,-y,-z
_cell_length_a 8.2196(7)
_cell_length_b 8.2278(7)
_cell_length_c 13.8977(12)
_cell_angle_alpha 90.593(3)
_cell_angle_beta 103.080(2)
_cell_angle_gamma 99.864(3)
_cell_formula_units_Z 2
loop_
_atom_type_symbol
_atom_type_radius_bond
C 0.68
H 0.23
Fe 1.52
N 0.68
O 0.68
S 1.02
loop_
_atom_site_label
_atom_site_type_symbol
_atom_site_fract_x
_atom_site_fract_y
_atom_site_fract_z
C1 C 0.3274(5) 0.1442(5) 0.9477(3)
C2 C 0.2594(5) -0.0244(5) 0.9129(3)
H1 H 0.15460 -0.09360 0.92550
C3 C 0.3678(6) -0.0729(6) 0.8567(3)
H2 H 0.35490 -0.18490 0.82420
C4 C 0.5017(5) 0.0625(5) 0.8563(3)
H3 H 0.59790 0.06140 0.82350
C5 C 0.4765(5) 0.1997(5) 0.9124(3)
H4 H 0.54940 0.31180 0.92460
C6 C -0.0409(6) 0.2522(5) 0.8829(3)
H5 H -0.12220 0.19400 0.91930
H6 H -0.00570 0.17030 0.84270
C7 C -0.1157(6) 0.3815(6) 0.8195(3)
H7 H -0.18530 0.43850 0.85350
H8 H -0.18660 0.33180 0.75520
C8 C 0.0406(6) 0.5001(6) 0.8055(3)
H9 H 0.01320 0.61080 0.78980
H10 H 0.08520 0.45820 0.75140
C9 C 0.1699(6) 0.5074(5) 0.9049(3)
H11 H 0.28560 0.50820 0.89500
H12 H 0.17100 0.60680 0.94600
Fe1 Fe 0.50000 0.00000 1.00000
N1 N 0.1083(5) 0.3540(4) 0.9515(3)
O1 O 0.1501(4) 0.1491(4) 1.0767(2)
O2 O 0.3798(4) 0.3886(4) 1.0766(2)
S1 S 0.24414(13) 0.26159(12) 1.02337(7)
C10 C 0.1728(5) 0.8563(5) 0.5520(3)
C11 C 0.2429(6) 1.0225(5) 0.5875(3)
H13 H 0.34820 1.09120 0.57520
C12 C 0.1316(6) 1.0725(6) 0.6434(3)
H14 H 0.14460 1.18440 0.67600
C13 C -0.0017(6) 0.9375(6) 0.6434(3)
H15 H -0.09820 0.93880 0.67610
C14 C 0.0217(6) 0.8024(5) 0.5875(3)
H16 H -0.05200 0.69070 0.57530
C15 C 0.3309(6) 0.4933(6) 0.5959(3)
H17 H 0.32890 0.39370 0.55470
H18 H 0.21560 0.49270 0.60650
C16 C 0.4599(6) 0.4995(6) 0.6941(3)
H19 H 0.48750 0.38860 0.70910
H20 H 0.41560 0.54020 0.74870
C17 C 0.6164(6) 0.6191(6) 0.6807(3)
H21 H 0.68620 0.66960 0.74500
H22 H 0.68720 0.56280 0.64720
C18 C 0.5396(6) 0.7485(6) 0.6159(3)
H23 H 0.50460 0.83090 0.65580
H24 H 0.62020 0.80610 0.57890
Fe2 Fe 0.00000 1.00000 0.50000
N2 N 0.3912(5) 0.6462(4) 0.5487(3)
O3 O 0.1218(4) 0.6114(4) 0.4265(2)
O4 O 0.3491(4) 0.8513(4) 0.4203(2)
S2 S 0.25611(13) 0.73842(13) 0.47645(7)
C1A C 0.6726(5) -0.1442(5) 1.0523(3)
C2A C 0.7406(5) 0.0244(5) 1.0871(3)
H1A H 0.84540 0.09360 1.07450
C3A C 0.6322(6) 0.0729(6) 1.1433(3)
H2A H 0.64510 0.18490 1.17580
C4A C 0.4983(5) -0.0625(5) 1.1437(3)
H3A H 0.40210 -0.06140 1.17650
C5A C 0.5235(5) -0.1997(5) 1.0876(3)
H4A H 0.45060 -0.31180 1.07540
C6A C 1.0409(6) -0.2522(5) 1.1171(3)
H5A H 1.12220 -0.19400 1.08070
H6A H 1.00570 -0.17030 1.15730
C7A C 1.1157(6) -0.3815(6) 1.1805(3)
H7A H 1.18530 -0.43850 1.14650
H8A H 1.18660 -0.33180 1.24480
C8A C 0.9594(6) -0.5001(6) 1.1945(3)
H9A H 0.98680 -0.61080 1.21020
H10A H 0.91480 -0.45820 1.24860
C9A C 0.8301(6) -0.5074(5) 1.0951(3)
H11A H 0.71440 -0.50820 1.10500
H12A H 0.82900 -0.60680 1.05400
N1A N 0.8917(5) -0.3540(4) 1.0485(3)
O1A O 0.8499(4) -0.1491(4) 0.9233(2)
O2A O 0.6202(4) -0.3886(4) 0.9234(2)
S1A S 0.75586(13) -0.26159(12) 0.97663(7)
C10A C -0.1728(5) 1.1437(5) 0.4480(3)
C11A C -0.2429(6) 0.9775(5) 0.4125(3)
H13A H -0.34820 0.90880 0.42480
C12A C -0.1316(6) 0.9275(6) 0.3566(3)
H14A H -0.14460 0.81560 0.32400
C13A C 0.0017(6) 1.0625(6) 0.3566(3)
H15A H 0.09820 1.06120 0.32390
C14A C -0.0217(6) 1.1976(5) 0.4125(3)
H16A H 0.05200 1.30930 0.42470
C15A C -0.3309(6) 1.5067(6) 0.4041(3)
H17A H -0.32890 1.60630 0.44530
H18A H -0.21560 1.50730 0.39350
C16A C -0.4599(6) 1.5005(6) 0.3059(3)
H19A H -0.48750 1.61140 0.29090
H20A H -0.41560 1.45980 0.25130
C17A C -0.6164(6) 1.3809(6) 0.3193(3)
H21A H -0.68620 1.33040 0.25500
H22A H -0.68720 1.43720 0.35280
C18A C -0.5396(6) 1.2515(6) 0.3841(3)
H23A H -0.50460 1.16910 0.34420
H24A H -0.62020 1.19390 0.42110
N2A N -0.3912(5) 1.3538(4) 0.4513(3)
O3A O -0.1218(4) 1.3886(4) 0.5735(2)
O4A O -0.3491(4) 1.1487(4) 0.5797(2)
S2A S -0.25611(13) 1.26158(13) 0.52355(7)
#END
