
#######################################################################
#
#                 Cambridge Crystallographic Data Centre
#                                CCDC
#
#######################################################################
#
# If this CIF has been generated from an entry in the Cambridge
# Structural Database, then it will include bibliographic, chemical,
# crystal, experimental, refinement or atomic coordinate data resulting
# from the CCDC's data processing and validation procedures.
#
#######################################################################

data_CSD_CIF_DIMPEU11
_audit_creation_date 2008-02-05
_audit_creation_method CSD-ConQuest-V1
_database_code_CSD DIMPEU11
_database_code_depnum_ccdc_archive 'CCDC 672400'
_chemical_formula_sum 'C12 H16 Br2 Mn1 N8'
_chemical_formula_moiety
;
C12 H16 Br2 Mn1 N8
;
_journal_coeditor_code "IUCr BG3059"
_journal_coden_Cambridge 591
_journal_volume 63
_journal_year 2007
_journal_page_first m566
_journal_name_full 'Acta Crystallogr.,Sect.C:Cryst.Struct.Commun. '
loop_
_publ_author_name
"K.Ruth"
"K.Kunz"
"H.-W.Lerner"
"M.Bolte"
_chemical_name_systematic
;
trans-Dibromido-tetrakis(1H-pyrazole-\kN^2^)-manganese(ii)
;
_cell_volume   1757.086
_exptl_crystal_colour 'light yellow'
_exptl_crystal_density_diffrn 1.841
_exptl_crystal_description 'block'
_exptl_crystal_preparation 'benzene'
_diffrn_ambient_temperature 173
#These two values have been output from a single CSD field.
_refine_ls_R_factor_gt 0.0658
_refine_ls_wR_factor_gt 0.0658
_symmetry_cell_setting monoclinic
_symmetry_space_group_name_H-M 'C 2/c'
_symmetry_Int_Tables_number 15
loop_
_symmetry_equiv_pos_site_id
_symmetry_equiv_pos_as_xyz
1 x,y,z
2 1/2+x,1/2+y,z
3 -x,y,1/2-z
4 1/2-x,1/2+y,1/2-z
5 -x,-y,-z
6 -1/2-x,-1/2-y,-z
7 x,-y,-1/2+z
8 -1/2+x,-1/2-y,-1/2+z
_cell_length_a 14.430(2)
_cell_length_b 9.4424(8)
_cell_length_c 14.725(2)
_cell_angle_alpha 90
_cell_angle_beta 118.864(11)
_cell_angle_gamma 90
_cell_formula_units_Z 4
loop_
_atom_type_symbol
_atom_type_radius_bond
C 0.68
H 0.23
Br 1.21
Mn 1.35
N 0.68
loop_
_atom_site_label
_atom_site_type_symbol
_atom_site_fract_x
_atom_site_fract_y
_atom_site_fract_z
Mn1 Mn 0.50000 0.50000 0.50000
Br1 Br 0.58177(7) 0.68530(9) 0.41305(7)
N1 N 0.5596(5) 0.3184(8) 0.4446(5)
N2 N 0.6167(7) 0.3385(8) 0.3954(7)
H1 H 0.63560 0.42240 0.38400
C1 C 0.6418(9) 0.2159(11) 0.3657(9)
H2 H 0.68170 0.20500 0.33030
C2 C 0.5982(8) 0.1098(10) 0.3968(8)
H3 H 0.60170 0.01070 0.38770
C3 C 0.5476(7) 0.1789(9) 0.4447(7)
H4 H 0.50950 0.13210 0.47350
N3 N 0.3468(5) 0.4919(7) 0.3476(5)
N4 N 0.3291(6) 0.5611(9) 0.2605(6)
H5 H 0.37570 0.61680 0.25610
C4 C 0.2319(7) 0.5349(11) 0.1809(8)
H6 H 0.20230 0.57230 0.11270
C5 C 0.1836(7) 0.4424(12) 0.2186(9)
H7 H 0.11430 0.40390 0.18180
C6 C 0.2585(6) 0.4180(9) 0.3223(7)
H8 H 0.24810 0.35760 0.36820
Br1D Br 0.41823(7) 0.31470(9) 0.58695(7)
N1D N 0.4404(5) 0.6816(8) 0.5554(5)
N2D N 0.3833(7) 0.6615(8) 0.6046(7)
H1D H 0.36440 0.57760 0.61600
C1D C 0.3582(9) 0.7841(11) 0.6343(9)
H2D H 0.31830 0.79500 0.66970
C2D C 0.4018(8) 0.8902(10) 0.6032(8)
H3D H 0.39830 0.98930 0.61230
C3D C 0.4524(7) 0.8211(9) 0.5553(7)
H4D H 0.49050 0.86790 0.52650
N3D N 0.6532(5) 0.5081(7) 0.6524(5)
N4D N 0.6709(6) 0.4389(9) 0.7395(6)
H5D H 0.62430 0.38320 0.74390
C4D C 0.7681(7) 0.4651(11) 0.8191(8)
H6D H 0.79770 0.42770 0.88730
C5D C 0.8164(7) 0.5576(12) 0.7814(9)
H7D H 0.88570 0.59610 0.81820
C6D C 0.7415(6) 0.5820(9) 0.6777(7)
H8D H 0.75190 0.64240 0.63180
#END
