
#######################################################################
#
#                 Cambridge Crystallographic Data Centre
#                                CCDC
#
#######################################################################
#
# If this CIF has been generated from an entry in the Cambridge
# Structural Database, then it will include bibliographic, chemical,
# crystal, experimental, refinement or atomic coordinate data resulting
# from the CCDC's data processing and validation procedures.
#
#######################################################################

data_CSD_CIF_DIMPEU10
_audit_creation_date 1988-04-19
_audit_creation_method CSD-ConQuest-V1
_database_code_CSD DIMPEU10
_database_code_depnum_ccdc_archive 'CCDC 1141154'
_chemical_formula_sum 'C12 H16 Br2 Mn1 N8'
_chemical_formula_moiety
;
C12 H16 Br2 Mn1 N8
;
_journal_coden_Cambridge 211
_journal_volume 15
_journal_year 1987
_journal_page_first 383
_journal_name_full 'J.Coord.Chem. '
loop_
_publ_author_name
"P.Lumme"
"E.Lindell"
_chemical_name_systematic
;
trans-Dibromo-tetrakis(1,2-diazole)-manganese(ii)
;
_cell_volume   1769.411
_exptl_crystal_colour 'colorless'
_exptl_crystal_density_diffrn 1.83
_exptl_special_details
;
Isostructural with the chloro analogue

;
_diffrn_ambient_temperature ?
_diffrn_special_details
;
The study was carried out at room temperature,in the range 283-303K

;
#These two values have been output from a single CSD field.
_refine_ls_R_factor_gt 0.048
_refine_ls_wR_factor_gt 0.048
_symmetry_cell_setting monoclinic
_symmetry_space_group_name_H-M 'C 2/c'
_symmetry_Int_Tables_number 15
loop_
_symmetry_equiv_pos_site_id
_symmetry_equiv_pos_as_xyz
1 x,y,z
2 1/2+x,1/2+y,z
3 -x,y,1/2-z
4 1/2-x,1/2+y,1/2-z
5 -x,-y,-z
6 -1/2-x,-1/2-y,-z
7 x,-y,-1/2+z
8 -1/2+x,-1/2-y,-1/2+z
_cell_length_a 14.208(2)
_cell_length_b 9.454(1)
_cell_length_c 15.015(3)
_cell_angle_alpha 90
_cell_angle_beta 118.68(1)
_cell_angle_gamma 90
_cell_formula_units_Z 4
loop_
_atom_type_symbol
_atom_type_radius_bond
C 0.68
H 0.23
Br 1.21
Mn 1.35
N 0.68
loop_
_atom_site_label
_atom_site_type_symbol
_atom_site_fract_x
_atom_site_fract_y
_atom_site_fract_z
Mn1 Mn 0.25000 0.25000 0.50000
N1 N 0.2448(5) 0.2325(6) 0.6467(4)
N2 N 0.3107(5) 0.2986(7) 0.7337(6)
N3 N 0.3621(4) 0.0663(7) 0.5508(4)
N4 N 0.4690(5) 0.0824(7) 0.6033(5)
C1 C 0.2849(9) 0.2615(11) 0.8091(6)
C2 C 0.2022(8) 0.175(1) 0.7651(9)
C3 C 0.1778(6) 0.1581(7) 0.6663(6)
C4 C 0.5186(7) -0.0441(10) 0.6304(8)
C5 C 0.4427(7) -0.1434(9) 0.5966(7)
C6 C 0.3467(6) -0.0699(9) 0.5473(6)
Br1 Br 0.4214(1) 0.4291(1) 0.5864(1)
H1 H 0.36970 0.36470 0.74310
H2 H 0.32140 0.29370 0.88140
H3 H 0.16390 0.12950 0.79870
H4 H 0.11800 0.09820 0.61570
H5 H 0.50690 0.17560 0.62000
H6 H 0.59780 -0.06040 0.66890
H7 H 0.45280 -0.24820 0.60500
H8 H 0.27450 -0.11590 0.51300
N1E N 0.2552(5) 0.2675(6) 0.3533(4)
N3E N 0.1379(4) 0.4337(7) 0.4492(4)
Br1E Br 0.0786(1) 0.0709(1) 0.4136(1)
N2E N 0.1893(5) 0.2014(7) 0.2663(6)
C3E C 0.3222(6) 0.3419(7) 0.3337(6)
N4E N 0.0310(5) 0.4176(7) 0.3967(5)
C6E C 0.1533(6) 0.5699(9) 0.4527(6)
C1E C 0.2151(9) 0.2385(11) 0.1909(6)
H1E H 0.13030 0.13530 0.25690
C2E C 0.2978(8) 0.325(1) 0.2349(9)
H4E H 0.38200 0.40180 0.38430
C4E C -0.0186(7) 0.5441(10) 0.3696(8)
H5E H -0.00690 0.32440 0.38000
C5E C 0.0573(7) 0.6434(9) 0.4034(7)
H8E H 0.22550 0.61590 0.48700
H2E H 0.17860 0.20630 0.11860
H3E H 0.33610 0.37050 0.20130
H6E H -0.09780 0.56040 0.33110
H7E H 0.04720 0.74820 0.39500
#END
