
#######################################################################
#
#                 Cambridge Crystallographic Data Centre
#                                CCDC
#
#######################################################################
#
# If this CIF has been generated from an entry in the Cambridge
# Structural Database, then it will include bibliographic, chemical,
# crystal, experimental, refinement or atomic coordinate data resulting
# from the CCDC's data processing and validation procedures.
#
#######################################################################

data_CSD_CIF_DIVCAO
_audit_creation_date 2013-11-12
_audit_creation_method CSD-ConQuest-V1
_database_code_CSD DIVCAO
_database_code_depnum_ccdc_archive 'CCDC 970538'
_chemical_formula_sum 'C16 H19 Mn1 N2 O4 S1'
_chemical_formula_moiety
;
C16 H19 Mn1 N2 O4 S1
;
_journal_coeditor_code "IUCr bt6942"
_journal_coden_Cambridge 1370
_journal_volume 69
_journal_year 2013
_journal_page_first m657
_journal_name_full 'Acta Crystallogr.,Sect.E:Struct.Rep.Online '
loop_
_publ_author_name
"S.Suckert"
"I.Jess"
"C.Nather"
_chemical_name_systematic
;
Pyridine-bis(acetylacetonato)-(thiocyanato-N)-manganese(iii)
;
_cell_volume   1836.491
_exptl_crystal_colour 'brown'
_exptl_crystal_density_diffrn 1.412
_exptl_crystal_description 'plate'
_diffrn_ambient_temperature 200
#These two values have been output from a single CSD field.
_refine_ls_R_factor_gt 0.0302
_refine_ls_wR_factor_gt 0.0302
_symmetry_cell_setting orthorhombic
_symmetry_space_group_name_H-M 'C m c 21'
_symmetry_Int_Tables_number 36
loop_
_symmetry_equiv_pos_site_id
_symmetry_equiv_pos_as_xyz
1 x,y,z
2 -x,-y,1/2+z
3 x,-y,1/2+z
4 -x,y,z
5 1/2+x,1/2+y,z
6 1/2-x,1/2-y,1/2+z
7 1/2+x,1/2-y,1/2+z
8 1/2-x,1/2+y,z
_cell_length_a 13.8803(6)
_cell_length_b 8.3195(5)
_cell_length_c 15.9035(7)
_cell_angle_alpha 90
_cell_angle_beta 90
_cell_angle_gamma 90
_cell_formula_units_Z 4
loop_
_atom_type_symbol
_atom_type_radius_bond
C 0.68
H 0.23
Mn 1.61
N 0.68
O 0.68
S 1.02
loop_
_atom_site_label
_atom_site_type_symbol
_atom_site_fract_x
_atom_site_fract_y
_atom_site_fract_z
Mn1 Mn 0.50000 0.70123(5) 0.26659(3)
S1 S 0.50000 1.19178(13) 0.09102(7)
C1 C 0.50000 1.0340(4) 0.1504(2)
N1 N 0.50000 0.9206(3) 0.19339(18)
N2 N 0.50000 0.4703(3) 0.35186(15)
C2 C 0.50000 0.4876(4) 0.4355(2)
H1 H 0.50000 0.59310 0.45830
C3 C 0.50000 0.3596(5) 0.4895(2)
H2 H 0.50000 0.37720 0.54850
C4 C 0.50000 0.2045(5) 0.4580(3)
H3 H 0.50000 0.11380 0.49430
C5 C 0.50000 0.1873(4) 0.3707(3)
H4 H 0.50000 0.08320 0.34610
C6 C 0.50000 0.3219(4) 0.3206(2)
H5 H 0.50000 0.30840 0.26130
O1 O 0.40265(11) 0.78003(17) 0.34197(9)
O2 O 0.40418(10) 0.60368(17) 0.19620(9)
C7 C 0.26139(19) 0.4840(3) 0.14949(17)
H6 H 0.25350 0.55030 0.09900
H7 H 0.19790 0.45470 0.17160
H8 H 0.29720 0.38620 0.13520
C8 C 0.31578(16) 0.5768(3) 0.21467(14)
C9 C 0.27229(17) 0.6295(3) 0.28825(14)
H9 H 0.20810 0.59560 0.29900
C10 C 0.31605(15) 0.7284(3) 0.34724(15)
C11 C 0.2633(2) 0.7827(4) 0.42460(18)
H10 H 0.30650 0.77690 0.47320
H11 H 0.20740 0.71300 0.43410
H12 H 0.24150 0.89380 0.41700
O1C O 0.59735(11) 0.78003(17) 0.34197(9)
O2C O 0.59582(10) 0.60368(17) 0.19620(9)
C7C C 0.73861(19) 0.4840(3) 0.14949(17)
H6C H 0.74650 0.55030 0.09900
H7C H 0.80210 0.45470 0.17160
H8C H 0.70280 0.38620 0.13520
C8C C 0.68422(16) 0.5768(3) 0.21467(14)
C9C C 0.72771(17) 0.6295(3) 0.28825(14)
H9C H 0.79190 0.59560 0.29900
C10C C 0.68395(15) 0.7284(3) 0.34724(15)
C11C C 0.7367(2) 0.7827(4) 0.42460(18)
H10C H 0.69350 0.77690 0.47320
H11C H 0.79260 0.71300 0.43410
H12C H 0.75850 0.89380 0.41700
#END
