
#######################################################################
#
#                 Cambridge Crystallographic Data Centre
#                                CCDC
#
#######################################################################
#
# If this CIF has been generated from an entry in the Cambridge
# Structural Database, then it will include bibliographic, chemical,
# crystal, experimental, refinement or atomic coordinate data resulting
# from the CCDC's data processing and validation procedures.
#
#######################################################################

data_CSD_CIF_DMAZCO03
_audit_creation_date 2015-10-02
_audit_creation_method CSD-ConQuest-V1
_database_code_CSD DMAZCO03
_database_code_depnum_ccdc_archive 'CCDC 928353'
_chemical_formula_sum 'C18 H24 Co1 N14 O6'
_chemical_formula_moiety
;
C18 H24 Co1 N12 2+,2(N1 O3 1-)
;
_journal_coden_Cambridge 923
_journal_volume 46
_journal_year 2016
_journal_page_first 45
_journal_name_full 'Synth.React.Inorg.,Met.-Org.,Nano-Met.Chem. '
loop_
_publ_author_name
"Hai-Yan Zhao"
"Jing-Jun Ma"
"Xiao-Dong Yang"
"Min-Li Yang"
_chemical_name_systematic
;
hexakis(1H-imidazole)-cobalt(ii) dinitrate
;
_cell_volume   2047.429
_exptl_crystal_colour 'pink'
_exptl_crystal_density_diffrn 1.439
_diffrn_ambient_temperature 296
#These two values have been output from a single CSD field.
_refine_ls_R_factor_gt 0.0483
_refine_ls_wR_factor_gt 0.0483
_symmetry_cell_setting rhombohedral
_symmetry_space_group_name_H-M 'R -3'
_symmetry_Int_Tables_number 148
loop_
_symmetry_equiv_pos_site_id
_symmetry_equiv_pos_as_xyz
1 x,y,z
2 -y,x-y,z
3 -x+y,-x,z
4 2/3+x,1/3+y,1/3+z
5 2/3-y,1/3+x-y,1/3+z
6 2/3-x+y,1/3-x,1/3+z
7 1/3+x,2/3+y,2/3+z
8 1/3-y,2/3+x-y,2/3+z
9 1/3-x+y,2/3-x,2/3+z
10 -x,-y,-z
11 y,-x+y,-z
12 x-y,x,-z
13 -2/3-x,-1/3-y,-1/3-z
14 -2/3+y,-1/3-x+y,-1/3-z
15 -2/3+x-y,-1/3+x,-1/3-z
16 -1/3-x,-2/3-y,-2/3-z
17 -1/3+y,-2/3-x+y,-2/3-z
18 -1/3+x-y,-2/3+x,-2/3-z
_cell_length_a 12.451(6)
_cell_length_b 12.451(6)
_cell_length_c 15.250(11)
_cell_angle_alpha 90
_cell_angle_beta 90
_cell_angle_gamma 120
_cell_formula_units_Z 3
loop_
_atom_type_symbol
_atom_type_radius_bond
C 0.68
H 0.23
Co 1.26
N 0.68
O 0.68
loop_
_atom_site_label
_atom_site_type_symbol
_atom_site_fract_x
_atom_site_fract_y
_atom_site_fract_z
Co1 Co 0.33330 0.66670 0.16670
N1 N 0.28789(14) 0.50420(14) 0.08475(12)
N2 N 0.21718(18) 0.30866(15) 0.05174(17)
H1 H 0.18010 0.22930 0.05690
C1 C 0.3249(2) 0.4956(2) -0.00051(19)
H2 H 0.37260 0.56240 -0.03730
C2 C 0.2798(3) 0.3740(2) -0.0211(2)
H3 H 0.28960 0.34200 -0.07370
C3 C 0.22238(19) 0.38818(17) 0.11397(16)
H4 H 0.18570 0.36530 0.16900
O1 O 0.11471(15) 0.04393(14) 0.10761(15)
N3 N 0.00000 0.00000 0.10814(19)
N1A N 0.49580(14) 0.78369(14) 0.08475(12)
N2A N 0.69134(18) 0.90852(15) 0.05174(17)
H1A H 0.77070 0.95080 0.05690
C1A C 0.5044(2) 0.8293(2) -0.00051(19)
H2A H 0.43760 0.81020 -0.03730
C2A C 0.6260(3) 0.9058(2) -0.0211(2)
H3A H 0.65800 0.94760 -0.07370
C3A C 0.61182(19) 0.83420(17) 0.11397(16)
H4A H 0.63470 0.82040 0.16900
N1B N 0.21631(14) 0.71211(14) 0.08475(12)
N2B N 0.09148(18) 0.78282(15) 0.05174(17)
H1B H 0.04920 0.81990 0.05690
C1B C 0.1707(2) 0.6751(2) -0.00051(19)
H2B H 0.18980 0.62740 -0.03730
C2B C 0.0942(3) 0.7202(2) -0.0211(2)
H3B H 0.05240 0.71040 -0.07370
C3B C 0.16580(19) 0.77762(17) 0.11397(16)
H4B H 0.17960 0.81430 0.16900
N1O N 0.378777(140) 0.829133(140) 0.248583(120)
N2O N 0.449487(180) 1.024673(150) 0.281593(170)
H1O H 0.48657 1.10403 0.27643
C1O C 0.341767(200) 0.837733(200) 0.333843(190)
H2O H 0.29407 0.77093 0.37063
C2O C 0.386867(300) 0.959333(200) 0.354433(200)
H3O H 0.37707 0.99133 0.40703
C3O C 0.444287(190) 0.945153(170) 0.219363(160)
H4O H 0.48097 0.96803 0.16433
N1P N 0.170867(140) 0.549643(140) 0.248583(120)
N2P N -0.024673(180) 0.424813(150) 0.281593(170)
H1P H -0.10403 0.38253 0.27643
C1P C 0.162267(200) 0.504033(200) 0.333843(190)
H2P H 0.22907 0.52313 0.37063
C2P C 0.040667(300) 0.427533(200) 0.354433(200)
H3P H 0.00867 0.38573 0.40703
C3P C 0.054847(190) 0.499133(170) 0.219363(160)
H4P H 0.03197 0.51293 0.16433
N1Q N 0.450357(140) 0.621223(140) 0.248583(120)
N2Q N 0.575187(180) 0.550513(150) 0.281593(170)
H1Q H 0.61747 0.51343 0.27643
C1Q C 0.495967(200) 0.658233(200) 0.333843(190)
H2Q H 0.47687 0.70593 0.37063
C2Q C 0.572467(300) 0.613133(200) 0.354433(200)
H3Q H 0.61427 0.62293 0.40703
C3Q C 0.500867(190) 0.555713(170) 0.219363(160)
H4Q H 0.48707 0.51903 0.16433
O1A O -0.04393(15) 0.07078(14) 0.10761(15)
O1B O -0.07078(15) -0.11471(14) 0.10761(15)
#END
