
#######################################################################
#
#                 Cambridge Crystallographic Data Centre
#                                CCDC
#
#######################################################################
#
# If this CIF has been generated from an entry in the Cambridge
# Structural Database, then it will include bibliographic, chemical,
# crystal, experimental, refinement or atomic coordinate data resulting
# from the CCDC's data processing and validation procedures.
#
#######################################################################

data_CSD_CIF_DMAZCO04
_audit_creation_date 2018-01-31
_audit_creation_method CSD-ConQuest-V1
_database_code_CSD DMAZCO04
_database_code_depnum_ccdc_archive 'CCDC 1583132'
_chemical_formula_sum 'C18 H24 Co1 N14 O6'
_chemical_formula_moiety
;
C18 H24 Co1 N12 2+,2(N1 O3 1-)
;
_journal_coden_Cambridge 222
_journal_volume 47
_journal_year 2018
_journal_page_first 2506
_journal_name_full 'Dalton Trans. '
loop_
_publ_author_name
"Lei Chen"
"Jianjun Zhou"
"Hui-Hui Cui"
"Ai-Hua Yuan"
"Zhenxing Wang"
"Yi-Quan Zhang"
"Zhong-Wen Ouyang"
"You Song"
_chemical_name_systematic
;
hexakis(1H-imidazole)-cobalt(ii) dinitrate
;
_cell_volume   1926.097
_exptl_crystal_density_diffrn 1.53
_exptl_crystal_description 'block'
_diffrn_ambient_temperature 123
#These two values have been output from a single CSD field.
_refine_ls_R_factor_gt 0.0235
_refine_ls_wR_factor_gt 0.0235
_symmetry_cell_setting rhombohedral
_symmetry_space_group_name_H-M 'R -3'
_symmetry_Int_Tables_number 148
loop_
_symmetry_equiv_pos_site_id
_symmetry_equiv_pos_as_xyz
1 x,y,z
2 -y,x-y,z
3 -x+y,-x,z
4 2/3+x,1/3+y,1/3+z
5 2/3-y,1/3+x-y,1/3+z
6 2/3-x+y,1/3-x,1/3+z
7 1/3+x,2/3+y,2/3+z
8 1/3-y,2/3+x-y,2/3+z
9 1/3-x+y,2/3-x,2/3+z
10 -x,-y,-z
11 y,-x+y,-z
12 x-y,x,-z
13 -2/3-x,-1/3-y,-1/3-z
14 -2/3+y,-1/3-x+y,-1/3-z
15 -2/3+x-y,-1/3+x,-1/3-z
16 -1/3-x,-2/3-y,-2/3-z
17 -1/3+y,-2/3-x+y,-2/3-z
18 -1/3+x-y,-2/3+x,-2/3-z
_cell_length_a 12.3648(12)
_cell_length_b 12.3648(12)
_cell_length_c 14.547(3)
_cell_angle_alpha 90
_cell_angle_beta 90
_cell_angle_gamma 120
_cell_formula_units_Z 3
loop_
_atom_type_symbol
_atom_type_radius_bond
C 0.68
H 0.23
Co 1.26
N 0.68
O 0.68
loop_
_atom_site_label
_atom_site_type_symbol
_atom_site_fract_x
_atom_site_fract_y
_atom_site_fract_z
Co1 Co 0.33333 0.66667 0.16667
N1 N 0.21673(9) 0.50438(9) 0.08356(7)
N2 N 0.08723(11) 0.30634(10) 0.05177(8)
H1 H 0.04352 0.22666 0.05837
C1 C 0.16981(13) 0.49484(12) -0.00408(9)
H2 H 0.18929 0.56171 -0.04312
C2 C 0.09073(15) 0.37264(13) -0.02453(11)
H3 H 0.04771 0.34062 -0.07934
C3 C 0.16424(11) 0.38803(11) 0.11432(8)
H4 H 0.17904 0.36591 0.17210
N3 N 0.00000 0.00000 0.10657(11)
O1 O 0.11609(8) 0.07025(9) 0.10638(7)
N1A N 0.49562(9) 0.71235(9) 0.08356(7)
N2A N 0.69366(11) 0.78089(10) 0.05177(8)
H1A H 0.77334 0.81686 0.05837
C1A C 0.50516(13) 0.67497(12) -0.00408(9)
H2A H 0.43829 0.62759 -0.04312
C2A C 0.62736(15) 0.71809(13) -0.02453(11)
H3A H 0.65938 0.70709 -0.07934
C3A C 0.61197(11) 0.77621(11) 0.11432(8)
H4A H 0.63409 0.81313 0.17210
N1B N 0.28765(9) 0.78327(9) 0.08356(7)
N2B N 0.21911(11) 0.91277(10) 0.05177(8)
H1B H 0.18314 0.95648 0.05837
C1B C 0.32503(13) 0.83019(12) -0.00408(9)
H2B H 0.37241 0.81071 -0.04312
C2B C 0.28191(15) 0.90927(13) -0.02453(11)
H3B H 0.29291 0.95229 -0.07934
C3B C 0.22379(11) 0.83576(11) 0.11432(8)
H4B H 0.18687 0.82095 0.17210
N1O N 0.449937(90) 0.828953(90) 0.249773(70)
N2O N 0.579437(110) 1.026993(100) 0.281563(80)
H1O H 0.62315 1.10668 0.27496
C1O C 0.496857(130) 0.838493(120) 0.337413(90)
H2O H 0.47737 0.77163 0.37646
C2O C 0.575937(150) 0.960693(130) 0.357863(110)
H3O H 0.61895 0.99271 0.41268
C3O C 0.502427(110) 0.945303(110) 0.219013(80)
H4O H 0.48762 0.96742 0.16123
N1P N 0.171047(90) 0.620983(90) 0.249773(70)
N2P N -0.026993(110) 0.552443(100) 0.281563(80)
H1P H -0.10668 0.51647 0.27496
C1P C 0.161507(130) 0.658363(120) 0.337413(90)
H2P H 0.22837 0.70574 0.37646
C2P C 0.039307(150) 0.615243(130) 0.357863(110)
H3P H 0.00729 0.62624 0.41268
C3P C 0.054697(110) 0.557123(110) 0.219013(80)
H4P H 0.03258 0.52020 0.16123
N1Q N 0.379017(90) 0.550063(90) 0.249773(70)
N2Q N 0.447557(110) 0.420563(100) 0.281563(80)
H1Q H 0.48353 0.37685 0.27496
C1Q C 0.341637(130) 0.503143(120) 0.337413(90)
H2Q H 0.29426 0.52263 0.37646
C2Q C 0.384757(150) 0.424063(130) 0.357863(110)
H3Q H 0.37376 0.38105 0.41268
C3Q C 0.442877(110) 0.497573(110) 0.219013(80)
H4Q H 0.47980 0.51238 0.16123
O1A O -0.07025(8) 0.04584(9) 0.10638(7)
O1B O -0.04584(8) -0.11609(9) 0.10638(7)
#END
