
#######################################################################
#
#                 Cambridge Crystallographic Data Centre
#                                CCDC
#
#######################################################################
#
# If this CIF has been generated from an entry in the Cambridge
# Structural Database, then it will include bibliographic, chemical,
# crystal, experimental, refinement or atomic coordinate data resulting
# from the CCDC's data processing and validation procedures.
#
#######################################################################

data_CSD_CIF_DMAZCO
_audit_creation_date 1972-11-03
_audit_creation_method CSD-ConQuest-V1
_database_code_CSD DMAZCO
_database_code_depnum_ccdc_archive 'CCDC 1142518'
_chemical_formula_sum 'C18 H24 Co1 N14 O6'
_chemical_formula_moiety
;
C18 H24 Co1 N12 2+,2(N1 O3 1-)
;
_journal_coden_Cambridge 189
_journal_volume 1
_journal_year 1972
_journal_page_first 247
_journal_name_full 'Cryst.Struct.Commun. '
loop_
_publ_author_name
"E.Prince"
"A.D.Mighell"
"C.W.Reimann"
"A.Santoro"
_chemical_name_systematic
;
hexakis(Imidazole)-cobalt(ii) dinitrate
;
_cell_volume   1979.584
_exptl_special_details
;
THE A CELL PARAMETER IS GIVEN IN ERRATUM AS 12.393 ANGSTROMS, NOT 12.343 
ANGSTROMS
;
_diffrn_ambient_temperature ?
_diffrn_special_details
;
The study was carried out at room temperature,in the range 283-303K

;
#These two values have been output from a single CSD field.
_refine_ls_R_factor_gt 0.033
_refine_ls_wR_factor_gt 0.033
_symmetry_cell_setting rhombohedral
_symmetry_space_group_name_H-M 'R -3'
_symmetry_Int_Tables_number 148
loop_
_symmetry_equiv_pos_site_id
_symmetry_equiv_pos_as_xyz
1 x,y,z
2 1/3+x,2/3+y,2/3+z
3 2/3+x,1/3+y,1/3+z
4 -y,x-y,z
5 -x+y,-x,z
6 1/3-y,2/3+x-y,2/3+z
7 1/3-x+y,2/3-x,2/3+z
8 2/3-y,1/3+x-y,1/3+z
9 2/3-x+y,1/3-x,1/3+z
10 -x,-y,-z
11 -1/3-x,-2/3-y,-2/3-z
12 -2/3-x,-1/3-y,-1/3-z
13 y,-x+y,-z
14 x-y,x,-z
15 -1/3+y,-2/3-x+y,-2/3-z
16 -1/3+x-y,-2/3+x,-2/3-z
17 -2/3+y,-1/3-x+y,-1/3-z
18 -2/3+x-y,-1/3+x,-1/3-z
_cell_length_a 12.393(2)
_cell_length_b 12.393(2)
_cell_length_c 14.883(9)
_cell_angle_alpha 90
_cell_angle_beta 90
_cell_angle_gamma 120
_cell_formula_units_Z 3
loop_
_atom_type_symbol
_atom_type_radius_bond
C 0.68
H 0.23
Co 1.33
N 0.68
O 0.68
loop_
_atom_site_label
_atom_site_type_symbol
_atom_site_fract_x
_atom_site_fract_y
_atom_site_fract_z
Co1 Co 0.00000 0.00000 0.00000
C1 C 0.11210 0.27820 0.05260
C2 C 0.05270 0.29190 0.18750
C3 C 0.00810 0.17050 0.16670
H1 H 0.14990 0.30350 -0.00780
H2 H 0.03810 0.32910 0.24660
H3 H -0.04270 0.09410 0.20140
H4 H 0.15430 0.43310 0.11000
N1 N 0.04550 0.16180 0.08120
N2 N 0.11690 0.35850 0.11440
N3 N 0.00000 0.00000 0.39150
O1 O 0.07100 0.11390 0.39200
N1I N -0.04550 -0.16180 -0.08120
N1C N -0.16180 -0.11630 0.08120
N1L N 0.16180 0.11630 -0.08120
N1D N 0.11630 -0.04550 0.08120
N1M N -0.11630 0.04550 -0.08120
C1I C -0.11210 -0.27820 -0.05260
C3I C -0.00810 -0.17050 -0.16670
C1C C -0.27820 -0.16610 0.05260
C3C C -0.17050 -0.16240 0.16670
C1L C 0.27820 0.16610 -0.05260
C3L C 0.17050 0.16240 -0.16670
C1D C 0.16610 -0.11210 0.05260
C3D C 0.16240 -0.00810 0.16670
C1M C -0.16610 0.11210 -0.05260
C3M C -0.16240 0.00810 -0.16670
H1I H -0.14990 -0.30350 0.00780
N2I N -0.11690 -0.35850 -0.11440
C2I C -0.05270 -0.29190 -0.18750
H3I H 0.04270 -0.09410 -0.20140
H1C H -0.30350 -0.15360 -0.00780
N2C N -0.35850 -0.24160 0.11440
C2C C -0.29190 -0.23920 0.18750
H3C H -0.09410 -0.13680 0.20140
H1L H 0.30350 0.15360 0.00780
N2L N 0.35850 0.24160 -0.11440
C2L C 0.29190 0.23920 -0.18750
H3L H 0.09410 0.13680 -0.20140
H1D H 0.15360 -0.14990 -0.00780
N2D N 0.24160 -0.11690 0.11440
C2D C 0.23920 -0.05270 0.18750
H3D H 0.13680 0.04270 0.20140
H1M H -0.15360 0.14990 0.00780
N2M N -0.24160 0.11690 -0.11440
C2M C -0.23920 0.05270 -0.18750
H3M H -0.13680 -0.04270 -0.20140
H4I H -0.15430 -0.43310 -0.11000
H2I H -0.03810 -0.32910 -0.24660
H4C H -0.43310 -0.27880 0.11000
H2C H -0.32910 -0.29100 0.24660
H4L H 0.43310 0.27880 -0.11000
H2L H 0.32910 0.29100 -0.24660
H4D H 0.27880 -0.15430 0.11000
H2D H 0.29100 -0.03810 0.24660
H4M H -0.27880 0.15430 -0.11000
H2M H -0.29100 0.03810 -0.24660
O1C O -0.11390 -0.04290 0.39200
O1D O 0.04290 -0.07100 0.39200
#END
