
#######################################################################
#
#                 Cambridge Crystallographic Data Centre
#                                CCDC
#
#######################################################################
#
# If this CIF has been generated from an entry in the Cambridge
# Structural Database, then it will include bibliographic, chemical,
# crystal, experimental, refinement or atomic coordinate data resulting
# from the CCDC's data processing and validation procedures.
#
#######################################################################

data_CSD_CIF_DMCPMN
_audit_creation_date 1979-10-24
_audit_creation_method CSD-ConQuest-V1
_database_code_CSD DMCPMN
_chemical_formula_sum 'C20 H30 Mn1'
_chemical_formula_moiety
;
C20 H30 Mn1
;
_journal_coden_Cambridge 4
_journal_volume 101
_journal_year 1979
_journal_page_first 892
_journal_name_full 'J.Am.Chem.Soc. '
loop_
_publ_author_name
"D.P.Freyberg"
"J.L.Robbins"
"K.N.Raymond"
"J.C.Smart"
_chemical_name_systematic
;
Decamethyl-manganocene
;
_cell_volume   1834.475
_exptl_crystal_density_diffrn 1.18
_exptl_special_details
;
monoclinic polymorph

;
_diffrn_ambient_temperature ?
_diffrn_special_details
;
The study was carried out at room temperature,in the range 283-303K

;
#These two values have been output from a single CSD field.
_refine_ls_R_factor_gt 0.036
_refine_ls_wR_factor_gt 0.036
_symmetry_cell_setting monoclinic
_symmetry_space_group_name_H-M 'C 2/c'
_symmetry_Int_Tables_number 15
loop_
_symmetry_equiv_pos_site_id
_symmetry_equiv_pos_as_xyz
1 x,y,z
2 1/2+x,1/2+y,z
3 -x,y,1/2-z
4 1/2-x,1/2+y,1/2-z
5 -x,-y,-z
6 -1/2-x,-1/2-y,-z
7 x,-y,-1/2+z
8 -1/2+x,-1/2-y,-1/2+z
_cell_length_a 15.143(4)
_cell_length_b 12.248(3)
_cell_length_c 9.910(3)
_cell_angle_alpha 90
_cell_angle_beta 93.56(3)
_cell_angle_gamma 90
_cell_formula_units_Z 4
loop_
_atom_type_symbol
_atom_type_radius_bond
C 0.68
H 0.23
Mn 1.35
loop_
_atom_site_label
_atom_site_type_symbol
_atom_site_fract_x
_atom_site_fract_y
_atom_site_fract_z
Mn1 Mn 0.25000 0.25000 0.00000
C1 C 0.16390 0.35760 0.09550
C2 C 0.20480 0.28550 0.19180
C3 C 0.29730 0.30060 0.19450
C4 C 0.31400 0.38400 0.09790
C5 C 0.23100 0.41830 0.03770
C6 C 0.06590 0.37150 0.06550
C7 C 0.15740 0.20900 0.28150
C8 C 0.36430 0.24400 0.28820
C9 C 0.40390 0.42950 0.07110
C10 C 0.21750 0.50660 -0.06620
H1 H 0.04400 0.43500 0.11100
H2 H 0.05200 0.37700 -0.03200
H3 H 0.03500 0.30500 0.09800
H4 H 0.09800 0.19200 0.24100
H5 H 0.19200 0.14000 0.29200
H6 H 0.15200 0.24200 0.37100
H7 H 0.42000 0.23500 0.24600
H8 H 0.37300 0.28500 0.37200
H9 H 0.34100 0.17000 0.31000
H10 H 0.41600 0.49700 0.12300
H11 H 0.45100 0.35800 0.09900
H12 H 0.40800 0.44600 -0.02500
H13 H 0.27400 0.52100 -0.10800
H14 H 0.17300 0.48500 -0.13700
H15 H 0.19900 0.57500 -0.02400
C1E C 0.33610 0.14240 -0.09550
C2E C 0.29520 0.21450 -0.19180
C3E C 0.20270 0.19940 -0.19450
C4E C 0.18600 0.11600 -0.09790
C5E C 0.26900 0.08170 -0.03770
C6E C 0.43410 0.12850 -0.06550
C7E C 0.34260 0.29100 -0.28150
C8E C 0.13570 0.25600 -0.28820
C9E C 0.09610 0.07050 -0.07110
C10E C 0.28250 -0.00660 0.06620
H1E H 0.45600 0.06500 -0.11100
H2E H 0.44800 0.12300 0.03200
H3E H 0.46500 0.19500 -0.09800
H4E H 0.40200 0.30800 -0.24100
H5E H 0.30800 0.36000 -0.29200
H6E H 0.34800 0.25800 -0.37100
H7E H 0.08000 0.26500 -0.24600
H8E H 0.12700 0.21500 -0.37200
H9E H 0.15900 0.33000 -0.31000
H10E H 0.08400 0.00300 -0.12300
H11E H 0.04900 0.14200 -0.09900
H12E H 0.09200 0.05400 0.02500
H13E H 0.22600 -0.02100 0.10800
H14E H 0.32700 0.01500 0.13700
H15E H 0.30100 -0.07500 0.02400
#END
