
#######################################################################
#
#                 Cambridge Crystallographic Data Centre
#                                CCDC
#
#######################################################################
#
# If this CIF has been generated from an entry in the Cambridge
# Structural Database, then it will include bibliographic, chemical,
# crystal, experimental, refinement or atomic coordinate data resulting
# from the CCDC's data processing and validation procedures.
#
#######################################################################

data_CSD_CIF_DMCPMN01
_audit_creation_date 1992-04-28
_audit_creation_method CSD-ConQuest-V1
_database_code_CSD DMCPMN01
_chemical_formula_sum 'C20 H30 Mn1'
_chemical_formula_moiety
;
C20 H30 Mn1
;
_journal_coden_Cambridge 29
_journal_volume 595
_journal_year 1991
_journal_page_first 27
_journal_name_full 'Z.Anorg.Allg.Chem. '
loop_
_publ_author_name
"N.Augart"
"R.Boese"
"G.Schmid"
_chemical_name_systematic
;
Decamethylmanganocene
;
_cell_volume   1766.000
_exptl_crystal_density_diffrn 1.224
_exptl_special_details
;
orthorhombic polymorph
A reversible phase transition occurs between 255 and 238K
;
_diffrn_ambient_temperature 125
#These two values have been output from a single CSD field.
_refine_ls_R_factor_gt 0.035
_refine_ls_wR_factor_gt 0.035
_symmetry_cell_setting orthorhombic
_symmetry_space_group_name_H-M 'C m c a'
_symmetry_Int_Tables_number 64
loop_
_symmetry_equiv_pos_site_id
_symmetry_equiv_pos_as_xyz
1 x,y,z
2 1/2+x,1/2+y,z
3 -x,y,z
4 1/2-x,1/2+y,z
5 x,1/2-y,1/2+z
6 1/2+x,-y,1/2+z
7 -x,1/2-y,1/2+z
8 1/2-x,-y,1/2+z
9 -x,-y,-z
10 -1/2-x,-1/2-y,-z
11 x,-y,-z
12 -1/2+x,-1/2-y,-z
13 -x,-1/2+y,-1/2-z
14 -1/2-x,y,-1/2-z
15 x,-1/2+y,-1/2-z
16 -1/2+x,y,-1/2-z
_cell_length_a 15.111(5)
_cell_length_b 11.601(2)
_cell_length_c 10.074(2)
_cell_angle_alpha 90
_cell_angle_beta 90
_cell_angle_gamma 90
_cell_formula_units_Z 4
loop_
_atom_type_symbol
_atom_type_radius_bond
C 0.68
H 0.23
Mn 1.35
loop_
_atom_site_label
_atom_site_type_symbol
_atom_site_fract_x
_atom_site_fract_y
_atom_site_fract_z
Mn1 Mn 0.00000 0.50000 0.00000
C1 C 0.0475(1) 0.4636(1) 0.1920(2)
C2 C 0.0763(1) 0.3757(1) 0.1028(2)
C3 C 0.00000 0.3218(2) 0.0476(2)
C4 C 0.1054(1) 0.5385(2) 0.2762(2)
C5 C 0.1704(1) 0.3432(2) 0.0765(2)
C6 C 0.00000 0.2262(2) -0.0534(3)
H1 H 0.1157(20) 0.5016(18) 0.3549(34)
H2 H 0.1632(15) 0.5532(18) 0.2303(20)
H3 H 0.0766(16) 0.6131(20) 0.2929(21)
H4 H 0.1921(16) 0.2836(23) 0.1357(24)
H5 H 0.1813(22) 0.3232(27) -0.0139(27)
H6 H 0.2073(16) 0.4005(23) 0.0765(26)
H7 H 0.0499(16) 0.2277(24) -0.1120(23)
H8 H 0.00000 0.1584(43) -0.0143(33)
C1H C -0.0475(1) 0.5364(1) -0.1920(2)
C1B C -0.0475(1) 0.4636(1) 0.1920(2)
C1J C 0.0475(1) 0.5364(1) -0.1920(2)
C2H C -0.0763(1) 0.6243(1) -0.1028(2)
C2B C -0.0763(1) 0.3757(1) 0.1028(2)
C2J C 0.0763(1) 0.6243(1) -0.1028(2)
C3H C 0.00000 0.6782(2) -0.0476(2)
H7B H -0.0499(16) 0.2277(24) -0.1120(23)
C4H C -0.1054(1) 0.4615(2) -0.2762(2)
C4B C -0.1054(1) 0.5385(2) 0.2762(2)
C4J C 0.1054(1) 0.4615(2) -0.2762(2)
C5H C -0.1704(1) 0.6568(2) -0.0765(2)
C5B C -0.1704(1) 0.3432(2) 0.0765(2)
C5J C 0.1704(1) 0.6568(2) -0.0765(2)
C6H C 0.00000 0.7738(2) 0.0534(3)
H1H H -0.1157(20) 0.4984(18) -0.3549(34)
H2H H -0.1632(15) 0.4468(18) -0.2303(20)
H3H H -0.0766(16) 0.3869(20) -0.2929(21)
H1B H -0.1157(20) 0.5016(18) 0.3549(34)
H2B H -0.1632(15) 0.5532(18) 0.2303(20)
H3B H -0.0766(16) 0.6131(20) 0.2929(21)
H1J H 0.1157(20) 0.4984(18) -0.3549(34)
H2J H 0.1632(15) 0.4468(18) -0.2303(20)
H3J H 0.0766(16) 0.3869(20) -0.2929(21)
H4H H -0.1921(16) 0.7164(23) -0.1357(24)
H5H H -0.1813(22) 0.6768(27) 0.0139(27)
H6H H -0.2073(16) 0.5995(23) -0.0765(26)
H4B H -0.1921(16) 0.2836(23) 0.1357(24)
H5B H -0.1813(22) 0.3232(27) -0.0139(27)
H6B H -0.2073(16) 0.4005(23) 0.0765(26)
H4J H 0.1921(16) 0.7164(23) -0.1357(24)
H5J H 0.1813(22) 0.6768(27) 0.0139(27)
H6J H 0.2073(16) 0.5995(23) -0.0765(26)
H7H H -0.0499(16) 0.7723(24) 0.1120(23)
H7J H 0.0499(16) 0.7723(24) 0.1120(23)
H8H H 0.00000 0.8416(43) 0.0143(33)
#END
