
#######################################################################
#
#                 Cambridge Crystallographic Data Centre
#                                CCDC
#
#######################################################################
#
# If this CIF has been generated from an entry in the Cambridge
# Structural Database, then it will include bibliographic, chemical,
# crystal, experimental, refinement or atomic coordinate data resulting
# from the CCDC's data processing and validation procedures.
#
#######################################################################

data_CSD_CIF_DMPYCR20
_audit_creation_date 1977-05-06
_audit_creation_method CSD-ConQuest-V1
_database_code_CSD DMPYCR20
_chemical_formula_sum 'C14 H18 Cr1 N2'
_chemical_formula_moiety
;
C14 H18 Cr1 N2
;
_journal_coden_Cambridge 9
_journal_volume 15
_journal_year 1976
_journal_page_first 2735
_journal_name_full 'Inorg.Chem. '
loop_
_publ_author_name
"P.E.Riley"
"R.E.Davis"
_chemical_name_systematic
;
bis(\p-2,6-Dimethylpyridine) chromium
;
_cell_volume    320.153
_exptl_crystal_density_diffrn 1.392
_exptl_special_details
;
triclinic polymorph
Decomposes in air

;
_diffrn_ambient_temperature 238.15
#These two values have been output from a single CSD field.
_refine_ls_R_factor_gt 0.086
_refine_ls_wR_factor_gt 0.086
_symmetry_cell_setting triclinic
_symmetry_space_group_name_H-M 'P -1'
_symmetry_Int_Tables_number 2
loop_
_symmetry_equiv_pos_site_id
_symmetry_equiv_pos_as_xyz
1 x,y,z
2 -x,-y,-z
_cell_length_a 7.307(1)
_cell_length_b 8.242(2)
_cell_length_c 6.316(2)
_cell_angle_alpha 112.50(3)
_cell_angle_beta 104.01(2)
_cell_angle_gamma 102.46(2)
_cell_formula_units_Z 1
loop_
_atom_type_symbol
_atom_type_radius_bond
C 0.68
H 0.23
Cr 1.35
N 0.68
loop_
_atom_site_label
_atom_site_type_symbol
_atom_site_fract_x
_atom_site_fract_y
_atom_site_fract_z
Cr1 Cr 0.00000 0.00000 0.00000
N1 N 0.24500 0.08500 0.33400
C1 C 0.26500 -0.22700 0.19600
C2 C 0.25100 -0.06900 0.14100
C3 C 0.25000 -0.06700 -0.07800
C4 C 0.24000 0.08600 -0.12000
C5 C 0.23600 0.24200 0.07900
C6 C 0.23700 0.23700 0.29400
C7 C 0.23500 0.40200 0.50900
H1 H 0.26900 -0.14500 -0.20000
H2 H 0.22500 0.07600 -0.27600
H3 H 0.22200 0.34000 0.02900
H4 H 0.20700 -0.34300 0.04900
H5 H 0.40000 -0.21000 0.27600
H6 H 0.19200 -0.23400 0.30300
H7 H 0.16800 0.47300 0.45100
H8 H 0.16400 0.35900 0.59800
H9 H 0.36800 0.48100 0.61800
N1A N -0.24500 -0.08500 -0.33400
C2A C -0.25100 0.06900 -0.14100
C3A C -0.25000 0.06700 0.07800
C4A C -0.24000 -0.08600 0.12000
C5A C -0.23600 -0.24200 -0.07900
C6A C -0.23700 -0.23700 -0.29400
C1A C -0.26500 0.22700 -0.19600
H1A H -0.26900 0.14500 0.20000
H2A H -0.22500 -0.07600 0.27600
H3A H -0.22200 -0.34000 -0.02900
C7A C -0.23500 -0.40200 -0.50900
H4A H -0.20700 0.34300 -0.04900
H5A H -0.40000 0.21000 -0.27600
H6A H -0.19200 0.23400 -0.30300
H7A H -0.16800 -0.47300 -0.45100
H8A H -0.16400 -0.35900 -0.59800
H9A H -0.36800 -0.48100 -0.61800
#END
