
#######################################################################
#
#                 Cambridge Crystallographic Data Centre
#                                CCDC
#
#######################################################################
#
# If this CIF has been generated from an entry in the Cambridge
# Structural Database, then it will include bibliographic, chemical,
# crystal, experimental, refinement or atomic coordinate data resulting
# from the CCDC's data processing and validation procedures.
#
#######################################################################

data_CSD_CIF_DOBYOK
_audit_creation_date 2014-05-05
_audit_creation_method CSD-ConQuest-V1
_database_code_CSD DOBYOK
_database_code_depnum_ccdc_archive 'CCDC 1000936'
_chemical_formula_sum 'C28 H56 Cr1 N2 O2'
_chemical_formula_moiety
;
C28 H56 Cr1 N2 O2
;
_journal_coden_Cambridge 4
_journal_volume 135
_journal_year 2013
_journal_page_first 12588
_journal_name_full 'J.Am.Chem.Soc. '
loop_
_publ_author_name
"L.C.Kalutarage"
"P.D.Martin"
"Mary Jane Heeg"
"C.H.Winter"
_chemical_name_systematic
;
bis(3-((t-butylimino)methyl)-2,2,4,4-tetramethylpentan-3-olato)-chromium(ii)
;
_cell_volume    733.642
_exptl_crystal_density_diffrn 1.154
_diffrn_ambient_temperature 100
#These two values have been output from a single CSD field.
_refine_ls_R_factor_gt 0.0303
_refine_ls_wR_factor_gt 0.0303
_symmetry_cell_setting triclinic
_symmetry_space_group_name_H-M 'P 1'
_symmetry_Int_Tables_number 1
loop_
_symmetry_equiv_pos_site_id
_symmetry_equiv_pos_as_xyz
1 x,y,z
_cell_length_a 7.7205(8)
_cell_length_b 9.8256(11)
_cell_length_c 10.5948(12)
_cell_angle_alpha 80.459(5)
_cell_angle_beta 76.204(5)
_cell_angle_gamma 70.773(5)
_cell_formula_units_Z 1
loop_
_atom_type_symbol
_atom_type_radius_bond
C 0.68
H 0.23
Cr 1.39
N 0.68
O 0.68
loop_
_atom_site_label
_atom_site_type_symbol
_atom_site_fract_x
_atom_site_fract_y
_atom_site_fract_z
Cr1 Cr 0.43359(6) 0.44508(5) 0.62255(4)
C1 C 0.9187(3) 0.2540(3) 0.5233(2)
H1 H 0.94970 0.34260 0.52500
H2 H 1.03420 0.17450 0.50200
H3 H 0.84790 0.22940 0.60910
O1 O 0.5222(2) 0.25982(16) 0.72170(14)
C2 C 0.3148(3) 0.6642(2) 0.29658(19)
C3 C 0.5222(3) 0.7864(2) 0.39590(19)
O2 O 0.3460(2) 0.63138(16) 0.52367(14)
C4 C 0.2546(3) 0.3679(2) 0.87806(19)
C5 C 0.5539(3) 0.2237(2) 0.9482(2)
C6 C 0.0663(3) 0.6114(2) 0.8246(2)
N1 N 0.6385(2) 0.41088(19) 0.44882(16)
C7 C 0.6116(3) 0.5236(2) 0.36724(18)
H4 H 0.69790 0.52530 0.28680
C8 C 0.4436(3) 0.6538(2) 0.39814(18)
C9 C 0.1502(3) 0.8046(3) 0.3032(2)
H5 H 0.19660 0.88690 0.26460
H6 H 0.08890 0.81790 0.39450
H7 H 0.06010 0.79860 0.25460
C10 C 0.4176(3) 0.6508(3) 0.1535(2)
H8 H 0.33070 0.64890 0.10020
H9 H 0.52250 0.56110 0.14780
H10 H 0.46500 0.73380 0.12130
C11 C 0.2282(3) 0.5398(3) 0.3372(2)
H11 H 0.16160 0.54450 0.42830
H12 H 0.32750 0.44710 0.32830
H13 H 0.14030 0.54840 0.28100
C12 C 0.6681(3) 0.7345(3) 0.4854(2)
H14 H 0.69620 0.81820 0.50490
H15 H 0.78290 0.66750 0.44100
H16 H 0.61740 0.68510 0.56690
C13 C 0.3701(4) 0.9172(3) 0.4534(2)
H17 H 0.30120 0.88600 0.53750
H18 H 0.28370 0.96200 0.39340
H19 H 0.42770 0.98770 0.46650
C14 C 0.6217(4) 0.8363(3) 0.2615(2)
H20 H 0.53610 0.86420 0.20020
H21 H 0.73210 0.75710 0.22950
H22 H 0.66060 0.91960 0.26900
C15 C 0.7998(3) 0.2782(2) 0.4196(2)
C16 C 0.7179(4) 0.1538(2) 0.4339(2)
H23 H 0.65290 0.14010 0.52440
H24 H 0.81890 0.06490 0.41130
H25 H 0.62920 0.17630 0.37530
C17 C 0.9210(3) 0.2894(3) 0.2836(2)
H26 H 0.84890 0.29420 0.21750
H27 H 1.03210 0.20410 0.27490
H28 H 0.95970 0.37690 0.27120
N2 N 0.2295(2) 0.48026(18) 0.79604(16)
C18 C 0.4240(3) 0.2360(2) 0.84685(18)
C19 C 0.3434(3) 0.1052(2) 0.84935(19)
C20 C 0.2012(3) 0.1550(3) 0.7596(2)
H29 H 0.14520 0.07820 0.76180
H30 H 0.26440 0.17600 0.67010
H31 H 0.10300 0.24250 0.78930
C21 C 0.4997(3) -0.0279(2) 0.7926(2)
H32 H 0.55830 -0.08990 0.86300
H33 H 0.59420 0.00490 0.72670
H34 H 0.44550 -0.08280 0.75220
C22 C 0.2472(3) 0.0530(3) 0.9840(2)
H35 H 0.17600 -0.00910 0.97350
H36 H 0.16210 0.13680 1.02900
H37 H 0.34200 -0.00200 1.03570
C23 C 0.6369(4) 0.3519(3) 0.9089(2)
H38 H 0.53590 0.44230 0.89900
H39 H 0.72690 0.33690 0.82600
H40 H 0.70030 0.35750 0.97680
C24 C 0.7171(3) 0.0844(3) 0.9424(3)
H41 H 0.77320 0.06690 0.85100
H42 H 0.67190 0.00320 0.98680
H43 H 0.81120 0.09330 0.98570
C25 C 0.4509(4) 0.2396(3) 1.0915(2)
H44 H 0.54260 0.21820 1.14760
H45 H 0.37700 0.17170 1.11820
H46 H 0.36760 0.33880 1.09960
C26 C -0.0548(4) 0.6013(3) 0.9607(2)
H47 H -0.11700 0.52750 0.96680
H48 H -0.14930 0.69520 0.97630
H49 H 0.02420 0.57480 1.02630
C27 C 0.1491(4) 0.7363(2) 0.8125(2)
H50 H 0.20830 0.72610 0.88720
H51 H 0.04910 0.82880 0.81130
H52 H 0.24280 0.73380 0.73150
C28 C -0.0497(3) 0.6351(3) 0.7208(2)
H53 H 0.03200 0.63110 0.63420
H54 H -0.14500 0.73000 0.72590
H55 H -0.11090 0.55930 0.73530
#END
