
#######################################################################
#
#                 Cambridge Crystallographic Data Centre
#                                CCDC
#
#######################################################################
#
# If this CIF has been generated from an entry in the Cambridge
# Structural Database, then it will include bibliographic, chemical,
# crystal, experimental, refinement or atomic coordinate data resulting
# from the CCDC's data processing and validation procedures.
#
#######################################################################

data_CSD_CIF_DOCRAR
_audit_creation_date 2019-04-06
_audit_creation_method CSD-ConQuest-V1
_database_code_CSD DOCRAR
_database_code_depnum_ccdc_archive 'CCDC 1895543'
_chemical_formula_sum 'C32 H12 F4 Fe1 N8'
_chemical_formula_moiety
;
C32 H12 F4 Fe1 N8
;
_journal_coden_Cambridge 119
_journal_volume 1189
_journal_year 2019
_journal_page_first 73
_journal_name_full 'J.Mol.Struct. '
loop_
_publ_author_name
"D.D.Klyamer"
"T.V.Basova"
"P.O.Krasnov"
"A.S.Sukhikh"
_chemical_name_systematic
;
[2,9,16,23-tetrafluoro-29H,31H-phthalocyaninato]-iron(ii)
;
_cell_volume    597.768
_exptl_crystal_colour 'metallic dark blue'
_exptl_crystal_density_diffrn 1.779
_exptl_crystal_description 'needle'
_exptl_crystal_preparation 'sublimation in vacuum at 440C'
_diffrn_ambient_temperature 150
_refine_special_details
;
F2 and F1 disordered over two sites with occupancies 0.503:0.497; F4 and F3 
disordered over two sites with occupancies 0.544:0.456.
;
#These two values have been output from a single CSD field.
_refine_ls_R_factor_gt 0.0482
_refine_ls_wR_factor_gt 0.0482
_symmetry_cell_setting triclinic
_symmetry_space_group_name_H-M 'P -1'
_symmetry_Int_Tables_number 2
loop_
_symmetry_equiv_pos_site_id
_symmetry_equiv_pos_as_xyz
1 x,y,z
2 -x,-y,-z
_cell_length_a 3.6490(2)
_cell_length_b 12.3655(7)
_cell_length_c 13.3132(9)
_cell_angle_alpha 88.690(2)
_cell_angle_beta 89.446(2)
_cell_angle_gamma 84.492(2)
_cell_formula_units_Z 1
loop_
_atom_type_symbol
_atom_type_radius_bond
C 0.68
H 0.23
F 0.64
Fe 1.52
N 0.68
loop_
_atom_site_label
_atom_site_type_symbol
_atom_site_fract_x
_atom_site_fract_y
_atom_site_fract_z
Fe1 Fe 0.00000 0.50000 0.50000
N1 N 0.0489(6) 0.42989(17) 0.37249(18)
N2 N -0.2723(6) 0.62392(17) 0.43706(18)
N3 N -0.2633(7) 0.56873(18) 0.26314(19)
N4 N 0.3868(7) 0.25813(19) 0.4199(2)
C1 C 0.0137(8) 0.3953(2) 0.2020(2)
C2 C 0.5342(8) 0.2542(2) 0.6829(2)
C3 C -0.0809(8) 0.4723(2) 0.2815(2)
C4 C 0.2232(8) 0.3279(2) 0.3539(2)
C5 C 0.4047(8) 0.2806(2) 0.5163(2)
C6 C 0.2049(8) 0.3049(2) 0.2477(2)
C7 C 0.5701(8) 0.2042(2) 0.5904(2)
C8 C -0.3458(8) 0.6385(2) 0.3356(2)
C9 C 0.7319(8) 0.0981(2) 0.5818(3)
H1 H 0.75583 0.06359 0.51868
C10 C 0.3359(9) 0.2149(2) 0.1920(3)
H2 H 0.46406 0.15236 0.22262
C11 C 0.6573(8) 0.2003(2) 0.7714(3)
H3 H 0.63215 0.23384 0.83496
C12 C 0.8174(8) 0.0955(3) 0.7610(3)
C13 C 0.8543(9) 0.0461(3) 0.6684(3)
H4 H 0.96829 -0.02610 0.66521
C14 C -0.0494(9) 0.4016(3) 0.1001(2)
H5 H -0.17668 0.46401 0.06912
C15 C 0.0815(9) 0.3128(3) 0.0457(3)
H6 H 0.04205 0.31387 -0.02475
C16 C 0.2700(9) 0.2214(3) 0.0905(3)
F1 F 0.9487(9) 0.0353(3) 0.8391(2)
F2 F 0.3949(11) 0.1423(3) 0.0259(3)
H7? H 0.90553 0.05569 0.81921
H8? H 0.35537 0.16190 0.04983
F3? F 0.0285(12) 0.3086(3) -0.0481(3)
F4? F 1.0297(11) -0.0499(3) 0.6702(3)
N1A N -0.0489(6) 0.57011(17) 0.62751(18)
N2A N 0.2723(6) 0.37608(17) 0.56294(18)
N3A N 0.2633(7) 0.43127(18) 0.73686(19)
N4A N -0.3868(7) 0.74187(19) 0.5801(2)
C1A C -0.0137(8) 0.6047(2) 0.7980(2)
C2A C -0.5342(8) 0.7458(2) 0.3171(2)
C3A C 0.0809(8) 0.5277(2) 0.7185(2)
C4A C -0.2232(8) 0.6721(2) 0.6461(2)
C5A C -0.4047(8) 0.7194(2) 0.4837(2)
C6A C -0.2049(8) 0.6951(2) 0.7523(2)
C7A C -0.5701(8) 0.7958(2) 0.4096(2)
C8A C 0.3458(8) 0.3615(2) 0.6644(2)
C9A C -0.7319(8) 0.9019(2) 0.4182(3)
H1A H -0.75583 0.93641 0.48132
C10A C -0.3359(9) 0.7851(2) 0.8080(3)
H2A H -0.46406 0.84764 0.77738
C11A C -0.6573(8) 0.7997(2) 0.2286(3)
H3A H -0.63215 0.76616 0.16504
C12A C -0.8174(8) 0.9045(3) 0.2390(3)
C13A C -0.8543(9) 0.9539(3) 0.3316(3)
H4A H -0.96829 1.02610 0.33479
C14A C 0.0494(9) 0.5984(3) 0.8999(2)
H5A H 0.17668 0.53599 0.93088
C15A C -0.0815(9) 0.6872(3) 0.9543(3)
H6A H -0.04205 0.68613 1.02475
C16A C -0.2700(9) 0.7786(3) 0.9095(3)
F1A F -0.9487(9) 0.9647(3) 0.1609(2)
F2A F -0.3949(11) 0.8577(3) 0.9741(3)
#END
