
#######################################################################
#
#                 Cambridge Crystallographic Data Centre
#                                CCDC
#
#######################################################################
#
# If this CIF has been generated from an entry in the Cambridge
# Structural Database, then it will include bibliographic, chemical,
# crystal, experimental, refinement or atomic coordinate data resulting
# from the CCDC's data processing and validation procedures.
#
#######################################################################

data_CSD_CIF_DOFGAH
_audit_creation_date 2009-02-19
_audit_creation_method CSD-ConQuest-V1
_database_code_CSD DOFGAH
_database_code_depnum_ccdc_archive 'CCDC 694810'
_chemical_formula_sum 'C14 H20 Cl2 Fe1 N2'
_chemical_formula_moiety
;
C14 H20 Cl2 Fe1 N2
;
_journal_coden_Cambridge 9
_journal_volume 47
_journal_year 2008
_journal_page_first 4579
_journal_name_full 'Inorg.Chem. '
loop_
_publ_author_name
"N.Muresan"
"C.C.Lu"
"M.Ghosh"
"J.C.Peters"
"M.Abe"
"L.M.Henling"
"T.Weyhermoller"
"E.Bill"
"K.Wieghardt"
_chemical_name_systematic
;
Dichloro-(2-phenyl-1,4-di-isopropyl-1,4-diazabuta-1,3-diene-N,N')-iron(ii)
;
_cell_volume    827.328
_exptl_crystal_colour 'pink'
_exptl_crystal_density_diffrn 1.377
_exptl_special_details
;
magnetic properties

;
_exptl_crystal_description 'parallelepiped'
_exptl_crystal_preparation 'thf'
_diffrn_ambient_temperature 100
#These two values have been output from a single CSD field.
_refine_ls_R_factor_gt 0.0291
_refine_ls_wR_factor_gt 0.0291
_symmetry_cell_setting triclinic
_symmetry_space_group_name_H-M 'P -1'
_symmetry_Int_Tables_number 2
loop_
_symmetry_equiv_pos_site_id
_symmetry_equiv_pos_as_xyz
1 x,y,z
2 -x,-y,-z
_cell_length_a 7.4721(3)
_cell_length_b 9.9945(5)
_cell_length_c 11.9345(5)
_cell_angle_alpha 71.501(3)
_cell_angle_beta 78.244(3)
_cell_angle_gamma 87.333(3)
_cell_formula_units_Z 2
loop_
_atom_type_symbol
_atom_type_radius_bond
C 0.68
H 0.23
Cl 0.99
Fe 1.34
N 0.68
loop_
_atom_site_label
_atom_site_type_symbol
_atom_site_fract_x
_atom_site_fract_y
_atom_site_fract_z
Fe1 Fe 0.833849(18) 0.631857(14) 0.702238(12)
N1 N 0.91622(10) 0.44076(8) 0.81920(7)
C1 C 1.07869(12) 0.40435(9) 0.77896(8)
C2 C 1.18922(12) 0.51631(10) 0.67554(8)
H1 H 1.31260 0.50020 0.64370
N2 N 1.11474(11) 0.63357(8) 0.63104(7)
C3 C 1.22508(13) 0.74628(10) 0.53191(9)
H2 H 1.34460 0.70720 0.50260
C4 C 1.12104(17) 0.79769(13) 0.42938(11)
H3 H 1.09950 0.71870 0.40140
H4 H 1.19310 0.87180 0.36270
H5 H 1.00360 0.83560 0.45800
C5 C 1.25964(19) 0.86288(13) 0.58200(13)
H6 H 1.14260 0.89540 0.61760
H7 H 1.32510 0.94190 0.51670
H8 H 1.33350 0.82650 0.64400
C6 C 0.78863(12) 0.34556(10) 0.92150(9)
H9 H 0.83550 0.24720 0.93950
C7 C 0.60232(14) 0.34927(12) 0.88741(11)
H10 H 0.55980 0.44660 0.86490
H11 H 0.51480 0.29030 0.95630
H12 H 0.61260 0.31320 0.81900
C8 C 0.77680(16) 0.39506(12) 1.03136(10)
H13 H 0.89640 0.38590 1.05460
H14 H 0.68580 0.33700 1.09850
H15 H 0.74060 0.49400 1.01150
C9 C 1.16867(12) 0.26698(9) 0.82021(8)
C10 C 1.26812(13) 0.21318(10) 0.73150(9)
H16 H 1.27500 0.26420 0.64860
C11 C 1.35676(14) 0.08531(11) 0.76445(10)
H17 H 1.42290 0.04870 0.70410
C12 C 1.34864(14) 0.01096(10) 0.88556(10)
H18 H 1.40940 -0.07630 0.90780
C13 C 1.25177(14) 0.06410(11) 0.97422(10)
H19 H 1.24660 0.01310 1.05690
C14 C 1.16218(12) 0.19198(10) 0.94209(9)
H20 H 1.09670 0.22830 1.00280
Cl1 Cl 0.72546(4) 0.80168(3) 0.77998(3)
Cl2 Cl 0.68359(3) 0.56813(3) 0.58121(2)
#END
