
#######################################################################
#
#                 Cambridge Crystallographic Data Centre
#                                CCDC
#
#######################################################################
#
# If this CIF has been generated from an entry in the Cambridge
# Structural Database, then it will include bibliographic, chemical,
# crystal, experimental, refinement or atomic coordinate data resulting
# from the CCDC's data processing and validation procedures.
#
#######################################################################

data_CSD_CIF_DOFVEZ
_audit_creation_date 1987-02-04
_audit_creation_method CSD-ConQuest-V1
_database_code_CSD DOFVEZ
_chemical_formula_sum 'C24 H24 Cr2 O10 S4'
_chemical_formula_moiety
;
2(C12 H12 Cr1 1+),O6 S2 2-,2(O2 S1)
;
_journal_coden_Cambridge 179
_journal_volume 24
_journal_year 1985
_journal_page_first 967
_journal_name_full 'Angew.Chem.,Int.Ed. '
loop_
_publ_author_name
"C.Elschenbroich"
"R.Gondrum"
"W.Massa"
_chemical_name_systematic
;
bis(\h^6^,\h^6^-Dibenzene-chromium(i)) dithionate sulfur dioxide solvate
;
_cell_volume    679.739
_exptl_crystal_density_diffrn 1.721
_exptl_special_details
;
z = 1 not 2

;
_diffrn_ambient_temperature ?
_diffrn_special_details
;
The study was carried out at room temperature,in the range 283-303K

;
#These two values have been output from a single CSD field.
_refine_ls_R_factor_gt 0.045
_refine_ls_wR_factor_gt 0.045
_symmetry_cell_setting triclinic
_symmetry_space_group_name_H-M 'P -1'
_symmetry_Int_Tables_number 2
loop_
_symmetry_equiv_pos_site_id
_symmetry_equiv_pos_as_xyz
1 x,y,z
2 -x,-y,-z
_cell_length_a 7.883(4)
_cell_length_b 9.573(4)
_cell_length_c 10.001(4)
_cell_angle_alpha 96.48(3)
_cell_angle_beta 108.26(4)
_cell_angle_gamma 104.24(3)
_cell_formula_units_Z 1
loop_
_atom_type_symbol
_atom_type_radius_bond
C 0.68
H 0.23
Cr 1.35
O 0.68
S 1.02
loop_
_atom_site_label
_atom_site_type_symbol
_atom_site_fract_x
_atom_site_fract_y
_atom_site_fract_z
Cr1 Cr 0.00000 0.00000 0.00000
Cr2 Cr 0.00000 0.50000 0.50000
S1 S 0.5581(2) 0.4113(1) -0.0284(1)
O1 O 0.4307(7) 0.3468(6) -0.1781(5)
O2 O 0.5302(6) 0.3116(5) 0.0632(6)
O3 O 0.7435(8) 0.4772(7) -0.0049(8)
S2 S 0.4677(3) 0.1828(2) 0.6358(2)
O4 O 0.2782(10) 0.1397(9) 0.5585(7)
O5 O 0.5229(11) 0.0807(9) 0.7080(9)
C1 C 0.0606(9) 0.0159(7) 0.2246(6)
C2 C 0.1880(8) 0.1289(7) 0.2029(6)
C3 C 0.1265(10) 0.2216(6) 0.1136(8)
C4 C -0.0669(12) 0.1981(8) 0.0446(8)
C5 C -0.1910(9) 0.0855(10) 0.0688(9)
C6 C -0.1266(11) -0.0086(8) 0.1583(8)
C7 C -0.0921(7) 0.2690(5) 0.4912(7)
C8 C -0.0231(7) 0.3446(6) 0.6347(6)
C9 C -0.0878(7) 0.4594(6) 0.6771(6)
C10 C -0.2262(6) 0.4989(6) 0.5743(6)
C11 C -0.2987(6) 0.4243(6) 0.4310(6)
C12 C -0.2340(6) 0.3095(5) 0.3872(6)
H1 H 0.10300 -0.04600 0.28700
H2 H 0.31800 0.14300 0.24800
H3 H 0.21500 0.30100 0.10100
H4 H -0.11000 0.25900 -0.01900
H5 H -0.32200 0.07100 0.02600
H6 H -0.21400 -0.08900 0.17200
H7 H -0.05200 0.19100 0.46400
H8 H 0.07100 0.31700 0.70300
H9 H -0.03800 0.51100 0.77500
H10 H -0.27200 0.57600 0.60200
H11 H -0.39200 0.45200 0.36300
H12 H -0.28200 0.25900 0.28900
C1A C -0.0606(9) -0.0159(7) -0.2246(6)
C2A C -0.1880(8) -0.1289(7) -0.2029(6)
C3A C -0.1265(10) -0.2216(6) -0.1136(8)
C4A C 0.0669(12) -0.1981(8) -0.0446(8)
C5A C 0.1910(9) -0.0855(10) -0.0688(9)
C6A C 0.1266(11) 0.0086(8) -0.1583(8)
H1A H -0.10300 0.04600 -0.28700
H2A H -0.31800 -0.14300 -0.24800
H3A H -0.21500 -0.30100 -0.10100
H4A H 0.11000 -0.25900 0.01900
H5A H 0.32200 -0.07100 -0.02600
H6A H 0.21400 0.08900 -0.17200
C7A C 0.0921(7) 0.7310(5) 0.5088(7)
C8A C 0.0231(7) 0.6554(6) 0.3653(6)
C9A C 0.0878(7) 0.5406(6) 0.3229(6)
C10A C 0.2262(6) 0.5011(6) 0.4257(6)
C11A C 0.2987(6) 0.5757(6) 0.5690(6)
C12A C 0.2340(6) 0.6905(5) 0.6128(6)
H7A H 0.05200 0.80900 0.53600
H8A H -0.07100 0.68300 0.29700
H9A H 0.03800 0.48900 0.22500
H10A H 0.27200 0.42400 0.39800
H11A H 0.39200 0.54800 0.63700
H12A H 0.28200 0.74100 0.71100
S1A S 0.4419(2) 0.5887(1) 0.0284(1)
O1A O 0.5693(7) 0.6532(6) 0.1781(5)
O2A O 0.4698(6) 0.6884(5) -0.0632(6)
O3A O 0.2565(8) 0.5228(7) 0.0049(8)
#END
