
#######################################################################
#
#                 Cambridge Crystallographic Data Centre
#                                CCDC
#
#######################################################################
#
# If this CIF has been generated from an entry in the Cambridge
# Structural Database, then it will include bibliographic, chemical,
# crystal, experimental, refinement or atomic coordinate data resulting
# from the CCDC's data processing and validation procedures.
#
#######################################################################

data_CSD_CIF_DOHXUT
_audit_creation_date 1987-03-27
_audit_creation_method CSD-ConQuest-V1
_database_code_CSD DOHXUT
_database_code_depnum_ccdc_archive 'CCDC 1143643'
_chemical_formula_sum 'C11 H30 Cl4 Co1 N5 O1 S1 Zn1'
_chemical_formula_moiety
;
C11 H28 Co1 N5 S1 2+,Cl4 Zn1 2-,H2 O1
;
_journal_coden_Cambridge 7
_journal_volume 59
_journal_year 1986
_journal_page_first 277
_journal_name_full 'Bull.Chem.Soc.Jpn. '
loop_
_publ_author_name
"M.Kojima"
"K.Nakabayashi"
"S.Ohba"
"S.Okumoto"
"Y.Saito"
"J.Fujita"
_chemical_name_systematic
;
((S)-1-Amino-2-propanethiolato-N,S)-(1,4,7,10-tetra-azacyclododecane-N^1^,N^4^
,N^7^,N^10^)-cobalt(iii) tetrachloro-zinc monohydrate
;
_cell_volume   1099.842
_exptl_crystal_colour 'dark green-brown'
_exptl_crystal_density_diffrn 1.65
_exptl_special_details
;
Absolute configuration
Coordinates for Zn and Co are x10**5 not x10**4

;
_diffrn_ambient_temperature ?
_diffrn_special_details
;
The study was carried out at room temperature,in the range 283-303K

;
_refine_special_details
;
Four positions are reported for the disordered water molecule. That of major 
occupancy is retained.
;
#These two values have been output from a single CSD field.
_refine_ls_R_factor_gt 0.028
_refine_ls_wR_factor_gt 0.028
_symmetry_cell_setting monoclinic
_symmetry_space_group_name_H-M 'P 21'
_symmetry_Int_Tables_number 4
loop_
_symmetry_equiv_pos_site_id
_symmetry_equiv_pos_as_xyz
1 x,y,z
2 -x,1/2+y,-z
_cell_length_a 9.382(2)
_cell_length_b 13.124(3)
_cell_length_c 8.934(2)
_cell_angle_alpha 90
_cell_angle_beta 91.08(3)
_cell_angle_gamma 90
_cell_formula_units_Z 2
loop_
_atom_type_symbol
_atom_type_radius_bond
C 0.68
H 0.23
Cl 0.99
Co 1.33
N 0.68
O 0.68
S 1.02
Zn 1.45
loop_
_atom_site_label
_atom_site_type_symbol
_atom_site_fract_x
_atom_site_fract_y
_atom_site_fract_z
Zn1 Zn 0.17438(5) 0.00000 0.24307(5)
Cl1 Cl 0.3491(1) 0.1222(1) 0.2434(1)
Cl2 Cl 0.1960(2) -0.0961(1) 0.0325(2)
Cl3 Cl -0.0340(2) 0.0762(2) 0.2550(2)
Cl4 Cl 0.2161(2) -0.1064(1) 0.4387(2)
Co1 Co 0.46480(5) 0.57631(5) 0.25280(5)
S1 S 0.5675(1) 0.7300(1) 0.2536(1)
N1 N 0.4418(4) 0.5679(3) 0.0338(4)
N2 N 0.3815(4) 0.4375(3) 0.2499(4)
N3 N 0.4389(3) 0.5660(3) 0.4713(4)
N4 N 0.2832(3) 0.6500(3) 0.2500(4)
N5 N 0.6643(4) 0.5218(3) 0.2598(4)
C1 C 0.4062(6) 0.4599(4) -0.0153(5)
C2 C 0.4297(5) 0.3869(4) 0.1113(6)
C3 C 0.4214(5) 0.3861(4) 0.3907(6)
C4 C 0.4000(5) 0.4581(4) 0.5162(5)
C5 C 0.3236(5) 0.6375(4) 0.5112(5)
C6 C 0.2095(4) 0.6304(4) 0.3917(5)
C7 C 0.2089(5) 0.6312(4) 0.1041(5)
C8 C 0.3257(5) 0.6396(5) -0.0103(5)
C9 C 0.7765(5) 0.5981(4) 0.2972(7)
C10 C 0.7502(5) 0.6933(4) 0.2146(6)
C11 C 0.8512(5) 0.7777(5) 0.2572(7)
H1 H 0.539(5) 0.580(5) -0.016(5)
H2 H 0.276(5) 0.440(4) 0.249(5)
H3 H 0.510(4) 0.583(4) 0.522(5)
H4 H 0.310(5) 0.713(4) 0.246(4)
H5 H 0.683(5) 0.501(5) 0.170(6)
H6 H 0.663(6) 0.473(6) 0.327(7)
H7 H 0.471(6) 0.441(5) -0.090(6)
H8 H 0.315(5) 0.458(4) -0.047(5)
H9 H 0.534(4) 0.367(4) 0.112(4)
H10 H 0.390(4) 0.328(3) 0.089(4)
H11 H 0.513(6) 0.369(5) 0.389(5)
H12 H 0.374(5) 0.329(4) 0.409(5)
H13 H 0.464(6) 0.448(5) 0.609(5)
H14 H 0.313(4) 0.466(4) 0.566(4)
H15 H 0.362(5) 0.702(4) 0.517(5)
H16 H 0.291(5) 0.617(4) 0.601(5)
H17 H 0.157(5) 0.569(4) 0.388(5)
H18 H 0.131(4) 0.678(4) 0.401(4)
H19 H 0.128(5) 0.677(4) 0.091(5)
H20 H 0.161(4) 0.566(4) 0.101(5)
H21 H 0.289(5) 0.614(4) -0.099(5)
H22 H 0.373(5) 0.706(4) 0.001(5)
H23 H 0.884(6) 0.573(6) 0.266(6)
H24 H 0.791(6) 0.619(5) 0.429(6)
H25 H 0.731(5) 0.674(4) 0.085(5)
H26 H 0.832(7) 0.834(7) 0.207(7)
H27 H 0.951(6) 0.759(6) 0.236(5)
H28 H 0.844(6) 0.787(5) 0.357(6)
O1 O 0.088(1) 0.360(1) 0.209(1)
#END
