
#######################################################################
#
#                 Cambridge Crystallographic Data Centre
#                                CCDC
#
#######################################################################
#
# If this CIF has been generated from an entry in the Cambridge
# Structural Database, then it will include bibliographic, chemical,
# crystal, experimental, refinement or atomic coordinate data resulting
# from the CCDC's data processing and validation procedures.
#
#######################################################################

data_CSD_CIF_DOMLUN
_audit_creation_date 2009-07-13
_audit_creation_method CSD-ConQuest-V1
_database_code_CSD DOMLUN
_database_code_depnum_ccdc_archive 'CCDC 689798'
_chemical_formula_sum 'C16 H23 Cl3 Fe1 N3 O1'
_chemical_formula_moiety
;
C15 H19 Cl3 Fe1 N3,C1 H4 O1
;
_journal_coden_Cambridge 222
_journal_year 2008
_journal_page_first 7012
_journal_name_full 'Dalton Trans. '
loop_
_publ_author_name
"K.Sundaravel"
"T.Dhanalakshmi"
"E.Suresh"
"M.Palaniandavar"
_chemical_name_systematic
;
fac-Trichloro-(N-benzyl-N'-(pyridyl-2-ylmethyl)ethylenediamine)-iron(iii) 
methanol solvate
;
_cell_volume    907.376
_exptl_crystal_colour 'yellow'
_exptl_crystal_description 'plates'
_exptl_crystal_preparation 'diethyl ether/acetonitrile/methanol'
_diffrn_ambient_temperature 100
_refine_special_details
;
Disordered methanol molecules were removed using SQUEEZE/PLATON.

;
#These two values have been output from a single CSD field.
_refine_ls_R_factor_gt 0.0766
_refine_ls_wR_factor_gt 0.0766
_symmetry_cell_setting triclinic
_symmetry_space_group_name_H-M 'P -1'
_symmetry_Int_Tables_number 2
loop_
_symmetry_equiv_pos_site_id
_symmetry_equiv_pos_as_xyz
1 x,y,z
2 -x,-y,-z
_cell_length_a 7.1352(11)
_cell_length_b 11.3542(18)
_cell_length_c 11.6257(19)
_cell_angle_alpha 82.135(3)
_cell_angle_beta 85.406(3)
_cell_angle_gamma 76.856(3)
_cell_formula_units_Z 2
loop_
_atom_type_symbol
_atom_type_radius_bond
C 0.68
H 0.23
Cl 0.99
Fe 1.34
N 0.68
loop_
_atom_site_label
_atom_site_type_symbol
_atom_site_fract_x
_atom_site_fract_y
_atom_site_fract_z
Fe1 Fe 0.58521(12) 0.29972(8) 0.18804(8)
Cl1 Cl 0.8336(2) 0.16823(15) 0.27547(14)
Cl2 Cl 0.6494(2) 0.48152(15) 0.22449(14)
Cl3 Cl 0.7137(2) 0.31045(13) -0.00391(13)
N1 N 0.4459(7) 0.1587(4) 0.1493(4)
N2 N 0.3123(7) 0.4026(4) 0.1213(4)
N3 N 0.3932(7) 0.3012(5) 0.3507(4)
C1 C 0.5069(9) 0.0374(6) 0.1804(5)
H1 H 0.61450 0.01040 0.22500
C2 C 0.4175(9) -0.0470(6) 0.1492(5)
H2 H 0.46280 -0.12960 0.17240
C3 C 0.2585(9) -0.0069(6) 0.0824(6)
H3 H 0.19590 -0.06240 0.05890
C4 C 0.1934(9) 0.1172(6) 0.0510(5)
H4 H 0.08500 0.14630 0.00740
C5 C 0.2917(9) 0.1969(6) 0.0851(5)
C6 C 0.2313(9) 0.3310(6) 0.0487(6)
H5 H 0.27360 0.34900 -0.03190
H6 H 0.09170 0.35510 0.05420
C7 C 0.1839(9) 0.4473(6) 0.2191(5)
H7 H 0.05280 0.47510 0.19450
H8 H 0.22360 0.51550 0.24440
C8 C 0.1928(9) 0.3466(6) 0.3173(6)
H9 H 0.11280 0.37630 0.38330
H10 H 0.14420 0.28080 0.29370
C9 C 0.4174(10) 0.1859(6) 0.4322(6)
H11 H 0.54700 0.16580 0.45980
H12 H 0.40370 0.12060 0.39000
C10 C 0.2745(9) 0.1923(6) 0.5361(5)
C11 C 0.1238(11) 0.1341(6) 0.5422(6)
H13 H 0.11130 0.08920 0.48330
C12 C -0.0094(11) 0.1424(7) 0.6361(7)
H14 H -0.10890 0.10110 0.64050
C13 C 0.0036(10) 0.2107(6) 0.7224(6)
H15 H -0.08900 0.21850 0.78360
C14 C 0.156(1) 0.2680(6) 0.7175(6)
H16 H 0.16800 0.31240 0.77710
C15 C 0.291(1) 0.2599(6) 0.6249(6)
H17 H 0.39240 0.29950 0.62190
H18 H 0.33160 0.48570 0.07230
H19 H 0.43170 0.34440 0.41910
#END
