
#######################################################################
#
#                 Cambridge Crystallographic Data Centre
#                                CCDC
#
#######################################################################
#
# If this CIF has been generated from an entry in the Cambridge
# Structural Database, then it will include bibliographic, chemical,
# crystal, experimental, refinement or atomic coordinate data resulting
# from the CCDC's data processing and validation procedures.
#
#######################################################################

data_CSD_CIF_DOSSAF
_audit_creation_date 1987-04-28
_audit_creation_method CSD-ConQuest-V1
_database_code_CSD DOSSAF
_chemical_formula_sum 'C15.5 H16 Cl1 Fe1 N1 O5 S2'
_chemical_formula_moiety
;
C15 H15 Fe1 N1 O5 S2,0.5(C1 H2 Cl2)
;
_journal_coden_Cambridge 579
_journal_volume 5
_journal_year 1986
_journal_page_first 366
_journal_name_full 'Organometallics '
loop_
_publ_author_name
"Tak Wai Leung"
"G.G.Christoph"
"J.Gallucci"
"A.Wojcicki"
_chemical_name_systematic
;
(N-(Methylsulfinyl)-benzylsulfonylimido)-dicarbonyl-(\h^5^-cyclopentadienyl)-i
ron dichloromethane solvate
;
_cell_volume    973.356
_exptl_crystal_density_diffrn 1.541
_diffrn_ambient_temperature ?
_diffrn_special_details
;
The study was carried out at room temperature,in the range 283-303K

;
_refine_special_details
;
Two dichloromethane solvent molecules are disordered, about an inversion 
center with occupancy factors of 0.24 and 0.26 and have the C atoms in 
common. They have not been retained.
;
#These two values have been output from a single CSD field.
_refine_ls_R_factor_gt 0.04
_refine_ls_wR_factor_gt 0.04
_symmetry_cell_setting triclinic
_symmetry_space_group_name_H-M 'P -1'
_symmetry_Int_Tables_number 2
loop_
_symmetry_equiv_pos_site_id
_symmetry_equiv_pos_as_xyz
1 x,y,z
2 -x,-y,-z
_cell_length_a 8.517(7)
_cell_length_b 10.624(5)
_cell_length_c 12.092(9)
_cell_angle_alpha 109.58(5)
_cell_angle_beta 90.05(6)
_cell_angle_gamma 108.06(5)
_cell_formula_units_Z 2
loop_
_atom_type_symbol
_atom_type_radius_bond
C 0.68
H 0.23
Fe 1.34
N 0.68
O 0.68
S 1.02
loop_
_atom_site_label
_atom_site_type_symbol
_atom_site_fract_x
_atom_site_fract_y
_atom_site_fract_z
Fe1 Fe 0.98424(7) 0.13375(6) 0.29118(5)
S1 S 0.77689(13) 0.21805(11) 0.33926(9)
S2 S 0.76603(14) 0.25908(12) 0.5789(1)
O1 O 0.83535(44) -0.02349(38) 0.04631(30)
O2 O 0.82122(43) -0.11946(34) 0.34838(33)
O3 O 0.61400(33) 0.10444(28) 0.29735(25)
O4 O 0.84171(43) 0.37662(32) 0.68525(26)
O5 O 0.81400(41) 0.13569(32) 0.55839(28)
N1 N 0.79553(43) 0.32047(33) 0.47448(29)
C1 C 0.89158(58) 0.04289(49) 0.14223(46)
C2 C 0.88092(54) -0.01781(48) 0.32973(40)
C3 C 0.55193(61) 0.20428(59) 0.58618(48)
C4 C 1.20857(56) 0.13475(52) 0.36323(48)
C5 C 1.22707(56) 0.14682(57) 0.25090(47)
C6 C 1.19658(57) 0.27310(57) 0.25721(50)
C7 C 1.16158(55) 0.33617(48) 0.37034(52)
C8 C 1.16564(57) 0.24986(53) 0.43547(43)
C9 C 0.77830(57) 0.35082(43) 0.27570(36)
C10 C 0.76942(55) 0.30065(42) 0.14341(36)
C11 C 0.62322(60) 0.20528(49) 0.07176(43)
C12 C 0.61737(69) 0.16090(51) -0.04898(45)
C13 C 0.75392(75) 0.21092(50) -0.10062(41)
C14 C 0.89881(71) 0.30569(51) -0.03171(44)
C15 C 0.90566(61) 0.35016(44) 0.08943(39)
H1 H 0.50530 0.27420 0.57270
H2 H 0.49910 0.10910 0.52420
H3 H 0.53100 0.19900 0.66610
H4 H 1.22360 0.05730 0.38700
H5 H 1.25600 0.07950 0.18040
H6 H 1.19990 0.31020 0.19110
H7 H 1.13760 0.42740 0.40030
H8 H 1.14190 0.26760 0.51930
H9 H 0.88320 0.43270 0.30910
H10 H 0.68050 0.38270 0.29910
H11 H 0.52220 0.16920 0.10880
H12 H 0.51270 0.09160 -0.09940
H13 H 0.74870 0.17860 -0.18870
H14 H 0.99880 0.34210 -0.06960
H15 H 1.01100 0.41940 0.13910
#END
