
#######################################################################
#
#                 Cambridge Crystallographic Data Centre
#                                CCDC
#
#######################################################################
#
# If this CIF has been generated from an entry in the Cambridge
# Structural Database, then it will include bibliographic, chemical,
# crystal, experimental, refinement or atomic coordinate data resulting
# from the CCDC's data processing and validation procedures.
#
#######################################################################

data_CSD_CIF_DOWBEX
_audit_creation_date 2009-10-09
_audit_creation_method CSD-ConQuest-V1
_database_code_CSD DOWBEX
_database_code_depnum_ccdc_archive 'CCDC 707880'
_chemical_formula_sum 'C11 H10 B1 F4 Mn1 O5'
_chemical_formula_moiety
;
C11 H10 Mn1 O5 1+,B1 F4 1-
;
_journal_coden_Cambridge 179
_journal_volume 48
_journal_year 2009
_journal_page_first 1762
_journal_name_full 'Angew.Chem.,Int.Ed. '
loop_
_publ_author_name
"Sang Bok Kim"
"R.D.Pike"
"J.S.D'Acchioli"
"B.J.Walder"
"G.B.Carpenter"
"D.A.Sweigart"
_chemical_name_systematic
;
tricarbonyl-(\h^6^-1,4-dimethoxybenzene)-manganese(i) tetrafluoroborate
;
_cell_volume    694.751
_exptl_crystal_colour 'yellow'
_exptl_crystal_density_diffrn 1.74
_exptl_crystal_description 'plate'
_diffrn_ambient_temperature 100
#These two values have been output from a single CSD field.
_refine_ls_R_factor_gt 0.0265
_refine_ls_wR_factor_gt 0.0265
_symmetry_cell_setting triclinic
_symmetry_space_group_name_H-M 'P -1'
_symmetry_Int_Tables_number 2
loop_
_symmetry_equiv_pos_site_id
_symmetry_equiv_pos_as_xyz
1 x,y,z
2 -x,-y,-z
_cell_length_a 6.7063(3)
_cell_length_b 10.2700(4)
_cell_length_c 10.8583(4)
_cell_angle_alpha 89.260(2)
_cell_angle_beta 76.689(2)
_cell_angle_gamma 72.995(2)
_cell_formula_units_Z 2
loop_
_atom_type_symbol
_atom_type_radius_bond
C 0.68
H 0.23
B 0.83
F 0.64
Mn 1.53
O 0.68
loop_
_atom_site_label
_atom_site_type_symbol
_atom_site_fract_x
_atom_site_fract_y
_atom_site_fract_z
Mn1 Mn 0.40533(4) 0.14367(3) 0.78303(3)
O1 O 0.2403(2) -0.02925(14) 0.97677(13)
O2 O 0.2564(2) 0.01959(14) 0.58833(13)
O3 O 0.8402(2) -0.05696(14) 0.71808(14)
O4 O -0.0399(2) 0.35486(13) 0.95562(13)
O5 O 0.7768(2) 0.28789(13) 0.65824(12)
C1 C 0.3055(3) 0.03573(18) 0.90075(18)
C2 C 0.3153(3) 0.06557(18) 0.66215(19)
C3 C 0.6705(3) 0.01705(19) 0.74174(18)
C4 C 0.1630(3) 0.33255(17) 0.88556(18)
C5 C 0.1897(3) 0.34150(17) 0.75386(18)
C6 C 0.3951(3) 0.32674(17) 0.67293(18)
C7 C 0.5753(3) 0.30349(17) 0.72458(18)
C8 C 0.5507(3) 0.28234(18) 0.85629(18)
C9 C 0.3476(3) 0.29772(18) 0.93648(18)
C10 C -0.0688(4) 0.3244(2) 1.0885(2)
C11 C 0.8109(3) 0.2989(2) 0.5215(2)
H1 H 0.074(4) 0.357(2) 0.719(2)
H2 H 0.406(4) 0.333(2) 0.589(2)
H3 H 0.675(4) 0.261(2) 0.888(2)
H4 H 0.339(4) 0.282(2) 1.020(2)
H5 H -0.007(4) 0.379(2) 1.135(2)
H6 H -0.006(4) 0.222(3) 1.094(2)
H7 H -0.212(5) 0.345(3) 1.118(3)
H8 H 0.959(4) 0.287(2) 0.494(2)
H9 H 0.725(4) 0.393(3) 0.501(2)
H10 H 0.768(4) 0.222(3) 0.486(2)
B1 B 0.3672(4) 0.3273(2) 0.3104(2)
F1 F 0.49660(19) 0.40624(12) 0.32942(12)
F2 F 0.1664(2) 0.41025(13) 0.30461(13)
F3 F 0.34858(19) 0.24111(12) 0.41043(11)
F4 F 0.4640(2) 0.24672(12) 0.19699(11)
#END
