
#######################################################################
#
#                 Cambridge Crystallographic Data Centre
#                                CCDC
#
#######################################################################
#
# If this CIF has been generated from an entry in the Cambridge
# Structural Database, then it will include bibliographic, chemical,
# crystal, experimental, refinement or atomic coordinate data resulting
# from the CCDC's data processing and validation procedures.
#
#######################################################################

data_CSD_CIF_DTOLCR
_audit_creation_date 1971-12-31
_audit_creation_method CSD-ConQuest-V1
_database_code_CSD DTOLCR
_chemical_formula_sum 'C14 H16 Cr1 I1'
_chemical_formula_moiety
;
C14 H16 Cr1 1+,I1 1-
;
_journal_coden_Cambridge 82
_journal_volume 2
_journal_year 1961
_journal_page_first 162
_journal_name_full 'Zh.Strukt.Khim.(Russ.)(J.Struct.Chem.) '
loop_
_publ_author_name
"O.V.Starovskii"
"Yu.T.Struchkov"
_chemical_name_systematic
;
Ditoluene chromium iodide
;
_cell_volume    653.504
_diffrn_ambient_temperature ?
_diffrn_special_details
;
The study was carried out at room temperature,in the range 283-303K

;
#These two values have been output from a single CSD field.
_refine_ls_R_factor_gt 0.13
_refine_ls_wR_factor_gt 0.13
_symmetry_cell_setting monoclinic
_symmetry_space_group_name_H-M 'I 2/m'
_symmetry_Int_Tables_number 12
loop_
_symmetry_equiv_pos_site_id
_symmetry_equiv_pos_as_xyz
1 x,y,z
2 1/2+x,1/2+y,1/2+z
3 -x,y,-z
4 1/2-x,1/2+y,1/2-z
5 -x,-y,-z
6 -1/2-x,-1/2-y,-1/2-z
7 x,-y,z
8 -1/2+x,-1/2-y,-1/2+z
_cell_length_a 7.94
_cell_length_b 6.77
_cell_length_c 12.55
_cell_angle_alpha 90
_cell_angle_beta 104.37
_cell_angle_gamma 90
_cell_formula_units_Z 2
loop_
_atom_type_symbol
_atom_type_radius_bond
C 0.68
H 0.20
Cr 1.28
I 1.33
loop_
_atom_site_label
_atom_site_type_symbol
_atom_site_fract_x
_atom_site_fract_y
_atom_site_fract_z
Cr1 Cr 0.00000 0.00000 0.00000
C1 C -0.07600 0.00000 0.14700
C2 C -0.24300 0.00000 0.18200
C3 C 0.00500 0.18100 0.13500
C4 C 0.17000 0.18100 0.11000
C5 C 0.25300 0.00000 0.09800
H1 H -0.05600 0.31900 0.14400
H2 H 0.23300 0.31900 0.10100
H3 H 0.37800 0.00000 0.07900
I1 I 0.00000 0.00000 0.50000
C1D C 0.07600 0.00000 -0.14700
C3D C -0.00500 -0.18100 -0.13500
C3B C -0.00500 0.18100 -0.13500
C3F C 0.00500 -0.18100 0.13500
C4D C -0.17000 -0.18100 -0.11000
C4B C -0.17000 0.18100 -0.11000
C4F C 0.17000 -0.18100 0.11000
C5D C -0.25300 0.00000 -0.09800
C2D C 0.24300 0.00000 -0.18200
H1D H 0.05600 -0.31900 -0.14400
H1B H 0.05600 0.31900 -0.14400
H1F H -0.05600 -0.31900 0.14400
H2D H -0.23300 -0.31900 -0.10100
H2B H -0.23300 0.31900 -0.10100
H2F H 0.23300 -0.31900 0.10100
H3D H -0.37800 0.00000 -0.07900
#END
