
#######################################################################
#
#                 Cambridge Crystallographic Data Centre
#                                CCDC
#
#######################################################################
#
# If this CIF has been generated from an entry in the Cambridge
# Structural Database, then it will include bibliographic, chemical,
# crystal, experimental, refinement or atomic coordinate data resulting
# from the CCDC's data processing and validation procedures.
#
#######################################################################

data_CSD_CIF_DUCDIP
_audit_creation_date 2009-10-09
_audit_creation_method CSD-ConQuest-V1
_database_code_CSD DUCDIP
_database_code_depnum_ccdc_archive 'CCDC 663364'
_chemical_formula_sum 'C20 H16 Fe1 N6 O10'
_chemical_formula_moiety
;
C20 H16 Fe1 N6 O10
;
_journal_coeditor_code "IUCr BV2118"
_journal_coden_Cambridge 1370
_journal_volume 65
_journal_year 2009
_journal_page_first m938
_journal_name_full 'Acta Crystallogr.,Sect.E:Struct.Rep.Online '
loop_
_publ_author_name
"W.Liu"
"G.Zhang"
"X.Li"
"B.-L.Wu"
"H.-Y.Zhang"
_chemical_name_systematic
;
trans-Diaqua-bis[5-carboxy-2-(3-pyridyl)-1H-imidazole-4-carboxylato-\k^2^N^3^,
O^4^]-iron(ii)
;
_cell_volume    533.409
_exptl_crystal_colour 'yellow'
_exptl_crystal_density_diffrn 1.732
_exptl_crystal_description 'block'
_diffrn_ambient_temperature 173
#These two values have been output from a single CSD field.
_refine_ls_R_factor_gt 0.0384
_refine_ls_wR_factor_gt 0.0384
_symmetry_cell_setting triclinic
_symmetry_space_group_name_H-M 'P -1'
_symmetry_Int_Tables_number 2
loop_
_symmetry_equiv_pos_site_id
_symmetry_equiv_pos_as_xyz
1 x,y,z
2 -x,-y,-z
_cell_length_a 7.0100(14)
_cell_length_b 8.6670(17)
_cell_length_c 9.4110(19)
_cell_angle_alpha 82.28(3)
_cell_angle_beta 83.84(3)
_cell_angle_gamma 70.66(3)
_cell_formula_units_Z 1
loop_
_atom_type_symbol
_atom_type_radius_bond
C 0.68
H 0.23
Fe 1.52
N 0.68
O 0.68
loop_
_atom_site_label
_atom_site_type_symbol
_atom_site_fract_x
_atom_site_fract_y
_atom_site_fract_z
Fe1 Fe 0.50000 0.50000 0.00000
O1 O 0.4346(3) 0.7540(2) -0.09416(18)
O2 O 0.2752(3) 1.0178(2) -0.06408(18)
O3 O 0.0627(3) 1.1808(2) 0.12660(19)
O4 O -0.0530(3) 1.1320(2) 0.35321(19)
O5 O 0.7690(3) 0.5052(2) 0.07395(18)
N1 N 0.3184(3) 0.6478(2) 0.17970(19)
N2 N 0.1534(3) 0.7958(2) 0.3559(2)
H1 H 0.08410 0.82140 0.43190
N3 N 0.2740(3) 0.3678(3) 0.6641(2)
C1 C 0.3294(4) 0.8639(3) -0.0195(2)
C2 C 0.2649(3) 0.8126(3) 0.1308(2)
C3 C 0.1588(4) 0.9068(3) 0.2385(2)
C4 C 0.0479(4) 1.0858(3) 0.2420(3)
C5 C 0.2483(3) 0.6410(3) 0.3177(2)
C6 C 0.2686(4) 0.4921(3) 0.4180(2)
C7 C 0.2554(4) 0.4991(3) 0.5672(2)
H2 H 0.23210 0.60260 0.60110
C8 C 0.3003(4) 0.3402(3) 0.3698(3)
H3 H 0.30600 0.33030 0.27000
C9 C 0.3234(4) 0.2031(3) 0.4700(3)
H4 H 0.34860 0.09770 0.43920
C10 C 0.3092(4) 0.2212(3) 0.6157(3)
H5 H 0.32500 0.12680 0.68330
H6 H 0.87610 0.41450 0.08350
H7 H 0.75520 0.57260 0.13390
H8 H 0.137(4) 1.128(3) 0.057(2)
O1A O 0.5654(3) 0.2460(2) 0.09416(18)
O2A O 0.7248(3) -0.0178(2) 0.06408(18)
O3A O 0.9373(3) -0.1808(2) -0.12660(19)
O4A O 1.0530(3) -0.1320(2) -0.35321(19)
O5A O 0.2310(3) 0.4948(2) -0.07395(18)
N1A N 0.6816(3) 0.3522(2) -0.17970(19)
N2A N 0.8466(3) 0.2042(2) -0.3559(2)
H1A H 0.91590 0.17860 -0.43190
N3A N 0.7260(3) 0.6322(3) -0.6641(2)
C1A C 0.6706(4) 0.1361(3) 0.0195(2)
C2A C 0.7351(3) 0.1874(3) -0.1308(2)
C3A C 0.8412(4) 0.0932(3) -0.2385(2)
C4A C 0.9521(4) -0.0858(3) -0.2420(3)
C5A C 0.7517(3) 0.3590(3) -0.3177(2)
C6A C 0.7314(4) 0.5079(3) -0.4180(2)
C7A C 0.7446(4) 0.5009(3) -0.5672(2)
H2A H 0.76790 0.39740 -0.60110
C8A C 0.6997(4) 0.6598(3) -0.3698(3)
H3A H 0.69400 0.66970 -0.27000
C9A C 0.6766(4) 0.7969(3) -0.4700(3)
H4A H 0.65140 0.90230 -0.43920
C10A C 0.6908(4) 0.7788(3) -0.6157(3)
H5A H 0.67500 0.87320 -0.68330
H6A H 0.12390 0.58550 -0.08350
H7A H 0.24480 0.42740 -0.13390
H8A H 0.863(4) -0.128(3) -0.057(2)
#END
