
#######################################################################
#
#                 Cambridge Crystallographic Data Centre
#                                CCDC
#
#######################################################################
#
# If this CIF has been generated from an entry in the Cambridge
# Structural Database, then it will include bibliographic, chemical,
# crystal, experimental, refinement or atomic coordinate data resulting
# from the CCDC's data processing and validation procedures.
#
#######################################################################

data_CSD_CIF_DUFYAG
_audit_creation_date 2015-07-15
_audit_creation_method CSD-ConQuest-V1
_database_code_CSD DUFYAG
_database_code_depnum_ccdc_archive 'CCDC 1400513'
_chemical_formula_sum 'C18 H18 Fe1 N2 O1 S2'
_chemical_formula_moiety
;
C18 H18 Fe1 N2 O1 S2
;
_journal_coden_Cambridge 36
_journal_volume 794
_journal_year 2015
_journal_page_first 216
_journal_name_full 'J.Organomet.Chem. '
loop_
_publ_author_name
"J.Skiba"
"R.Karpowicz"
"I.Szabo"
"B.Therrien"
"K.Kowalski"
_chemical_name_systematic
;
1-(3-(5-methyl-2-oxo-4-sulfanylidene-3,4-dihydropyrimidin-1(2H)-yl)propanethio
yl)ferrocene
;
_cell_volume    852.801
_exptl_crystal_colour 'orange'
_exptl_crystal_density_diffrn 1.551
_exptl_crystal_description 'block'
_diffrn_ambient_temperature 173
#These two values have been output from a single CSD field.
_refine_ls_R_factor_gt 0.0465
_refine_ls_wR_factor_gt 0.0465
_symmetry_cell_setting triclinic
_symmetry_space_group_name_H-M 'P -1'
_symmetry_Int_Tables_number 2
loop_
_symmetry_equiv_pos_site_id
_symmetry_equiv_pos_as_xyz
1 x,y,z
2 -x,-y,-z
_cell_length_a 7.3454(11)
_cell_length_b 9.7973(16)
_cell_length_c 11.9752(19)
_cell_angle_alpha 94.810(13)
_cell_angle_beta 93.292(13)
_cell_angle_gamma 95.593(13)
_cell_formula_units_Z 2
loop_
_atom_type_symbol
_atom_type_radius_bond
C 0.68
H 0.23
Fe 1.52
N 0.68
O 0.68
S 1.02
loop_
_atom_site_label
_atom_site_type_symbol
_atom_site_fract_x
_atom_site_fract_y
_atom_site_fract_z
C1 C 0.0983(3) 0.4330(3) 0.2126(2)
H1 H 0.01190 0.46950 0.16720
C2 C 0.1466(4) 0.4747(3) 0.3275(2)
H2 H 0.09850 0.54460 0.37020
C3 C 0.2802(4) 0.3921(3) 0.3662(2)
H3 H 0.33530 0.39920 0.43860
C4 C 0.3158(3) 0.2975(3) 0.2772(2)
H4 H 0.39580 0.22980 0.28110
C5 C 0.2071(3) 0.3237(3) 0.1788(2)
C6 C 0.2036(3) 0.2509(3) 0.0680(2)
C7 C 0.0696(3) 0.2888(3) -0.02192(19)
H5 H 0.11830 0.27350 -0.09500
H6 H 0.05210 0.38560 -0.00930
C8 C -0.1143(3) 0.2014(2) -0.0196(2)
H7 H -0.09740 0.10540 -0.03880
H8 H -0.15550 0.20960 0.05590
C9 C -0.3026(3) 0.1701(3) -0.20035(19)
H9 H -0.23700 0.09650 -0.22110
C10 C -0.4378(3) 0.1994(3) -0.27248(19)
C11 C -0.5410(3) 0.3118(3) -0.23918(18)
C12 C -0.3498(3) 0.3519(2) -0.06279(18)
C13 C -0.4850(4) 0.1163(3) -0.3835(2)
H10 H -0.40400 0.04550 -0.39240
H11 H -0.47180 0.17540 -0.44320
H12 H -0.60930 0.07490 -0.38590
C14 C -0.2282(3) 0.2031(3) 0.2787(2)
H13 H -0.30760 0.23140 0.22400
C15 C -0.1917(4) 0.2658(3) 0.3902(2)
H14 H -0.24390 0.34150 0.42180
C16 C -0.0611(4) 0.1916(3) 0.4445(2)
H15 H -0.01150 0.21080 0.51800
C17 C -0.0193(4) 0.0833(3) 0.3675(2)
H16 H 0.06220 0.01890 0.38160
C18 C -0.1231(4) 0.0902(3) 0.2653(2)
H17 H -0.12230 0.03080 0.20060
Fe1 Fe 0.04395(4) 0.27132(4) 0.30627(3)
N1 N -0.2562(3) 0.2426(2) -0.09793(16)
N2 N -0.4865(3) 0.3813(2) -0.13642(16)
H18 H -0.534(4) 0.445(3) -0.114(3)
O1 O -0.3115(2) 0.41807(17) 0.02870(13)
S1 S 0.34149(9) 0.13169(7) 0.03746(6)
S2 S -0.71848(9) 0.35981(8) -0.31371(5)
#END
