
#######################################################################
#
#                 Cambridge Crystallographic Data Centre
#                                CCDC
#
#######################################################################
#
# If this CIF has been generated from an entry in the Cambridge
# Structural Database, then it will include bibliographic, chemical,
# crystal, experimental, refinement or atomic coordinate data resulting
# from the CCDC's data processing and validation procedures.
#
#######################################################################

data_CSD_CIF_DUGCOY
_audit_creation_date 2010-02-16
_audit_creation_method CSD-ConQuest-V1
_database_code_CSD DUGCOY
_database_code_depnum_ccdc_archive 'CCDC 714361'
_chemical_formula_sum 'C19 H28 Fe1 O3 Si1'
_chemical_formula_moiety
;
C19 H28 Fe1 O3 Si1
;
_journal_coden_Cambridge 222
_journal_year 2009
_journal_page_first 3716
_journal_name_full 'Dalton Trans. '
loop_
_publ_author_name
"J.Niemeyer"
"G.Kehr"
"R.Frohlich"
"G.Erker"
_chemical_name_systematic
;
(S,S,p-S)-(-)-2-(4-(Methoxymethyl)-1,3-dioxan-2-yl)-1-(trimethylsilyl)ferrocen
e
;
_chemical_melting_point 327.15
_cell_volume    989.073
_exptl_crystal_colour 'yellow'
_exptl_crystal_density_diffrn 1.304
_exptl_special_details
;
Absolute configuration

;
_exptl_crystal_description 'block'
_exptl_crystal_preparation 'pentane'
_diffrn_ambient_temperature 223
#These two values have been output from a single CSD field.
_refine_ls_R_factor_gt 0.039
_refine_ls_wR_factor_gt 0.039
_symmetry_cell_setting triclinic
_symmetry_space_group_name_H-M 'P 1'
_symmetry_Int_Tables_number 1
loop_
_symmetry_equiv_pos_site_id
_symmetry_equiv_pos_as_xyz
1 x,y,z
_cell_length_a 9.4036(2)
_cell_length_b 10.1503(2)
_cell_length_c 11.0179(3)
_cell_angle_alpha 102.777(1)
_cell_angle_beta 104.675(1)
_cell_angle_gamma 91.046(1)
_cell_formula_units_Z 2
loop_
_atom_type_symbol
_atom_type_radius_bond
C 0.68
H 0.23
Fe 1.52
O 0.68
Si 1.20
loop_
_atom_site_label
_atom_site_type_symbol
_atom_site_fract_x
_atom_site_fract_y
_atom_site_fract_z
Fe1 Fe 0.47712(5) 0.53740(4) 0.16327(4)
Si1 Si 0.83819(12) 0.49933(11) 0.13295(11)
C1 C 0.4649(6) 0.7419(4) 0.1970(5)
H1 H 0.48380 0.79830 0.14480
C2 C 0.3279(6) 0.6777(5) 0.1867(5)
H2 H 0.23900 0.68280 0.12600
C3 C 0.3468(6) 0.6036(5) 0.2834(5)
H3 H 0.27270 0.55110 0.29870
C4 C 0.4976(6) 0.6227(4) 0.3533(4)
H4 H 0.54150 0.58530 0.42330
C5 C 0.5695(5) 0.7076(4) 0.2992(5)
H5 H 0.67040 0.73660 0.32650
C6 C 0.5636(4) 0.3540(3) 0.1469(4)
C7 C 0.6394(4) 0.4396(3) 0.0917(4)
C8 C 0.5259(5) 0.4743(4) -0.0087(4)
H6 H 0.54130 0.53000 -0.06270
C9 C 0.3882(5) 0.4125(4) -0.0139(4)
H7 H 0.29730 0.41950 -0.07130
C10 C 0.4119(4) 0.3377(4) 0.0831(4)
H8 H 0.33930 0.28630 0.10160
C11 C 0.6365(4) 0.2893(4) 0.2560(4)
H9 H 0.67870 0.36060 0.33540
O1 O 0.7506(3) 0.2142(2) 0.2196(3)
C12 C 0.8284(5) 0.1542(4) 0.3217(4)
H10 H 0.87200 0.22700 0.39950
C13 C 0.7205(6) 0.0632(5) 0.3521(6)
H11 H 0.76990 0.02810 0.42670
H12 H 0.68320 -0.01390 0.27830
C14 C 0.5941(6) 0.1425(6) 0.3811(7)
H13 H 0.51880 0.08170 0.39240
H14 H 0.62960 0.21210 0.46160
O2 O 0.5304(3) 0.2058(3) 0.2768(3)
C15 C 0.9500(6) 0.0787(5) 0.2796(6)
H15 H 0.98180 0.01300 0.33210
H16 H 0.91450 0.02930 0.18920
O3 O 1.0664(4) 0.1694(4) 0.2936(4)
C16 C 1.1848(8) 0.1043(10) 0.2542(9)
H17 H 1.20610 0.02750 0.29310
H18 H 1.27150 0.16780 0.28150
H19 H 1.15790 0.07310 0.16090
C17 C 0.9312(5) 0.5205(5) 0.3079(4)
H20 H 0.96060 0.43360 0.32420
H21 H 0.86360 0.55520 0.35860
H22 H 1.01770 0.58380 0.33190
C18 C 0.8513(5) 0.6668(5) 0.0905(5)
H23 H 0.95380 0.70170 0.11520
H24 H 0.79560 0.73000 0.13610
H25 H 0.81130 0.65560 -0.00170
C19 C 0.9351(6) 0.3729(5) 0.0384(5)
H26 H 0.92370 0.28550 0.05820
H27 H 1.03910 0.40250 0.06100
H28 H 0.89280 0.36520 -0.05310
Fe2 Fe 0.48529(5) 0.94322(4) 0.76119(4)
Si2 Si 0.11765(12) 0.91638(11) 0.77905(11)
C20 C 0.4018(5) 1.0491(4) 0.6255(4)
H29 H 0.30360 1.07110 0.60060
C21 C 0.5166(5) 1.1293(4) 0.7260(5)
H30 H 0.50810 1.21330 0.77950
C22 C 0.6460(5) 1.0595(5) 0.7309(6)
H31 H 0.73910 1.08870 0.78850
C23 C 0.6106(5) 0.9384(5) 0.6339(5)
H32 H 0.67670 0.87330 0.61540
C24 C 0.4598(5) 0.9307(4) 0.5693(4)
H33 H 0.40750 0.85980 0.50130
C25 C 0.3929(4) 0.7694(3) 0.7844(4)
C26 C 0.3170(4) 0.8837(3) 0.8307(4)
C27 C 0.4264(5) 0.9737(4) 0.9312(4)
H34 H 0.40900 1.05700 0.98040
C28 C 0.5649(5) 0.9173(4) 0.9448(4)
H35 H 0.65440 0.95670 1.00340
C29 C 0.5439(4) 0.7913(4) 0.8544(4)
H36 H 0.61740 0.73200 0.84260
C30 C 0.3212(4) 0.6456(3) 0.6840(4)
H37 H 0.28080 0.66950 0.60020
O4 O 0.2059(3) 0.5934(2) 0.7254(2)
C31 C 0.1279(4) 0.4742(3) 0.6312(4)
H38 H 0.08680 0.49910 0.54800
C32 C 0.2359(4) 0.3675(3) 0.6126(4)
H39 H 0.27060 0.33560 0.69190
H40 H 0.18700 0.28990 0.54300
C33 C 0.3648(5) 0.4273(4) 0.5793(4)
H41 H 0.43980 0.36170 0.57670
H42 H 0.33190 0.44650 0.49360
O5 O 0.4278(3) 0.5499(2) 0.6726(3)
C34 C 0.0029(5) 0.4294(4) 0.6783(5)
H43 H -0.02790 0.33350 0.63860
H44 H 0.03380 0.44110 0.77220
O6 O -0.1152(3) 0.5102(4) 0.6439(4)
C35 C -0.2314(6) 0.4887(7) 0.6936(7)
H45 H -0.26740 0.39390 0.66470
H46 H -0.31000 0.54400 0.66410
H47 H -0.19890 0.51320 0.78710
C36 C 0.0348(5) 0.8483(5) 0.6031(4)
H48 H 0.01700 0.75070 0.58530
H49 H 0.10200 0.87080 0.55550
H50 H -0.05770 0.88810 0.57660
C37 C 0.0129(6) 0.8393(5) 0.8729(5)
H51 H -0.09080 0.85400 0.84490
H52 H 0.05060 0.88110 0.96410
H53 H 0.02450 0.74280 0.85830
C38 C 0.1046(5) 1.1045(4) 0.8167(5)
H54 H 0.00370 1.12430 0.78270
H55 H 0.16900 1.14650 0.77750
H56 H 0.13430 1.13990 0.90950
#END
