
#######################################################################
#
#                 Cambridge Crystallographic Data Centre
#                                CCDC
#
#######################################################################
#
# If this CIF has been generated from an entry in the Cambridge
# Structural Database, then it will include bibliographic, chemical,
# crystal, experimental, refinement or atomic coordinate data resulting
# from the CCDC's data processing and validation procedures.
#
#######################################################################

data_CSD_CIF_DUHFAN
_audit_creation_date 1987-06-03
_audit_creation_method CSD-ConQuest-V1
_database_code_CSD DUHFAN
_database_code_depnum_ccdc_archive 'CCDC 1146152'
_chemical_formula_sum 'C10 H8 F4 Fe1 N3 P3'
_chemical_formula_moiety
;
C10 H8 F4 Fe1 N3 P3
;
_journal_coden_Cambridge 579
_journal_volume 5
_journal_year 1986
_journal_page_first 1626
_journal_name_full 'Organometallics '
loop_
_publ_author_name
"H.R.Allcock"
"K.D.Lavin"
"G.H.Riding"
"R.R.Whittle"
"M.Parvez"
_chemical_name_systematic
;
1,3-Ferrocenyl-1,3,5,5-tetrafluoro-cyclotriphosphazene
;
_cell_volume    667.939
_exptl_crystal_colour 'orange'
_exptl_crystal_density_diffrn 1.964
_diffrn_ambient_temperature ?
_diffrn_special_details
;
The study was carried out at room temperature,in the range 283-303K

;
#These two values have been output from a single CSD field.
_refine_ls_R_factor_gt 0.038
_refine_ls_wR_factor_gt 0.038
_symmetry_cell_setting triclinic
_symmetry_space_group_name_H-M 'P -1'
_symmetry_Int_Tables_number 2
loop_
_symmetry_equiv_pos_site_id
_symmetry_equiv_pos_as_xyz
1 x,y,z
2 -x,-y,-z
_cell_length_a 8.074(1)
_cell_length_b 8.164(1)
_cell_length_c 11.521(2)
_cell_angle_alpha 91.37(1)
_cell_angle_beta 92.31(1)
_cell_angle_gamma 118.20(1)
_cell_formula_units_Z 2
loop_
_atom_type_symbol
_atom_type_radius_bond
C 0.68
H 0.23
F 0.64
Fe 1.34
N 0.68
P 1.05
loop_
_atom_site_label
_atom_site_type_symbol
_atom_site_fract_x
_atom_site_fract_y
_atom_site_fract_z
Fe1 Fe 0.26534(4) 0.35227(5) 0.70812(3)
P1 P -0.16618(9) 0.22261(9) 0.63212(6)
P2 P -0.02823(9) 0.47931(9) 0.80223(7)
P3 P -0.2816(1) 0.1276(1) 0.84896(7)
F1 F -0.2824(2) 0.1824(2) 0.5150(2)
F2 F -0.0205(2) 0.6672(2) 0.8356(2)
F3 F -0.4821(3) 0.0613(3) 0.8885(2)
F4 F -0.2326(3) 0.0007(3) 0.9226(2)
N1 N -0.1111(3) 0.4316(3) 0.6706(2)
N2 N -0.1526(3) 0.3335(3) 0.8931(2)
N3 N -0.2939(3) 0.0684(3) 0.7180(2)
C1 C 0.0311(3) 0.1916(3) 0.6035(2)
C2 C 0.1825(4) 0.3044(4) 0.5350(3)
C3 C 0.3304(4) 0.2578(4) 0.5579(3)
C4 C 0.2708(4) 0.1193(4) 0.6403(3)
C5 C 0.0868(4) 0.0762(4) 0.6692(3)
C6 C 0.2066(4) 0.5184(4) 0.8154(4)
C7 C 0.3534(4) 0.6282(4) 0.7422(3)
C8 C 0.5051(4) 0.5894(5) 0.7650(3)
C9 C 0.4546(4) 0.4580(4) 0.8503(3)
C10 C 0.2691(4) 0.4096(4) 0.8831(3)
H1 H 0.196(4) 0.404(4) 0.478(3)
H2 H 0.463(4) 0.328(4) 0.525(3)
H3 H 0.341(4) 0.063(4) 0.679(3)
H4 H 0.005(4) -0.018(4) 0.725(3)
H5 H 0.361(4) 0.699(4) 0.699(3)
H6 H 0.604(4) 0.637(4) 0.721(3)
H7 H 0.536(4) 0.412(4) 0.884(3)
H8 H 0.196(4) 0.327(4) 0.936(3)
#END
