
#######################################################################
#
#                 Cambridge Crystallographic Data Centre
#                                CCDC
#
#######################################################################
#
# If this CIF has been generated from an entry in the Cambridge
# Structural Database, then it will include bibliographic, chemical,
# crystal, experimental, refinement or atomic coordinate data resulting
# from the CCDC's data processing and validation procedures.
#
#######################################################################

data_CSD_CIF_DUHMEZ
_audit_creation_date 2010-02-16
_audit_creation_method CSD-ConQuest-V1
_database_code_CSD DUHMEZ
_database_code_depnum_ccdc_archive 'CCDC 754176'
_chemical_formula_sum 'C11 H27 Cl3 Co1 N5 O1'
_chemical_formula_moiety
;
C11 H25 Cl1 Co1 N5 2+,2(Cl1 1-),H2 O1
;
_journal_coeditor_code "IUCr BT5082"
_journal_coden_Cambridge 1370
_journal_volume 65
_journal_year 2009
_journal_page_first m1458
_journal_name_full 'Acta Crystallogr.,Sect.E:Struct.Rep.Online '
loop_
_publ_author_name
"K.Ravichandran"
"P.Ramesh"
"C.M.Mahalakshmi"
"K.Anbalagan"
"M.N.Ponnuswamy"
_chemical_name_systematic
;
Chloro-bis(ethane-1,2-diamine)-(4-methylaniline)-cobalt(iii) dichloride 
monohydrate
;
_cell_volume    899.862
_exptl_crystal_colour 'red'
_exptl_crystal_density_diffrn 1.516
_exptl_crystal_description 'block'
_diffrn_ambient_temperature 293
#These two values have been output from a single CSD field.
_refine_ls_R_factor_gt 0.0315
_refine_ls_wR_factor_gt 0.0315
_symmetry_cell_setting triclinic
_symmetry_space_group_name_H-M 'P -1'
_symmetry_Int_Tables_number 2
loop_
_symmetry_equiv_pos_site_id
_symmetry_equiv_pos_as_xyz
1 x,y,z
2 -x,-y,-z
_cell_length_a 7.3796(2)
_cell_length_b 10.8367(3)
_cell_length_c 12.1789(3)
_cell_angle_alpha 75.201(1)
_cell_angle_beta 74.671(2)
_cell_angle_gamma 78.862(1)
_cell_formula_units_Z 2
loop_
_atom_type_symbol
_atom_type_radius_bond
C 0.68
H 0.23
Cl 0.99
Co 1.26
N 0.68
O 0.68
loop_
_atom_site_label
_atom_site_type_symbol
_atom_site_fract_x
_atom_site_fract_y
_atom_site_fract_z
Cl1 Cl 0.22560(5) 0.10374(4) 0.37990(3)
Cl2 Cl -0.29764(4) 0.01499(3) 0.10024(3)
Cl3 Cl 0.25518(5) 0.52141(3) 0.17368(3)
Co1 Co 0.11254(2) 0.140646(14) 0.218880(12)
O1 O -0.30863(18) 0.39142(13) 0.09756(12)
H1 H -0.287(3) 0.415(2) 0.029(2)
H2 H -0.408(4) 0.424(2) 0.122(2)
N1 N 0.32886(14) 0.23025(10) 0.13118(9)
H3 H 0.319(3) 0.3017(19) 0.1556(17)
H4 H 0.435(2) 0.1842(16) 0.1437(14)
C1 C 0.33739(18) 0.26181(12) 0.00430(11)
H5 H 0.40460 0.18970 -0.03020
H6 H 0.40310 0.33620 -0.03370
C2 C 0.13641(18) 0.29018(12) -0.01003(10)
H7 H 0.07610 0.37140 0.01090
H8 H 0.13340 0.29540 -0.09020
N2 N 0.03717(15) 0.18257(11) 0.06885(8)
H9 H -0.075(3) 0.1988(15) 0.0745(14)
H10 H 0.065(2) 0.1235(17) 0.0370(15)
N3 N 0.25627(16) -0.02271(11) 0.18526(11)
H11 H 0.325(3) -0.043(2) 0.2275(18)
H12 H 0.319(3) -0.0173(19) 0.1170(18)
C3 C 0.1287(2) -0.12166(12) 0.21421(12)
H13 H 0.19990 -0.20720 0.22700
H14 H 0.06660 -0.11250 0.15110
C4 C -0.0154(2) -0.10131(13) 0.32353(13)
H15 H -0.11600 -0.15360 0.33920
H16 H 0.04370 -0.12510 0.38960
N4 N -0.09254(16) 0.03689(11) 0.30385(10)
H17 H -0.146(3) 0.0534(18) 0.3710(18)
H18 H -0.177(3) 0.0465(18) 0.2693(17)
N5 N -0.04520(15) 0.30641(10) 0.25264(9)
H19 H 0.032(3) 0.3621(19) 0.2425(17)
H20 H -0.113(2) 0.3357(15) 0.2038(14)
C5 C -0.17753(17) 0.31173(11) 0.36291(10)
C6 C -0.35600(19) 0.27735(14) 0.38350(12)
H21 H -0.38980 0.24790 0.32730
C7 C -0.4850(2) 0.28674(16) 0.48792(13)
H22 H -0.60440 0.26210 0.50170
C8 C -0.4384(2) 0.33237(14) 0.57219(11)
C9 C -0.2609(2) 0.36910(13) 0.54924(11)
H23 H -0.22890 0.40180 0.60410
C10 C -0.12911(19) 0.35829(13) 0.44591(11)
H24 H -0.00930 0.38210 0.43240
C11 C -0.5802(3) 0.34315(19) 0.68492(14)
H25 H -0.53680 0.39330 0.72500
H26 H -0.59370 0.25870 0.73300
H27 H -0.70050 0.38440 0.66860
#END
