
#######################################################################
#
#                 Cambridge Crystallographic Data Centre
#                                CCDC
#
#######################################################################
#
# If this CIF has been generated from an entry in the Cambridge
# Structural Database, then it will include bibliographic, chemical,
# crystal, experimental, refinement or atomic coordinate data resulting
# from the CCDC's data processing and validation procedures.
#
#######################################################################

data_CSD_CIF_DUJXEM
_audit_creation_date 2010-02-16
_audit_creation_method CSD-ConQuest-V1
_database_code_CSD DUJXEM
_database_code_depnum_ccdc_archive 'CCDC 758633'
_chemical_formula_sum 'C8 H34 Mn2 N6 O20 S2'
_chemical_formula_moiety
;
C8 H18 Mn1 N6 O4 2+,H12 Mn1 O6 2+,2(O4 S1 2-),2(H2 O1)
;
_journal_coeditor_code "IUCr XU2658"
_journal_coden_Cambridge 1370
_journal_volume 65
_journal_year 2009
_journal_page_first m1504
_journal_name_full 'Acta Crystallogr.,Sect.E:Struct.Rep.Online '
loop_
_publ_author_name
"Li-Hua Huo"
"Shan Gao"
"S.W.Ng"
_chemical_name_systematic
;
Tetraaqua-bis(2-aminopyrazine-N)-manganese(ii) hexaaqua-manganese(ii) 
disulfate dihydrate
;
_cell_volume    697.950
_exptl_crystal_colour 'colorless'
_exptl_crystal_density_diffrn 1.685
_exptl_special_details
;
isostructural with the Co analogue

;
_exptl_crystal_description 'prism'
_diffrn_ambient_temperature 293
#These two values have been output from a single CSD field.
_refine_ls_R_factor_gt 0.0409
_refine_ls_wR_factor_gt 0.0409
_symmetry_cell_setting triclinic
_symmetry_space_group_name_H-M 'P -1'
_symmetry_Int_Tables_number 2
loop_
_symmetry_equiv_pos_site_id
_symmetry_equiv_pos_as_xyz
1 x,y,z
2 -x,-y,-z
_cell_length_a 6.6242(3)
_cell_length_b 8.4639(4)
_cell_length_c 13.2719(8)
_cell_angle_alpha 75.654(2)
_cell_angle_beta 78.364(2)
_cell_angle_gamma 78.834(2)
_cell_formula_units_Z 1
loop_
_atom_type_symbol
_atom_type_radius_bond
C 0.68
H 0.23
Mn 1.61
N 0.68
O 0.68
S 1.02
loop_
_atom_site_label
_atom_site_type_symbol
_atom_site_fract_x
_atom_site_fract_y
_atom_site_fract_z
Mn1 Mn 1.00000 1.00000 0.50000
Mn2 Mn 0.00000 0.50000 1.00000
S1 S 0.47994(10) 0.88750(9) 0.80279(5)
O1 O 0.4091(3) 0.9828(3) 0.70435(17)
O2 O 0.5386(4) 0.7129(3) 0.7978(2)
O3 O 0.6644(3) 0.9501(3) 0.81657(17)
O4 O 0.3121(4) 0.9084(4) 0.89137(19)
O5 O 0.7084(4) 0.9110(3) 0.53580(19)
O6 O 1.0209(4) 0.9617(3) 0.66525(17)
O7 O 0.2937(4) 0.4732(3) 0.8939(2)
O8 O -0.1480(4) 0.4748(3) 0.8707(2)
O9 O 0.0400(4) 0.2353(3) 1.0577(2)
O10 O 0.6189(4) 0.2200(3) 0.9081(2)
N1 N 0.8363(4) 1.2689(3) 0.4980(2)
N2 N 0.7098(4) 1.6040(3) 0.4930(2)
N3 N 0.7810(6) 1.6587(4) 0.3104(3)
C1 C 0.8414(5) 1.3800(4) 0.4078(3)
H1 H 0.88990 1.34470 0.34500
C2 C 0.7760(5) 1.5496(4) 0.4039(3)
C3 C 0.7019(5) 1.4892(4) 0.5836(3)
H2 H 0.65320 1.52370 0.64660
C4 C 0.7623(5) 1.3238(4) 0.5874(3)
H3 H 0.75220 1.24910 0.65210
H4 H 0.614(5) 0.948(5) 0.581(3)
H5 H 0.715(7) 0.817(3) 0.521(4)
H6 H 0.919(4) 0.972(5) 0.714(2)
H7 H 1.135(4) 0.967(5) 0.683(3)
H8 H 0.357(7) 0.556(4) 0.866(4)
H9 H 0.391(5) 0.392(3) 0.901(3)
H10 H -0.195(8) 0.386(4) 0.876(4)
H11 H -0.247(5) 0.554(4) 0.859(4)
H12 H 0.126(6) 0.160(4) 1.089(3)
H13 H -0.072(5) 0.194(7) 1.074(5)
H14 H 0.624(9) 0.148(5) 0.873(4)
H15 H 0.641(9) 0.170(6) 0.9698(19)
H16 H 0.831(7) 1.629(6) 0.252(2)
H17 H 0.738(8) 1.7613(19) 0.308(4)
O5A O 1.2916(4) 1.0890(3) 0.46420(19)
O6A O 0.9791(4) 1.0383(3) 0.33475(17)
O7A O -0.2937(4) 0.5268(3) 1.1061(2)
O8A O 0.1480(4) 0.5252(3) 1.1293(2)
O9A O -0.0400(4) 0.7647(3) 0.9423(2)
N1A N 1.1637(4) 0.7311(3) 0.5020(2)
N2A N 1.2902(4) 0.3960(3) 0.5070(2)
N3A N 1.2190(6) 0.3413(4) 0.6896(3)
C1A C 1.1586(5) 0.6200(4) 0.5922(3)
H1A H 1.11010 0.65530 0.65500
C2A C 1.2240(5) 0.4504(4) 0.5961(3)
C3A C 1.2981(5) 0.5108(4) 0.4164(3)
H2A H 1.34680 0.47630 0.35340
C4A C 1.2377(5) 0.6762(4) 0.4126(3)
H3A H 1.24780 0.75090 0.34790
H4A H 1.386(5) 1.052(5) 0.419(3)
H5A H 1.285(7) 1.183(3) 0.479(4)
H6A H 1.081(4) 1.028(5) 0.286(2)
H7A H 0.865(4) 1.033(5) 0.317(3)
H8A H -0.357(7) 0.444(4) 1.134(4)
H9A H -0.391(5) 0.608(3) 1.099(3)
H10A H 0.195(8) 0.614(4) 1.124(4)
H11A H 0.247(5) 0.446(4) 1.141(4)
H12A H -0.126(6) 0.840(4) 0.911(3)
H13A H 0.072(5) 0.806(7) 0.926(5)
H16A H 1.169(7) 0.371(6) 0.748(2)
H17A H 1.262(8) 0.2387(19) 0.692(4)
#END
