
#######################################################################
#
#                 Cambridge Crystallographic Data Centre
#                                CCDC
#
#######################################################################
#
# If this CIF has been generated from an entry in the Cambridge
# Structural Database, then it will include bibliographic, chemical,
# crystal, experimental, refinement or atomic coordinate data resulting
# from the CCDC's data processing and validation procedures.
#
#######################################################################

data_CSD_CIF_DULMIG
_audit_creation_date 1987-05-13
_audit_creation_method CSD-ConQuest-V1
_database_code_CSD DULMIG
_chemical_formula_sum 'C11 H15 Cr1'
_chemical_formula_moiety
;
C11 H15 Cr1
;
_journal_coden_Cambridge 579
_journal_volume 5
_journal_year 1986
_journal_page_first 1268
_journal_name_full 'Organometallics '
loop_
_publ_author_name
"K.Angermund"
"A.Dohring"
"P.W.Jolly"
"C.Kruger"
"C.C.Romao"
_chemical_name_systematic
;
bis(\h^3^-Allyl)-(\h^5^-cyclopentadienyl)-chromium
;
_cell_volume    952.594
_exptl_crystal_colour 'orange'
_exptl_crystal_density_diffrn 1.39
_diffrn_ambient_temperature 100
#These two values have been output from a single CSD field.
_refine_ls_R_factor_gt 0.03
_refine_ls_wR_factor_gt 0.03
_symmetry_cell_setting monoclinic
_symmetry_space_group_name_H-M 'P 21/a'
_symmetry_Int_Tables_number 14
loop_
_symmetry_equiv_pos_site_id
_symmetry_equiv_pos_as_xyz
1 x,y,z
2 1/2-x,1/2+y,-z
3 -x,-y,-z
4 -1/2+x,-1/2-y,z
_cell_length_a 11.165(4)
_cell_length_b 7.154(2)
_cell_length_c 12.211(2)
_cell_angle_alpha 90
_cell_angle_beta 102.40(2)
_cell_angle_gamma 90
_cell_formula_units_Z 4
loop_
_atom_type_symbol
_atom_type_radius_bond
C 0.68
H 0.23
Cr 1.35
loop_
_atom_site_label
_atom_site_type_symbol
_atom_site_fract_x
_atom_site_fract_y
_atom_site_fract_z
Cr1 Cr 0.3310(1) 0.0934(1) 0.2487(1)
C1 C 0.2399(2) 0.3748(3) 0.2153(2)
C2 C 0.3515(2) 0.3797(3) 0.1789(2)
C3 C 0.4485(2) 0.3509(3) 0.2733(2)
C4 C 0.3960(2) 0.3312(3) 0.3676(2)
C5 C 0.2673(2) 0.3440(3) 0.3317(2)
C6 C 0.1734(2) -0.0098(4) 0.1258(2)
C7 C 0.2797(2) -0.1087(3) 0.1166(2)
C8 C 0.3824(2) -0.0118(4) 0.0961(2)
C9 C 0.4805(2) -0.0729(3) 0.3458(2)
C10 C 0.3673(2) -0.1602(3) 0.3464(2)
C11 C 0.2734(2) -0.0638(3) 0.3825(2)
H1 H 0.1660(27) 0.3919(38) 0.1727(23)
H2 H 0.3609(27) 0.3995(40) 0.1056(25)
H3 H 0.5265(26) 0.3471(40) 0.2718(22)
H4 H 0.4426(26) 0.3034(44) 0.4420(22)
H5 H 0.2092(26) 0.3393(42) 0.3779(23)
H6 H 0.1166(29) -0.0693(45) 0.1501(24)
H7 H 0.1479(28) 0.0896(42) 0.0802(24)
H8 H 0.2853(26) -0.2419(44) 0.1421(22)
H9 H 0.3740(26) 0.0852(41) 0.0511(23)
H10 H 0.4557(29) -0.0698(43) 0.1021(24)
H11 H 0.5162(25) -0.0088(43) 0.4037(22)
H12 H 0.5426(29) -0.1299(44) 0.3096(25)
H13 H 0.3521(25) -0.2613(42) 0.3114(22)
H14 H 0.1963(29) -0.1202(41) 0.3676(24)
H15 H 0.2887(26) 0.0229(43) 0.4417(22)
#END
