
#######################################################################
#
#                 Cambridge Crystallographic Data Centre
#                                CCDC
#
#######################################################################
#
# If this CIF has been generated from an entry in the Cambridge
# Structural Database, then it will include bibliographic, chemical,
# crystal, experimental, refinement or atomic coordinate data resulting
# from the CCDC's data processing and validation procedures.
#
#######################################################################

data_CSD_CIF_DULSAE10
_audit_creation_date 1988-09-21
_audit_creation_method CSD-ConQuest-V1
_database_code_CSD DULSAE10
_chemical_formula_sum 'C14 H15 Fe1 N1 O4'
_chemical_formula_moiety
;
C14 H15 Fe1 N1 O4
;
_journal_coden_Cambridge 579
_journal_volume 7
_journal_year 1988
_journal_page_first 200
_journal_name_full 'Organometallics '
loop_
_publ_author_name
"M.M.Turnbull"
"B.M.Foxman"
"M.Rosenblum"
_chemical_name_systematic
;
(\h^5^-Cyclopentadienyl)-dicarbonyl-((2R,3R,5R,6R)-3-cyano-5,6-dimethyl-1,4-di
oxan-2-yl)-iron(ii)
;
_cell_volume    721.682
_exptl_crystal_colour 'bright yellow'
_exptl_crystal_density_diffrn 1.459
_exptl_special_details
;
Absolute configuration

;
_diffrn_ambient_temperature ?
_diffrn_special_details
;
The study was carried out at room temperature,in the range 283-303K

;
#These two values have been output from a single CSD field.
_refine_ls_R_factor_gt 0.022
_refine_ls_wR_factor_gt 0.022
_symmetry_cell_setting monoclinic
_symmetry_space_group_name_H-M 'P 21'
_symmetry_Int_Tables_number 4
loop_
_symmetry_equiv_pos_site_id
_symmetry_equiv_pos_as_xyz
1 x,y,z
2 -x,1/2+y,-z
_cell_length_a 7.859(2)
_cell_length_b 7.625(2)
_cell_length_c 12.212(3)
_cell_angle_alpha 90
_cell_angle_beta 99.54(3)
_cell_angle_gamma 90
_cell_formula_units_Z 2
loop_
_atom_type_symbol
_atom_type_radius_bond
C 0.68
H 0.23
Fe 1.34
N 0.68
O 0.68
loop_
_atom_site_label
_atom_site_type_symbol
_atom_site_fract_x
_atom_site_fract_y
_atom_site_fract_z
Fe1 Fe 0.01938(3) 0.25000 0.23647(2)
O1 O 0.1497(3) 0.5980(3) 0.2978(2)
O2 O -0.0413(4) 0.1542(4) 0.4565(2)
O3 O -0.2410(2) 0.6429(2) 0.1867(1)
O4 O -0.3361(2) 0.3351(2) 0.2825(1)
N1 N -0.5717(3) 0.4939(4) -0.0010(3)
C1 C 0.0906(3) 0.4644(3) 0.2744(2)
C2 C -0.0194(3) 0.1926(3) 0.3696(2)
C3 C 0.1491(3) 0.2413(5) 0.0985(2)
C4 C -0.0040(3) 0.1434(4) 0.0750(2)
C5 C 0.0041(3) 0.0070(3) 0.1526(2)
C6 C 0.1665(4) 0.0201(3) 0.2239(2)
C7 C 0.2556(3) 0.1648(4) 0.1906(3)
C8 C -0.2380(2) 0.3211(3) 0.1943(1)
C9 C -0.2645(2) 0.4875(3) 0.1237(2)
C10 C -0.3473(3) 0.6500(3) 0.2724(2)
C11 C -0.3057(3) 0.4915(3) 0.3466(2)
C12 C -0.3086(5) 0.8232(5) 0.3295(3)
C13 C -0.4137(4) 0.4767(5) 0.4391(2)
C14 C -0.4401(3) 0.4901(4) 0.0534(2)
H1 H 0.17630 0.34200 0.05900
H2 H -0.09710 0.16580 0.01650
H3 H -0.08260 -0.07830 0.15680
H4 H 0.20750 -0.05630 0.28390
H5 H 0.36690 0.20390 0.22380
H6 H -0.28270 0.22180 0.15200
H7 H -0.17790 0.48410 0.07790
H8 H -0.46790 0.64460 0.24600
H9 H -0.18820 0.50590 0.37930
H10 H -0.37400 0.83410 0.38790
H11 H -0.18900 0.82940 0.35910
H12 H -0.33810 0.91540 0.27750
H13 H -0.53230 0.48920 0.40860
H14 H -0.39500 0.36520 0.47370
H15 H -0.38070 0.56630 0.49240
#END
