
#######################################################################
#
#                 Cambridge Crystallographic Data Centre
#                                CCDC
#
#######################################################################
#
# If this CIF has been generated from an entry in the Cambridge
# Structural Database, then it will include bibliographic, chemical,
# crystal, experimental, refinement or atomic coordinate data resulting
# from the CCDC's data processing and validation procedures.
#
#######################################################################

data_CSD_CIF_DULSAE
_audit_creation_date 1987-05-13
_audit_creation_method CSD-ConQuest-V1
_database_code_CSD DULSAE
_chemical_formula_sum 'C14 H15 Fe1 N1 O4'
_chemical_formula_moiety
;
C14 H15 Fe1 N1 O4
;
_journal_coden_Cambridge 579
_journal_volume 5
_journal_year 1986
_journal_page_first 1062
_journal_name_full 'Organometallics '
loop_
_publ_author_name
"M.Rosenblum"
"M.M.Turnbull"
"B.M.Foxman"
_chemical_name_systematic
;
Dicarbonyl-(\h^5^-cyclopentadienyl)-(3-cyano-5,6-dimethyl-1,4-dioxan-2-yl)-iro
n
;
_cell_volume    721.682
_exptl_crystal_density_diffrn 1.469
_exptl_special_details
;
Absolute configuration

;
_diffrn_ambient_temperature ?
_diffrn_special_details
;
The study was carried out at room temperature,in the range 283-303K

;
#These two values have been output from a single CSD field.
_refine_ls_R_factor_gt 0.022
_refine_ls_wR_factor_gt 0.022
_symmetry_cell_setting monoclinic
_symmetry_space_group_name_H-M 'P 21'
_symmetry_Int_Tables_number 4
loop_
_symmetry_equiv_pos_site_id
_symmetry_equiv_pos_as_xyz
1 x,y,z
2 -x,1/2+y,-z
_cell_length_a 7.859(2)
_cell_length_b 7.625(2)
_cell_length_c 12.212(3)
_cell_angle_alpha 90
_cell_angle_beta 99.54(3)
_cell_angle_gamma 90
_cell_formula_units_Z 2
loop_
_atom_type_symbol
_atom_type_radius_bond
C 0.68
H 0.23
Fe 1.34
N 0.68
O 0.68
loop_
_atom_site_label
_atom_site_type_symbol
_atom_site_fract_x
_atom_site_fract_y
_atom_site_fract_z
Fe1 Fe 0.01938(3) 0.25000 0.23647(2)
C1 C 0.0905(3) 0.4644(3) 0.2744(2)
C2 C -0.0194(3) 0.1926(3) 0.3696(2)
C3 C 0.1491(3) 0.2413(5) 0.0985(2)
C4 C -0.0040(3) 0.1434(4) 0.0750(2)
C5 C 0.0041(3) 0.0069(3) 0.1526(2)
C6 C 0.1665(4) 0.0201(3) 0.2239(2)
C7 C 0.2556(3) 0.1648(4) 0.1906(2)
C8 C -0.2380(2) 0.3211(3) 0.19429(14)
C9 C -0.2645(2) 0.4875(3) 0.12374(15)
C10 C -0.3473(3) 0.6500(3) 0.2724(2)
C11 C -0.3057(2) 0.4915(3) 0.3466(2)
C12 C -0.3086(5) 0.8232(5) 0.3295(3)
C13 C -0.4137(4) 0.4767(5) 0.4391(2)
C14 C -0.4401(3) 0.4901(4) 0.0534(2)
O1 O 0.1497(3) 0.5980(3) 0.2978(2)
O2 O -0.0413(3) 0.1542(4) 0.4565(2)
O3 O -0.2410(2) 0.6429(2) 0.18668(13)
O4 O -0.3361(2) 0.3351(2) 0.28252(11)
N1 N -0.5717(3) 0.4939(4) -0.0009(3)
H1 H -0.37400 0.83420 0.38800
H2 H -0.18910 0.82950 0.35910
H3 H -0.33810 0.91540 0.27760
H4 H -0.53230 0.48930 0.40870
H5 H -0.39500 0.36520 0.47380
H6 H -0.38070 0.56630 0.49240
H7 H 0.17640 0.34200 0.05910
H8 H -0.09710 0.16590 0.01650
H9 H -0.08260 -0.07830 0.15680
H10 H 0.20760 -0.05630 0.28400
H11 H 0.36690 0.20400 0.22390
H12 H -0.28270 0.22180 0.15210
H13 H -0.17800 0.48410 0.07790
H14 H -0.46790 0.64460 0.24610
H15 H -0.18820 0.50600 0.37940
#END
