
#######################################################################
#
#                 Cambridge Crystallographic Data Centre
#                                CCDC
#
#######################################################################
#
# If this CIF has been generated from an entry in the Cambridge
# Structural Database, then it will include bibliographic, chemical,
# crystal, experimental, refinement or atomic coordinate data resulting
# from the CCDC's data processing and validation procedures.
#
#######################################################################

data_CSD_CIF_DULTUA
_audit_creation_date 2010-03-26
_audit_creation_method CSD-ConQuest-V1
_database_code_CSD DULTUA
_database_code_depnum_ccdc_archive 'CCDC 764998'
_chemical_formula_sum 'C13 H12 Cr1 O5'
_chemical_formula_moiety
;
C13 H12 Cr1 O5
;
_journal_coeditor_code "IUCr KP2246"
_journal_coden_Cambridge 1370
_journal_volume 66
_journal_year 2010
_journal_page_first m148
_journal_name_full 'Acta Crystallogr.,Sect.E:Struct.Rep.Online '
loop_
_publ_author_name
"C.B.Duke III"
"C.R.Ross"
"T.J.Burkey"
_chemical_name_systematic
;
Tricarbonyl-(\h^6^-2-methyl-2-phenyl-1,3-dioxolane)-chromium(0)
;
_cell_volume    619.792
_exptl_crystal_colour 'yellow'
_exptl_crystal_density_diffrn 1.609
_exptl_crystal_description 'block'
_exptl_crystal_preparation 'diethyl ether/hexanes'
_diffrn_ambient_temperature 173
#These two values have been output from a single CSD field.
_refine_ls_R_factor_gt 0.0277
_refine_ls_wR_factor_gt 0.0277
_symmetry_cell_setting triclinic
_symmetry_space_group_name_H-M 'P -1'
_symmetry_Int_Tables_number 2
loop_
_symmetry_equiv_pos_site_id
_symmetry_equiv_pos_as_xyz
1 x,y,z
2 -x,-y,-z
_cell_length_a 7.1950(3)
_cell_length_b 7.2120(3)
_cell_length_c 13.9235(6)
_cell_angle_alpha 75.573(2)
_cell_angle_beta 79.277(2)
_cell_angle_gamma 62.734(1)
_cell_formula_units_Z 2
loop_
_atom_type_symbol
_atom_type_radius_bond
C 0.68
H 0.23
Cr 1.39
O 0.68
loop_
_atom_site_label
_atom_site_type_symbol
_atom_site_fract_x
_atom_site_fract_y
_atom_site_fract_z
Cr1 Cr 0.56963(4) 0.54830(4) 0.67821(2)
O1 O 0.5396(2) 0.9647(2) 0.83565(10)
O2 O 0.64557(19) 0.6261(2) 0.92482(9)
O3 O 0.9718(2) 0.2980(2) 0.77613(11)
O4 O 0.7158(3) 0.1574(2) 0.59248(11)
O5 O 0.7899(3) 0.7234(2) 0.50035(13)
C1 C 0.4720(3) 0.8035(3) 0.87807(14)
C2 C 0.8237(3) 0.6734(3) 0.90280(15)
H1 H 0.95170 0.55010 0.88440
H2 H 0.84830 0.71420 0.96040
C3 C 0.3036(3) 0.4871(3) 0.75700(15)
H3 H 0.29210 0.35650 0.77330
C4 C 0.4040(3) 0.7366(3) 0.79966(14)
C5 C 0.3431(3) 0.8710(3) 0.70791(14)
H4 H 0.35770 1.00000 0.69070
C6 C 0.6577(3) 0.3107(3) 0.62306(14)
C7 C 0.7633(3) 0.8586(3) 0.81534(15)
H5 H 0.83050 0.95200 0.81440
H6 H 0.80120 0.80880 0.75120
C8 C 0.2600(3) 0.8157(3) 0.64066(14)
H7 H 0.21910 0.90750 0.57860
C9 C 0.3853(3) 0.5420(3) 0.82357(14)
H8 H 0.42850 0.44870 0.88500
C10 C 0.8162(3) 0.4006(3) 0.73882(14)
C11 C 0.2380(3) 0.6255(3) 0.66549(15)
H9 H 0.17930 0.58990 0.62110
C12 C 0.7044(3) 0.6586(3) 0.56913(16)
C13 C 0.2905(3) 0.8842(3) 0.95580(14)
H10 H 0.33490 0.92660 1.00590
H11 H 0.24720 0.77120 0.98800
H12 H 0.17230 1.00680 0.92370
#END
