
#######################################################################
#
#                 Cambridge Crystallographic Data Centre
#                                CCDC
#
#######################################################################
#
# If this CIF has been generated from an entry in the Cambridge
# Structural Database, then it will include bibliographic, chemical,
# crystal, experimental, refinement or atomic coordinate data resulting
# from the CCDC's data processing and validation procedures.
#
#######################################################################

data_CSD_CIF_DUMBOC
_audit_creation_date 1987-06-03
_audit_creation_method CSD-ConQuest-V1
_database_code_CSD DUMBOC
_database_code_depnum_ccdc_archive 'CCDC 1146510'
_chemical_formula_sum 'C14 H22 Co1 N8 O10'
_chemical_formula_moiety
;
C14 H22 Co1 N6 O4 2+,2(N1 O3 1-)
;
_journal_coden_Cambridge 11
_journal_volume 115
_journal_year 1985
_journal_page_first 715
_journal_name_full 'Gazz.Chim.Ital. '
loop_
_publ_author_name
"S.Ianelli"
"M.Nardelli"
"C.Pelizzi"
_chemical_name_systematic
;
Diaqua-bis(pyrrole-2-carboxaldehyde-N-acetylhydrazone-N,O)-cobalt(ii) 
dinitrate
;
_cell_volume    539.102
_exptl_crystal_colour 'orange'
_exptl_crystal_density_diffrn 1.606
_exptl_special_details
;
Bond lengths N4-O3 and N4-O4 have been transposed

;
_diffrn_ambient_temperature ?
_diffrn_special_details
;
The study was carried out at room temperature,in the range 283-303K

;
#These two values have been output from a single CSD field.
_refine_ls_R_factor_gt 0.0411
_refine_ls_wR_factor_gt 0.0411
_symmetry_cell_setting triclinic
_symmetry_space_group_name_H-M 'P -1'
_symmetry_Int_Tables_number 2
loop_
_symmetry_equiv_pos_site_id
_symmetry_equiv_pos_as_xyz
1 x,y,z
2 -x,-y,-z
_cell_length_a 9.452(7)
_cell_length_b 8.028(6)
_cell_length_c 7.736(4)
_cell_angle_alpha 95.93(2)
_cell_angle_beta 87.40(3)
_cell_angle_gamma 68.00(4)
_cell_formula_units_Z 1
loop_
_atom_type_symbol
_atom_type_radius_bond
C 0.68
H 0.23
Co 1.33
N 0.68
O 0.68
loop_
_atom_site_label
_atom_site_type_symbol
_atom_site_fract_x
_atom_site_fract_y
_atom_site_fract_z
Co1 Co 0.00000 0.00000 0.00000
O1 O -0.1942(3) 0.1371(3) 0.1576(3)
O2 O -0.1015(4) 0.1313(4) -0.2086(4)
N1 N -0.0877(3) 0.3351(4) 0.2341(4)
N2 N 0.0368(3) 0.2430(3) 0.1083(3)
N3 N 0.3359(3) 0.1102(4) -0.1276(4)
C1 C -0.3254(5) 0.3706(6) 0.3906(6)
C2 C -0.1967(4) 0.2743(4) 0.2522(4)
C3 C 0.1339(4) 0.3199(4) 0.1001(5)
C4 C 0.2735(4) 0.2626(4) -0.0074(4)
C5 C 0.3736(4) 0.3509(6) -0.0093(6)
C6 C 0.4976(4) 0.2479(6) -0.1298(6)
C7 C 0.4712(4) 0.1023(5) -0.2001(5)
H1 H -0.4123(67) 0.4171(82) 0.3388(78)
H2 H -0.3433(56) 0.2926(78) 0.4581(73)
H3 H -0.3163(56) 0.4714(81) 0.4227(69)
H4 H 0.1023(40) 0.4266(55) 0.1838(51)
H5 H 0.3611(44) 0.4582(57) 0.0610(53)
H6 H 0.5849(48) 0.2779(57) -0.1603(54)
H7 H 0.5197(48) 0.0159(58) -0.2746(56)
H8 H -0.0954(48) 0.4212(65) 0.2815(59)
H9 H 0.2911(49) 0.0321(59) -0.1563(56)
H10 H -0.0537(51) 0.1760(63) -0.2559(60)
H11 H -0.1294(61) 0.0926(80) -0.2663(77)
O3 O 0.1775(4) 0.0597(4) -0.5129(4)
O4 O 0.0555(4) 0.3166(4) -0.3617(4)
O5 O 0.2482(4) 0.2772(5) -0.5374(5)
N4 N 0.1604(4) 0.2178(4) -0.4724(4)
O1A O 0.1942(3) -0.1371(3) -0.1576(3)
O2A O 0.1015(4) -0.1313(4) 0.2086(4)
N2A N -0.0368(3) -0.2430(3) -0.1083(3)
C2A C 0.1967(4) -0.2743(4) -0.2522(4)
H10A H 0.0537(51) -0.1760(63) 0.2559(60)
H11A H 0.1294(61) -0.0926(80) 0.2663(77)
N1A N 0.0877(3) -0.3351(4) -0.2341(4)
C3A C -0.1339(4) -0.3199(4) -0.1001(5)
C1A C 0.3254(5) -0.3706(6) -0.3906(6)
H8A H 0.0954(48) -0.4212(65) -0.2815(59)
C4A C -0.2735(4) -0.2626(4) 0.0074(4)
H4A H -0.1023(40) -0.4266(55) -0.1838(51)
H1A H 0.4123(67) -0.4171(82) -0.3388(78)
H2A H 0.3433(56) -0.2926(78) -0.4581(73)
H3A H 0.3163(56) -0.4714(81) -0.4227(69)
N3A N -0.3359(3) -0.1102(4) 0.1276(4)
C5A C -0.3736(4) -0.3509(6) 0.0093(6)
C7A C -0.4712(4) -0.1023(5) 0.2001(5)
H9A H -0.2911(49) -0.0321(59) 0.1563(56)
C6A C -0.4976(4) -0.2479(6) 0.1298(6)
H5A H -0.3611(44) -0.4582(57) -0.0610(53)
H7A H -0.5197(48) -0.0159(58) 0.2746(56)
H6A H -0.5849(48) -0.2779(57) 0.1603(54)
#END
