
#######################################################################
#
#                 Cambridge Crystallographic Data Centre
#                                CCDC
#
#######################################################################
#
# If this CIF has been generated from an entry in the Cambridge
# Structural Database, then it will include bibliographic, chemical,
# crystal, experimental, refinement or atomic coordinate data resulting
# from the CCDC's data processing and validation procedures.
#
#######################################################################

data_CSD_CIF_DUPQEL
_audit_creation_date 2010-04-23
_audit_creation_method CSD-ConQuest-V1
_database_code_CSD DUPQEL
_database_code_depnum_ccdc_archive 'CCDC 766648'
_chemical_formula_sum 'C24 H42 Cl2 Co1 N8 O14'
_chemical_formula_moiety
;
C24 H42 Co1 N8 O6 2+,2(Cl1 O4 1-)
;
_journal_coeditor_code "IUCr RZ2401"
_journal_coden_Cambridge 1370
_journal_volume 66
_journal_year 2010
_journal_page_first m19
_journal_name_full 'Acta Crystallogr.,Sect.E:Struct.Rep.Online '
loop_
_publ_author_name
"Zhi Yong Gao"
"Hua Jie Guo"
"Wen Bei Zhang"
_chemical_name_systematic
;
Dimethanol-bis[4,4,5,5-tetramethyl-2-(5-methylimidazol-4-yl)-2-imidazoline-1-o
xyl-3-oxide-\k^2^O,N]-cobalt(ii) diperchlorate
;
_cell_volume    855.413
_exptl_crystal_colour 'purple'
_exptl_crystal_density_diffrn 1.546
_exptl_crystal_description 'block'
_diffrn_ambient_temperature 295
#These two values have been output from a single CSD field.
_refine_ls_R_factor_gt 0.0582
_refine_ls_wR_factor_gt 0.0582
_symmetry_cell_setting triclinic
_symmetry_space_group_name_H-M 'P -1'
_symmetry_Int_Tables_number 2
loop_
_symmetry_equiv_pos_site_id
_symmetry_equiv_pos_as_xyz
1 x,y,z
2 -x,-y,-z
_cell_length_a 8.761(3)
_cell_length_b 9.030(3)
_cell_length_c 11.819(4)
_cell_angle_alpha 88.470(8)
_cell_angle_beta 85.260(11)
_cell_angle_gamma 66.638(7)
_cell_formula_units_Z 1
loop_
_atom_type_symbol
_atom_type_radius_bond
C 0.68
H 0.23
Cl 0.99
Co 1.26
N 0.68
O 0.68
loop_
_atom_site_label
_atom_site_type_symbol
_atom_site_fract_x
_atom_site_fract_y
_atom_site_fract_z
Co1 Co 0.50000 0.50000 0.50000
O1 O 0.7069(3) 0.5395(3) 0.44273(19)
O2 O 0.6974(3) 0.6104(4) 0.0527(2)
O3 O 0.1971(5) 0.1192(5) 0.3303(3)
O4 O 0.3181(5) 0.0497(4) 0.1465(3)
O5 O 0.0366(5) 0.1057(6) 0.1857(4)
O6 O 0.2364(6) -0.1310(4) 0.2532(3)
O7 O 0.3412(3) 0.7434(3) 0.4682(2)
H1 H 0.32540 0.78100 0.40150
N1 N 0.4844(3) 0.4351(3) 0.3332(2)
N2 N 0.4676(4) 0.2834(4) 0.1975(3)
H2 H 0.43570 0.21950 0.16280
N3 N 0.7304(3) 0.5838(3) 0.3387(2)
N4 N 0.7347(3) 0.6110(4) 0.1542(2)
C1 C 0.5901(4) 0.4399(4) 0.2393(3)
C2 C 0.5821(4) 0.3431(4) 0.1536(3)
C3 C 0.4138(4) 0.3410(4) 0.3035(3)
H3 H 0.33590 0.31680 0.34980
C4 C 0.6842(4) 0.5387(4) 0.2443(3)
C5 C 0.7972(4) 0.7126(4) 0.3165(3)
C6 C 0.8510(5) 0.6844(5) 0.1892(3)
C7 C 0.6485(6) 0.8712(5) 0.3436(5)
H4 H 0.56040 0.88080 0.29700
H5 H 0.68170 0.95970 0.32870
H6 H 0.60980 0.87310 0.42220
C8 C 0.9369(5) 0.6878(5) 0.3931(3)
H7 H 0.89040 0.71590 0.46980
H8 H 0.99450 0.75510 0.36800
H9 H 1.01360 0.57680 0.38980
C9 C 0.8249(7) 0.8374(6) 0.1205(4)
H10 H 0.86360 0.80890 0.04260
H11 H 0.88630 0.89290 0.15060
H12 H 0.70840 0.90650 0.12530
C10 C 1.0289(5) 0.5579(7) 0.1667(4)
H13 H 1.03820 0.45900 0.20350
H14 H 1.10590 0.59600 0.19600
H15 H 1.05440 0.53930 0.08640
C11 C 0.6750(5) 0.2887(5) 0.0407(3)
H16 H 0.66250 0.19350 0.01700
H17 H 0.79110 0.26500 0.04620
H18 H 0.63130 0.37260 -0.01390
C12 C 0.2019(5) 0.8318(5) 0.5434(4)
H19 H 0.12200 0.78330 0.54540
H20 H 0.15160 0.94100 0.51760
H21 H 0.23750 0.83100 0.61810
Cl1 Cl 0.19354(13) 0.03724(13) 0.22937(9)
O1A O 0.2931(3) 0.4605(3) 0.55727(19)
O2A O 0.3026(3) 0.3896(4) 0.9473(2)
O7A O 0.6588(3) 0.2566(3) 0.5318(2)
H1A H 0.67460 0.21900 0.59850
N1A N 0.5156(3) 0.5649(3) 0.6668(2)
N2A N 0.5324(4) 0.7166(4) 0.8025(3)
H2A H 0.56430 0.78050 0.83720
N3A N 0.2696(3) 0.4162(3) 0.6613(2)
N4A N 0.2653(3) 0.3890(4) 0.8458(2)
C1A C 0.4099(4) 0.5601(4) 0.7607(3)
C2A C 0.4179(4) 0.6569(4) 0.8464(3)
C3A C 0.5862(4) 0.6590(4) 0.6965(3)
H3A H 0.66410 0.68320 0.65020
C4A C 0.3158(4) 0.4613(4) 0.7557(3)
C5A C 0.2028(4) 0.2874(4) 0.6835(3)
C6A C 0.1490(5) 0.3156(5) 0.8108(3)
C7A C 0.3515(6) 0.1288(5) 0.6564(5)
H4A H 0.43960 0.11920 0.70300
H5A H 0.31830 0.04030 0.67130
H6A H 0.39020 0.12690 0.57780
C8A C 0.0631(5) 0.3122(5) 0.6069(3)
H7A H 0.10960 0.28410 0.53020
H8A H 0.00550 0.24490 0.63200
H9A H -0.01360 0.42320 0.61020
C9A C 0.1751(7) 0.1626(6) 0.8795(4)
H10A H 0.13640 0.19110 0.95740
H11A H 0.11370 0.10710 0.84940
H12A H 0.29160 0.09350 0.87470
C10A C -0.0289(5) 0.4421(7) 0.8333(4)
H13A H -0.03820 0.54100 0.79650
H14A H -0.10590 0.40400 0.80400
H15A H -0.05440 0.46070 0.91360
C11A C 0.3250(5) 0.7113(5) 0.9593(3)
H16A H 0.33750 0.80650 0.98300
H17A H 0.20890 0.73500 0.95380
H18A H 0.36870 0.62740 1.01390
C12A C 0.7981(5) 0.1682(5) 0.4566(4)
H19A H 0.87800 0.21670 0.45460
H20A H 0.84840 0.05900 0.48240
H21A H 0.76250 0.16900 0.38190
#END
