
#######################################################################
#
#                 Cambridge Crystallographic Data Centre
#                                CCDC
#
#######################################################################
#
# If this CIF has been generated from an entry in the Cambridge
# Structural Database, then it will include bibliographic, chemical,
# crystal, experimental, refinement or atomic coordinate data resulting
# from the CCDC's data processing and validation procedures.
#
#######################################################################

data_CSD_CIF_DUQZIZ
_audit_creation_date 2010-09-15
_audit_creation_method CSD-ConQuest-V1
_database_code_CSD DUQZIZ
_database_code_depnum_ccdc_archive 'CCDC 788210'
_chemical_formula_sum 'C28 H34 Co1 N4 O12'
_chemical_formula_moiety
;
C28 H30 Co1 N4 O10,2(H2 O1)
;
_journal_coeditor_code "IUCr CV2740"
_journal_coden_Cambridge 1370
_journal_volume 66
_journal_year 2010
_journal_page_first m910
_journal_name_full 'Acta Crystallogr.,Sect.E:Struct.Rep.Online '
loop_
_publ_author_name
"T.Hokelek"
"H.Dal"
"B.Tercan"
"E.Tenlik"
"H.Necefoglu"
_chemical_name_systematic
;
Diaqua-bis(4-methoxybenzoato)-bis(nicotinamide)-cobalt(ii) dihydrate
;
_cell_volume    752.091
_exptl_crystal_colour 'pink'
_exptl_crystal_density_diffrn 1.496
_exptl_crystal_description 'block'
_diffrn_ambient_temperature 100
#These two values have been output from a single CSD field.
_refine_ls_R_factor_gt 0.0268
_refine_ls_wR_factor_gt 0.0268
_symmetry_cell_setting triclinic
_symmetry_space_group_name_H-M 'P -1'
_symmetry_Int_Tables_number 2
loop_
_symmetry_equiv_pos_site_id
_symmetry_equiv_pos_as_xyz
1 x,y,z
2 -x,-y,-z
_cell_length_a 8.1568(2)
_cell_length_b 9.7502(2)
_cell_length_c 10.0700(3)
_cell_angle_alpha 101.151(3)
_cell_angle_beta 91.796(2)
_cell_angle_gamma 106.043(3)
_cell_formula_units_Z 1
loop_
_atom_type_symbol
_atom_type_radius_bond
C 0.68
H 0.23
Co 1.26
N 0.68
O 0.68
loop_
_atom_site_label
_atom_site_type_symbol
_atom_site_fract_x
_atom_site_fract_y
_atom_site_fract_z
Co1 Co 0.00000 0.00000 0.00000
O1 O 0.16134(11) 0.15267(9) 0.15761(8)
O2 O 0.02618(12) 0.12855(9) 0.34523(9)
O3 O 0.49079(13) 0.79361(10) 0.4924(1)
O4 O -0.23377(11) 0.62299(9) 0.11798(9)
O5 O 0.16105(11) 0.0858(1) -0.14044(9)
H1 H 0.180(2) 0.174(2) -0.145(2)
H2 H 0.118(2) 0.034(2) -0.214(2)
O6 O 0.10074(14) -0.13088(11) 0.39872(10)
H3 H 0.091(3) -0.056(3) 0.380(2)
H4 H 0.060(3) -0.137(2) 0.474(2)
N1 N -0.15075(13) 0.15172(11) -0.00112(10)
N2 N -0.00471(14) 0.58909(12) 0.22425(11)
H5 H 0.028(2) 0.680(2) 0.2689(18)
H6 H 0.050(2) 0.530(2) 0.2387(17)
C1 C 0.13157(15) 0.20178(12) 0.27783(11)
C2 C 0.22590(15) 0.35792(12) 0.33911(12)
C3 C 0.35076(16) 0.43797(14) 0.26923(12)
H7 H 0.37640 0.39230 0.18340
C4 C 0.43723(16) 0.58247(14) 0.32337(13)
H8 H 0.52290 0.63500 0.27550
C5 C 0.39860(16) 0.65132(13) 0.44861(13)
C6 C 0.27348(17) 0.57414(14) 0.51879(13)
H9 H 0.24570 0.62070 0.60340
C7 C 0.18914(17) 0.42784(14) 0.46397(12)
H10 H 0.10500 0.37480 0.51270
C8 C 0.4554(2) 0.87023(15) 0.61895(14)
H11 H 0.52960 0.97100 0.63810
H12 H 0.47700 0.82190 0.69170
H13 H 0.33520 0.87030 0.61390
C9 C -0.30977(16) 0.09903(13) -0.06401(13)
H14 H -0.34780 -0.00090 -0.10870
C10 C -0.42123(16) 0.18327(14) -0.06690(14)
H15 H -0.53210 0.14230 -0.11400
C11 C -0.36763(16) 0.32850(13) 0.00028(13)
H16 H -0.44120 0.38880 -0.00020
C12 C -0.20437(15) 0.38459(12) 0.06844(11)
C13 C -0.10001(15) 0.29263(12) 0.06338(11)
H17 H 0.01260 0.33140 0.10770
C14 C -0.14729(15) 0.54226(13) 0.14024(12)
O1A O -0.16134(11) -0.15267(9) -0.15761(8)
O2A O -0.02618(12) -0.12855(9) -0.34523(9)
O3A O -0.49079(13) -0.79361(10) -0.4924(1)
O4A O 0.23377(11) -0.62299(9) -0.11798(9)
O5A O -0.16105(11) -0.0858(1) 0.14044(9)
H1A H -0.180(2) -0.174(2) 0.145(2)
H2A H -0.118(2) -0.034(2) 0.214(2)
N1A N 0.15075(13) -0.15172(11) 0.00112(10)
N2A N 0.00471(14) -0.58909(12) -0.22425(11)
H5A H -0.028(2) -0.680(2) -0.2689(18)
H6A H -0.050(2) -0.530(2) -0.2387(17)
C1A C -0.13157(15) -0.20178(12) -0.27783(11)
C2A C -0.22590(15) -0.35792(12) -0.33911(12)
C3A C -0.35076(16) -0.43797(14) -0.26923(12)
H7A H -0.37640 -0.39230 -0.18340
C4A C -0.43723(16) -0.58247(14) -0.32337(13)
H8A H -0.52290 -0.63500 -0.27550
C5A C -0.39860(16) -0.65132(13) -0.44861(13)
C6A C -0.27348(17) -0.57414(14) -0.51879(13)
H9A H -0.24570 -0.62070 -0.60340
C7A C -0.18914(17) -0.42784(14) -0.46397(12)
H10A H -0.10500 -0.37480 -0.51270
C8A C -0.4554(2) -0.87023(15) -0.61895(14)
H11A H -0.52960 -0.97100 -0.63810
H12A H -0.47700 -0.82190 -0.69170
H13A H -0.33520 -0.87030 -0.61390
C9A C 0.30977(16) -0.09903(13) 0.06401(13)
H14A H 0.34780 0.00090 0.10870
C10A C 0.42123(16) -0.18327(14) 0.06690(14)
H15A H 0.53210 -0.14230 0.11400
C11A C 0.36763(16) -0.32850(13) -0.00028(13)
H16A H 0.44120 -0.38880 0.00020
C12A C 0.20437(15) -0.38459(12) -0.06844(11)
C13A C 0.10001(15) -0.29263(12) -0.06338(11)
H17A H -0.01260 -0.33140 -0.10770
C14A C 0.14729(15) -0.54226(13) -0.14024(12)
#END
