
#######################################################################
#
#                 Cambridge Crystallographic Data Centre
#                                CCDC
#
#######################################################################
#
# If this CIF has been generated from an entry in the Cambridge
# Structural Database, then it will include bibliographic, chemical,
# crystal, experimental, refinement or atomic coordinate data resulting
# from the CCDC's data processing and validation procedures.
#
#######################################################################

data_CSD_CIF_DURMIO
_audit_creation_date 2015-11-17
_audit_creation_method CSD-ConQuest-V1
_database_code_CSD DURMIO
_database_code_depnum_ccdc_archive 'CCDC 1063753'
_chemical_formula_sum 'C34 H42 Mn1 N8 O4'
_chemical_formula_moiety
;
C34 H42 Mn1 N8 O4
;
_journal_coden_Cambridge 233
_journal_volume 8
_journal_year 2015
_journal_page_first 1032
_journal_name_full 'Zh.Neorg.Khim.(Russ.)(Russ.J.Inorg.Chem.) '
loop_
_publ_author_name
"M.A.Uvarova"
"A.A.Ageshina"
"M.A.Golubnichaya"
"S.E.Nefedov"
_chemical_name_systematic
;
bis(benzoato)-tetrakis(3,5-dimethyl-1H-pyrazole)-manganese(ii)
;
_cell_volume    874.491
_exptl_crystal_colour 'colorless'
_exptl_crystal_density_diffrn 1.294
_exptl_crystal_description 'prism'
_diffrn_ambient_temperature 150
#These two values have been output from a single CSD field.
_refine_ls_R_factor_gt 0.0511
_refine_ls_wR_factor_gt 0.0511
_symmetry_cell_setting triclinic
_symmetry_space_group_name_H-M 'P -1'
_symmetry_Int_Tables_number 2
loop_
_symmetry_equiv_pos_site_id
_symmetry_equiv_pos_as_xyz
1 x,y,z
2 -x,-y,-z
_cell_length_a 9.1379(14)
_cell_length_b 9.2097(14)
_cell_length_c 11.0026(17)
_cell_angle_alpha 102.767(2)
_cell_angle_beta 93.783(2)
_cell_angle_gamma 102.716(2)
_cell_formula_units_Z 1
loop_
_atom_type_symbol
_atom_type_radius_bond
C 0.68
H 0.23
Mn 1.61
N 0.68
O 0.68
loop_
_atom_site_label
_atom_site_type_symbol
_atom_site_fract_x
_atom_site_fract_y
_atom_site_fract_z
Mn1 Mn 0.00000 0.00000 0.00000
O1 O 0.19491(16) 0.09112(17) 0.14515(13)
O2 O 0.23995(17) -0.07098(17) 0.25933(14)
N1 N 0.14009(19) 0.0953(2) -0.14505(15)
N2 N 0.0686(2) 0.1292(2) -0.24420(15)
H1 H -0.02810 0.12790 -0.25250
N3 N 0.08185(19) -0.2179(2) -0.06104(16)
N4 N 0.1522(2) -0.2728(2) 0.02573(16)
H2 H 0.17210 -0.22630 0.10600
C1 C 0.2837(2) 0.1121(3) -0.1679(2)
C2 C 0.4001(3) 0.0815(3) -0.0824(2)
H3 H 0.36550 -0.02190 -0.06940
H4 H 0.41660 0.15700 -0.00150
H5 H 0.49500 0.08920 -0.12000
C3 C 0.3024(3) 0.1561(3) -0.2804(2)
H6 H 0.39370 0.17630 -0.31700
C4 C 0.1625(3) 0.1646(2) -0.32740(19)
C5 C 0.1070(3) 0.2037(3) -0.4444(2)
H7 H -0.00290 0.16440 -0.46210
H8 H 0.15500 0.15700 -0.51490
H9 H 0.13260 0.31540 -0.43270
C6 C 0.0731(3) -0.3219(3) -0.1697(2)
C7 C 0.0066(3) -0.3019(3) -0.2907(2)
H10 H 0.04970 -0.19780 -0.29900
H11 H -0.10320 -0.31820 -0.29190
H12 H 0.02950 -0.37650 -0.36070
C8 C 0.1377(3) -0.4406(3) -0.1500(2)
H13 H 0.14540 -0.52820 -0.21150
C9 C 0.1877(3) -0.4051(3) -0.0242(2)
C10 C 0.2675(3) -0.4849(3) 0.0533(3)
H14 H 0.27260 -0.43490 0.14240
H15 H 0.37000 -0.47970 0.03050
H16 H 0.21210 -0.59260 0.03780
C11 C 0.2698(2) 0.0570(2) 0.23051(18)
C12 C 0.4034(2) 0.1769(2) 0.30471(18)
C13 C 0.4866(3) 0.1436(3) 0.4013(2)
H17 H 0.45830 0.04560 0.41930
C14 C 0.6102(3) 0.2522(3) 0.4713(2)
H18 H 0.66670 0.22890 0.53690
C15 C 0.6507(3) 0.3940(3) 0.4453(3)
H19 H 0.73490 0.46900 0.49390
C16 C 0.5705(3) 0.4281(3) 0.3498(3)
H20 H 0.60010 0.52580 0.33160
C17 C 0.4460(3) 0.3194(3) 0.2796(2)
H21 H 0.38990 0.34350 0.21410
O1A O -0.19491(16) -0.09112(17) -0.14515(13)
O2A O -0.23995(17) 0.07098(17) -0.25933(14)
N1A N -0.14009(19) -0.0953(2) 0.14505(15)
N2A N -0.0686(2) -0.1292(2) 0.24420(15)
H1A H 0.02810 -0.12790 0.25250
N3A N -0.08185(19) 0.2179(2) 0.06104(16)
N4A N -0.1522(2) 0.2728(2) -0.02573(16)
H2A H -0.17210 0.22630 -0.10600
C1A C -0.2837(2) -0.1121(3) 0.1679(2)
C2A C -0.4001(3) -0.0815(3) 0.0824(2)
H3A H -0.36550 0.02190 0.06940
H4A H -0.41660 -0.15700 0.00150
H5A H -0.49500 -0.08920 0.12000
C3A C -0.3024(3) -0.1561(3) 0.2804(2)
H6A H -0.39370 -0.17630 0.31700
C4A C -0.1625(3) -0.1646(2) 0.32740(19)
C5A C -0.1070(3) -0.2037(3) 0.4444(2)
H7A H 0.00290 -0.16440 0.46210
H8A H -0.15500 -0.15700 0.51490
H9A H -0.13260 -0.31540 0.43270
C6A C -0.0731(3) 0.3219(3) 0.1697(2)
C7A C -0.0066(3) 0.3019(3) 0.2907(2)
H10A H -0.04970 0.19780 0.29900
H11A H 0.10320 0.31820 0.29190
H12A H -0.02950 0.37650 0.36070
C8A C -0.1377(3) 0.4406(3) 0.1500(2)
H13A H -0.14540 0.52820 0.21150
C9A C -0.1877(3) 0.4051(3) 0.0242(2)
C10A C -0.2675(3) 0.4849(3) -0.0533(3)
H14A H -0.27260 0.43490 -0.14240
H15A H -0.37000 0.47970 -0.03050
H16A H -0.21210 0.59260 -0.03780
C11A C -0.2698(2) -0.0570(2) -0.23051(18)
C12A C -0.4034(2) -0.1769(2) -0.30471(18)
C13A C -0.4866(3) -0.1436(3) -0.4013(2)
H17A H -0.45830 -0.04560 -0.41930
C14A C -0.6102(3) -0.2522(3) -0.4713(2)
H18A H -0.66670 -0.22890 -0.53690
C15A C -0.6507(3) -0.3940(3) -0.4453(3)
H19A H -0.73490 -0.46900 -0.49390
C16A C -0.5705(3) -0.4281(3) -0.3498(3)
H20A H -0.60010 -0.52580 -0.33160
C17A C -0.4460(3) -0.3194(3) -0.2796(2)
H21A H -0.38990 -0.34350 -0.21410
#END
