
#######################################################################
#
#                 Cambridge Crystallographic Data Centre
#                                CCDC
#
#######################################################################
#
# If this CIF has been generated from an entry in the Cambridge
# Structural Database, then it will include bibliographic, chemical,
# crystal, experimental, refinement or atomic coordinate data resulting
# from the CCDC's data processing and validation procedures.
#
#######################################################################

data_CSD_CIF_DURQIR
_audit_creation_date 2010-08-30
_audit_creation_method CSD-ConQuest-V1
_database_code_CSD DURQIR
_database_code_depnum_ccdc_archive 'CCDC 788275'
_chemical_formula_sum 'C10 H12 Mn1 N6 O2 Se2'
_chemical_formula_moiety
;
C10 H12 Mn1 N6 O2 Se2
;
_journal_coeditor_code "IUCr BV2144"
_journal_coden_Cambridge 1370
_journal_volume 66
_journal_year 2010
_journal_page_first m1014
_journal_name_full 'Acta Crystallogr.,Sect.E:Struct.Rep.Online '
loop_
_publ_author_name
"M.Wriedt"
"I.Jess"
"C.Nather"
_chemical_name_systematic
;
Diaqua-bis(selenocyanato-\kN)-bis(pyrimidine-\kN)-manganese(ii)
;
_cell_volume    842.736
_exptl_crystal_colour 'colorless'
_exptl_crystal_density_diffrn 1.817
_exptl_crystal_description 'block'
_diffrn_ambient_temperature 170
#These two values have been output from a single CSD field.
_refine_ls_R_factor_gt 0.0258
_refine_ls_wR_factor_gt 0.0258
_symmetry_cell_setting monoclinic
_symmetry_space_group_name_H-M 'P 21/n'
_symmetry_Int_Tables_number 14
loop_
_symmetry_equiv_pos_site_id
_symmetry_equiv_pos_as_xyz
1 x,y,z
2 1/2-x,1/2+y,1/2-z
3 -x,-y,-z
4 -1/2+x,-1/2-y,-1/2+z
_cell_length_a 9.2402(7)
_cell_length_b 9.6012(6)
_cell_length_c 10.2099(8)
_cell_angle_alpha 90
_cell_angle_beta 111.505(8)
_cell_angle_gamma 90
_cell_formula_units_Z 2
loop_
_atom_type_symbol
_atom_type_radius_bond
C 0.68
H 0.23
Mn 1.61
N 0.68
O 0.68
Se 1.22
loop_
_atom_site_label
_atom_site_type_symbol
_atom_site_fract_x
_atom_site_fract_y
_atom_site_fract_z
Mn1 Mn 0.50000 1.00000 0.50000
N1 N 0.4202(2) 0.77991(19) 0.54320(18)
N2 N 0.3036(2) 0.5623(2) 0.45030(19)
C1 C 0.3525(3) 0.6901(3) 0.4381(2)
H1 H 0.33800 0.72080 0.34560
C2 C 0.3267(3) 0.5183(3) 0.5807(2)
H2 H 0.29470 0.42710 0.59380
C3 C 0.3961(3) 0.6023(3) 0.6969(2)
H3 H 0.41280 0.57050 0.78940
C4 C 0.4398(3) 0.7336(2) 0.6731(2)
H4 H 0.48560 0.79400 0.75110
N3 N 0.7272(2) 0.9064(2) 0.5380(2)
C5 C 0.8449(2) 0.8544(2) 0.5539(2)
Se1 Se 1.02886(3) 0.77302(3) 0.58075(3)
O1 O 0.42680(19) 0.94905(18) 0.27927(15)
H5 H 0.47820 0.90610 0.23920
H6 H 0.34480 0.97300 0.21340
N1B N 0.5798(2) 1.22009(19) 0.45680(18)
N2B N 0.6964(2) 1.4377(2) 0.54970(19)
C1B C 0.6475(3) 1.3099(3) 0.5619(2)
H1B H 0.66200 1.27920 0.65440
C2B C 0.6733(3) 1.4817(3) 0.4193(2)
H2B H 0.70530 1.57290 0.40620
C3B C 0.6039(3) 1.3977(3) 0.3031(2)
H3B H 0.58720 1.42950 0.21060
C4B C 0.5602(3) 1.2664(2) 0.3269(2)
H4B H 0.51440 1.20600 0.24890
N3B N 0.2728(2) 1.0936(2) 0.4620(2)
C5B C 0.1551(2) 1.1456(2) 0.4461(2)
Se1B Se -0.02886(3) 1.22698(3) 0.41925(3)
O1B O 0.57320(19) 1.05095(18) 0.72073(15)
H5B H 0.52180 1.09390 0.76080
H6B H 0.65520 1.02700 0.78660
#END
