
#######################################################################
#
#                 Cambridge Crystallographic Data Centre
#                                CCDC
#
#######################################################################
#
# If this CIF has been generated from an entry in the Cambridge
# Structural Database, then it will include bibliographic, chemical,
# crystal, experimental, refinement or atomic coordinate data resulting
# from the CCDC's data processing and validation procedures.
#
#######################################################################

data_CSD_CIF_DUSJUW
_audit_creation_date 1987-06-03
_audit_creation_method CSD-ConQuest-V1
_database_code_CSD DUSJUW
_database_code_depnum_ccdc_archive 'CCDC 1146963'
_chemical_formula_sum 'C20 H31 Co1 F6 N5 O4 P1'
_chemical_formula_moiety
;
C20 H31 Co1 N5 O4 1+,F6 P1 1-
;
_journal_coden_Cambridge 9
_journal_volume 25
_journal_year 1986
_journal_page_first 3489
_journal_name_full 'Inorg.Chem. '
loop_
_publ_author_name
"W.O.Parker Junior"
"E.Zangrando"
"N.Bresciani-Pahor"
"L.Randaccio"
"L.G.Marzilli"
_chemical_name_systematic
;
(Aniline-N)-(methylacetate-C)-(N^2^,N^2'^-propanediyl-bis(2,3-butanedione-2-im
ine-3-oxime-N,N'))-cobalt(iii) hexafluorophosphate
;
_cell_volume    633.598
_exptl_crystal_colour 'red'
_exptl_crystal_density_diffrn 1.6
_diffrn_ambient_temperature ?
_diffrn_special_details
;
The study was carried out at room temperature,in the range 283-303K

;
_refine_special_details
;
C6 is disordered over 2 sites. One set of coordinates has been retained.

;
#These two values have been output from a single CSD field.
_refine_ls_R_factor_gt 0.035
_refine_ls_wR_factor_gt 0.035
_symmetry_cell_setting triclinic
_symmetry_space_group_name_H-M 'P 1'
_symmetry_Int_Tables_number 1
loop_
_symmetry_equiv_pos_site_id
_symmetry_equiv_pos_as_xyz
1 x,y,z
_cell_length_a 8.052(3)
_cell_length_b 8.077(2)
_cell_length_c 10.699(2)
_cell_angle_alpha 71.30(2)
_cell_angle_beta 74.05(2)
_cell_angle_gamma 85.95(2)
_cell_formula_units_Z 1
loop_
_atom_type_symbol
_atom_type_radius_bond
C 0.68
H 0.23
Co 1.33
F 0.64
N 0.68
O 0.68
P 1.05
loop_
_atom_site_label
_atom_site_type_symbol
_atom_site_fract_x
_atom_site_fract_y
_atom_site_fract_z
Co1 Co 0.30000 0.30000 0.30000
O1 O 0.1513(4) -0.0240(3) 0.3449(3)
O2 O 0.2195(4) 0.1679(4) 0.1073(3)
O3 O 0.7352(4) 0.1988(5) 0.3726(4)
O4 O 0.5799(4) -0.0419(4) 0.4349(3)
N1 N 0.2072(4) 0.0769(4) 0.4000(3)
N2 N 0.2813(4) 0.3014(4) 0.1277(3)
N3 N 0.3901(4) 0.5298(4) 0.1947(3)
N4 N 0.3232(4) 0.2934(4) 0.4744(3)
N5 N 0.0433(4) 0.3975(4) 0.3405(3)
C1 C 0.1197(7) -0.1469(6) 0.6251(6)
C2 C 0.1978(5) 0.0274(5) 0.5292(4)
C3 C 0.2692(5) 0.1542(5) 0.5719(4)
C4 C 0.2804(7) 0.1128(8) 0.7158(5)
C5 C 0.3970(5) 0.4385(6) 0.4991(4)
C6 C 0.5160(8) 0.5576(9) 0.3734(7)
C7 C 0.4502(6) 0.6464(5) 0.2548(5)
C8 C 0.4370(8) 0.7516(7) -0.0298(6)
C9 C 0.3887(5) 0.5809(6) 0.0679(4)
C10 C 0.3254(5) 0.4453(6) 0.0275(4)
C11 C 0.3094(7) 0.4692(8) -0.1122(4)
C12 C 0.5351(5) 0.1883(5) 0.2471(4)
C13 C 0.6268(4) 0.1196(5) 0.3549(4)
C14 C 0.6707(7) -0.1179(8) 0.5396(6)
C15 C -0.0103(4) 0.5446(4) 0.2411(4)
C16 C -0.0163(5) 0.7102(5) 0.2531(5)
C17 C -0.0633(6) 0.8514(6) 0.1540(6)
C18 C -0.1065(6) 0.8255(7) 0.0447(6)
C19 C -0.1036(6) 0.6582(7) 0.0351(5)
C20 C -0.0563(5) 0.5180(5) 0.1329(4)
H1 H 0.08000 -0.20800 0.57000
H2 H 0.02270 -0.13080 0.69130
H3 H 0.20250 -0.21850 0.66210
H4 H 0.33140 0.20520 0.72330
H5 H 0.35160 0.00870 0.73400
H6 H 0.16920 0.08720 0.77400
H7 H 0.30570 0.50840 0.53260
H8 H 0.46140 0.38970 0.56290
H9 H 0.35450 0.72380 0.27640
H10 H 0.53870 0.72370 0.18130
H11 H 0.47370 0.82770 0.00710
H12 H 0.33890 0.80980 -0.06710
H13 H 0.52700 0.74610 -0.11110
H14 H 0.26270 0.36070 -0.11770
H15 H 0.41460 0.49290 -0.18210
H16 H 0.22680 0.52586 -0.14030
H17 H 0.51650 0.09430 0.21280
H18 H 0.60510 0.27450 0.16850
H19 H 0.63100 -0.23460 0.58990
H20 H 0.65440 -0.04990 0.59770
H21 H 0.79280 -0.12143 0.49670
H22 H -0.03140 0.30220 0.35460
H23 H 0.02180 0.42910 0.41920
H24 H 0.01230 0.72960 0.32570
H25 H -0.06570 0.96760 0.15740
H26 H -0.13380 0.92410 -0.03110
H27 H -0.13430 0.64030 -0.04540
H28 H -0.05560 0.40140 0.12360
H29 H 0.19990 0.03000 0.22000
P1 P -0.1873(2) 0.3575(2) -0.2483(1)
F1 F -0.2588(5) 0.5247(5) -0.2043(4)
F2 F -0.3397(7) 0.2449(8) -0.1370(7)
F3 F -0.1129(5) 0.1938(5) -0.2955(5)
F4 F -0.0331(6) 0.4643(6) -0.3602(6)
F5 F -0.3062(5) 0.4036(7) -0.3466(5)
F6 F -0.0721(6) 0.3098(7) -0.1456(5)
#END
