
#######################################################################
#
#                 Cambridge Crystallographic Data Centre
#                                CCDC
#
#######################################################################
#
# If this CIF has been generated from an entry in the Cambridge
# Structural Database, then it will include bibliographic, chemical,
# crystal, experimental, refinement or atomic coordinate data resulting
# from the CCDC's data processing and validation procedures.
#
#######################################################################

data_CSD_CIF_DUTMIO10
_audit_creation_date 1991-01-24
_audit_creation_method CSD-ConQuest-V1
_database_code_CSD DUTMIO10
_chemical_formula_sum 'C6 H18 Cr1 P3 S6'
_chemical_formula_moiety
;
C6 H18 Cr1 P3 S6
;
_journal_coden_Cambridge 155
_journal_volume 170
_journal_year 1990
_journal_page_first 81
_journal_name_full 'Inorg.Chim.Acta '
loop_
_publ_author_name
"T.Buranda"
"A.A.Pinkerton"
_chemical_name_systematic
;
tris(Dimethyldithiophosphinate-S,S')-chromium(iii)
;
_cell_volume   1833.054
_exptl_crystal_colour 'dark blue'
_exptl_crystal_density_diffrn 1.55
_exptl_special_details
;
monoclinic polymorph

;
_diffrn_ambient_temperature ?
_diffrn_special_details
;
The study was carried out at room temperature,in the range 283-303K

;
#These two values have been output from a single CSD field.
_refine_ls_R_factor_gt 0.03
_refine_ls_wR_factor_gt 0.03
_symmetry_cell_setting monoclinic
_symmetry_space_group_name_H-M 'C 2/c'
_symmetry_Int_Tables_number 15
loop_
_symmetry_equiv_pos_site_id
_symmetry_equiv_pos_as_xyz
1 x,y,z
2 1/2+x,1/2+y,z
3 -x,y,1/2-z
4 1/2-x,1/2+y,1/2-z
5 -x,-y,-z
6 -1/2-x,-1/2-y,-z
7 x,-y,-1/2+z
8 -1/2+x,-1/2-y,-1/2+z
_cell_length_a 15.430(3)
_cell_length_b 9.674(2)
_cell_length_c 12.314(1)
_cell_angle_alpha 90
_cell_angle_beta 94.25(1)
_cell_angle_gamma 90
_cell_formula_units_Z 4
loop_
_atom_type_symbol
_atom_type_radius_bond
C 0.68
H 0.23
Cr 1.35
P 1.05
S 1.02
loop_
_atom_site_label
_atom_site_type_symbol
_atom_site_fract_x
_atom_site_fract_y
_atom_site_fract_z
Cr1 Cr 0.00000 0.17200(5) 0.25000
S1 S -0.11187(4) 0.00249(6) 0.28297(4)
S2 S -0.06633(3) 0.16176(6) 0.06494(4)
S3 S 0.09032(4) 0.36137(6) 0.19219(6)
P1 P -0.15943(3) 0.05160(6) 0.13115(5)
P2 P 0.00000 0.48503(9) 0.25000
C1 C -0.1892(2) -0.0998(3) 0.0528(2)
C2 C -0.2583(2) 0.1493(3) 0.1344(3)
C3 C -0.0466(3) 0.5968(4) 0.1454(4)
H1 H -0.21100 -0.07200 -0.01800
H2 H -0.14000 -0.15800 0.04700
H3 H -0.23300 -0.14900 0.08700
H4 H -0.30100 0.09500 0.16600
H5 H -0.24800 0.23100 0.17600
H6 H -0.27800 0.17300 0.06200
H7 H -0.08900 0.65400 0.17500
H8 H -0.00300 0.65300 0.11700
H9 H -0.07300 0.54200 0.08800
S1B S 0.11187(4) 0.00249(6) 0.21703(4)
S2B S 0.06633(3) 0.16176(6) 0.43506(4)
S3B S -0.09032(4) 0.36137(6) 0.30781(6)
C3B C 0.0466(3) 0.5968(4) 0.3546(4)
P1B P 0.15943(3) 0.05160(6) 0.36885(5)
H7B H 0.08900 0.65400 0.32500
H8B H 0.00300 0.65300 0.38300
H9B H 0.07300 0.54200 0.41200
C1B C 0.1892(2) -0.0998(3) 0.4472(2)
C2B C 0.2583(2) 0.1493(3) 0.3656(3)
H1B H 0.21100 -0.07200 0.51800
H2B H 0.14000 -0.15800 0.45300
H3B H 0.23300 -0.14900 0.41300
H4B H 0.30100 0.09500 0.33400
H5B H 0.24800 0.23100 0.32400
H6B H 0.27800 0.17300 0.43800
#END
