
#######################################################################
#
#                 Cambridge Crystallographic Data Centre
#                                CCDC
#
#######################################################################
#
# If this CIF has been generated from an entry in the Cambridge
# Structural Database, then it will include bibliographic, chemical,
# crystal, experimental, refinement or atomic coordinate data resulting
# from the CCDC's data processing and validation procedures.
#
#######################################################################

data_CSD_CIF_DUXGUA
_audit_creation_date 2015-11-19
_audit_creation_method CSD-ConQuest-V1
_database_code_CSD DUXGUA
_database_code_depnum_ccdc_archive 'CCDC 1413625'
_chemical_formula_sum 'C22 H26 Fe1 N20 O6'
_chemical_formula_moiety
;
C22 H18 Fe1 N20 O2,4(H2 O1)
;
_journal_coden_Cambridge 29
_journal_volume 641
_journal_year 2015
_journal_page_first 2422
_journal_name_full 'Z.Anorg.Allg.Chem. '
loop_
_publ_author_name
"Yue Liu"
"Jian Zhong Huo"
"Yuan Yuan Liu"
"XiuMei Su"
"Jian Hua Guo"
"Bin Ding"
"Xiu Guang Wang"
"Jun Xia"
_chemical_name_systematic
;
diaqua-bis(cyanocyanamidato)-bis(2,6-bis(4H-1,2,4-triazol-4-yl)pyridine)-iron(
ii) tetrahydrate
;
_cell_volume    762.701
_exptl_crystal_colour 'yellow'
_exptl_crystal_density_diffrn 1.573
_exptl_crystal_description 'BLOCK'
_diffrn_ambient_temperature 173
#These two values have been output from a single CSD field.
_refine_ls_R_factor_gt 0.0398
_refine_ls_wR_factor_gt 0.0398
_symmetry_cell_setting triclinic
_symmetry_space_group_name_H-M 'P -1'
_symmetry_Int_Tables_number 2
loop_
_symmetry_equiv_pos_site_id
_symmetry_equiv_pos_as_xyz
1 x,y,z
2 -x,-y,-z
_cell_length_a 8.5292(10)
_cell_length_b 9.6662(12)
_cell_length_c 9.9621(12)
_cell_angle_alpha 72.350(2)
_cell_angle_beta 89.666(2)
_cell_angle_gamma 77.553(2)
_cell_formula_units_Z 1
loop_
_atom_type_symbol
_atom_type_radius_bond
C 0.68
H 0.23
Fe 1.52
N 0.68
O 0.68
loop_
_atom_site_label
_atom_site_type_symbol
_atom_site_fract_x
_atom_site_fract_y
_atom_site_fract_z
Fe1 Fe 0.50000 0.50000 0.00000
O1 O 0.7203(2) 0.5630(2) -0.03179(19)
H1 H 0.75420 0.59630 -0.11310
H2 H 0.75180 0.60790 0.02060
N1 N 0.2278(2) 0.8714(2) 0.1217(2)
N2 N 0.3873(3) 0.7076(2) 0.0437(2)
N3 N 0.4140(3) 0.8473(2) -0.0277(2)
N4 N 0.0671(2) 0.8352(2) 0.3105(2)
N5 N -0.0775(3) 0.7748(3) 0.5066(2)
N6 N -0.0356(3) 0.5620(3) 0.6791(3)
N7 N -0.1725(3) 0.6528(3) 0.6990(3)
N8 N 0.5632(3) 0.4040(2) 0.2215(2)
N9 N 0.6009(3) 0.3311(4) 0.4787(3)
N10 N 0.4053(4) 0.2718(3) 0.6561(3)
C1 C 0.2773(3) 0.7247(3) 0.1316(3)
H3 H 0.23710 0.64620 0.19390
C2 C 0.3170(3) 0.9418(3) 0.0214(3)
H4 H 0.30970 1.04620 -0.00900
C3 C 0.1043(3) 0.9333(3) 0.1980(3)
C4 C -0.0492(3) 0.8858(3) 0.3842(3)
C5 C -0.1340(3) 1.0332(3) 0.3495(3)
H5 H -0.21710 1.06440 0.40500
C6 C -0.0914(3) 1.1325(3) 0.2303(3)
H6 H -0.14620 1.23440 0.20230
C7 C 0.0304(3) 1.0843(3) 0.1516(3)
H7 H 0.06200 1.15090 0.07000
C8 C 0.0223(4) 0.6355(3) 0.5633(3)
H8 H 0.11830 0.59840 0.52440
C9 C -0.1948(4) 0.7797(4) 0.5942(3)
H9 H -0.28240 0.86260 0.58330
C10 C 0.5709(3) 0.3704(3) 0.3423(3)
C11 C 0.4913(4) 0.3022(3) 0.5677(3)
O2 O 0.8245(2) 0.6962(2) 0.14174(19)
H10 H 0.89950 0.62500 0.18910
H11 H 0.74900 0.70710 0.19640
O3 O 0.5308(4) 0.9526(3) 0.6952(3)
H12 H 0.51580 0.90130 0.77810
H13 H 0.52610 1.04090 0.69650
O1A O 0.2797(2) 0.4370(2) 0.03179(19)
H1A H 0.24580 0.40370 0.11310
H2A H 0.24820 0.39210 -0.02060
N1A N 0.7722(2) 0.1286(2) -0.1217(2)
N2A N 0.6127(3) 0.2924(2) -0.0437(2)
N3A N 0.5860(3) 0.1527(2) 0.0277(2)
N4A N 0.9329(2) 0.1648(2) -0.3105(2)
N5A N 1.0775(3) 0.2252(3) -0.5066(2)
N6A N 1.0356(3) 0.4380(3) -0.6791(3)
N7A N 1.1725(3) 0.3472(3) -0.6990(3)
N8A N 0.4368(3) 0.5960(2) -0.2215(2)
N9A N 0.3991(3) 0.6689(4) -0.4787(3)
N10A N 0.5947(4) 0.7282(3) -0.6561(3)
C1A C 0.7227(3) 0.2753(3) -0.1316(3)
H3A H 0.76290 0.35380 -0.19390
C2A C 0.6830(3) 0.0582(3) -0.0214(3)
H4A H 0.69030 -0.04620 0.00900
C3A C 0.8957(3) 0.0667(3) -0.1980(3)
C4A C 1.0492(3) 0.1142(3) -0.3842(3)
C5A C 1.1340(3) -0.0332(3) -0.3495(3)
H5A H 1.21710 -0.06440 -0.40500
C6A C 1.0914(3) -0.1325(3) -0.2303(3)
H6A H 1.14620 -0.23440 -0.20230
C7A C 0.9696(3) -0.0843(3) -0.1516(3)
H7A H 0.93800 -0.15090 -0.07000
C8A C 0.9777(4) 0.3645(3) -0.5633(3)
H8A H 0.88170 0.40160 -0.52440
C9A C 1.1948(4) 0.2203(4) -0.5942(3)
H9A H 1.28240 0.13740 -0.58330
C10A C 0.4291(3) 0.6296(3) -0.3423(3)
C11A C 0.5087(4) 0.6978(3) -0.5677(3)
#END
