
#######################################################################
#
#                 Cambridge Crystallographic Data Centre
#                                CCDC
#
#######################################################################
#
# If this CIF has been generated from an entry in the Cambridge
# Structural Database, then it will include bibliographic, chemical,
# crystal, experimental, refinement or atomic coordinate data resulting
# from the CCDC's data processing and validation procedures.
#
#######################################################################

data_CSD_CIF_DUZNIV
_audit_creation_date 1987-06-30
_audit_creation_method CSD-ConQuest-V1
_database_code_CSD DUZNIV
_chemical_formula_sum 'C11 H11 Cl2 Cr1 Ge1 N1 O6'
_chemical_formula_moiety
;
C11 H11 Cl2 Cr1 Ge1 N1 O6
;
_journal_coden_Cambridge 36
_journal_volume 307
_journal_year 1986
_journal_page_first 205
_journal_name_full 'J.Organomet.Chem. '
loop_
_publ_author_name
"A.Castel"
"P.Riviere"
"J.Satge"
"M.Ahbala"
"J.Jaud"
_chemical_name_systematic
;
Dichloro-(2,2-dimethyl-3,4-dihydro-2H-pyrrole 
N-oxide-O)-germanium-pentacarbonyl-chromium
;
_chemical_melting_point 398.15
_cell_volume    870.329
_exptl_crystal_colour 'white'
_exptl_crystal_density_diffrn 1.705
_exptl_special_details
;
Melting point range 398.15-403.15K

;
_diffrn_ambient_temperature ?
_diffrn_special_details
;
The study was carried out at room temperature,in the range 283-303K

;
#These two values have been output from a single CSD field.
_refine_ls_R_factor_gt 0.058
_refine_ls_wR_factor_gt 0.058
_symmetry_cell_setting triclinic
_symmetry_space_group_name_H-M 'P -1'
_symmetry_Int_Tables_number 2
loop_
_symmetry_equiv_pos_site_id
_symmetry_equiv_pos_as_xyz
1 x,y,z
2 -x,-y,-z
_cell_length_a 6.683(3)
_cell_length_b 11.305(5)
_cell_length_c 12.072(6)
_cell_angle_alpha 83.09(4)
_cell_angle_beta 87.67(5)
_cell_angle_gamma 74.00(4)
_cell_formula_units_Z 2
loop_
_atom_type_symbol
_atom_type_radius_bond
C 0.68
H 0.23
Cl 0.99
Cr 1.35
Ge 1.17
N 0.68
O 0.68
loop_
_atom_site_label
_atom_site_type_symbol
_atom_site_fract_x
_atom_site_fract_y
_atom_site_fract_z
Ge1 Ge 0.19178(9) 0.21004(6) 0.32959(6)
Cr1 Cr 0.0161(1) 0.40723(8) 0.23524(8)
Cl1 Cl 0.1585(3) 0.1717(2) 0.5132(2)
Cl2 Cl 0.5264(2) 0.1215(2) 0.3150(2)
O1 O -0.1227(9) 0.2782(5) 0.0587(5)
O2 O 0.4034(8) 0.4227(7) 0.1024(6)
O3 O -0.2094(9) 0.6570(5) 0.1227(6)
O4 O 0.1621(8) 0.5234(5) 0.4189(4)
O5 O -0.3756(7) 0.4045(6) 0.3695(5)
O6 O 0.0963(6) 0.0787(4) 0.2892(4)
N1 N 0.1995(7) -0.0410(4) 0.2992(4)
C1 C -0.070(1) 0.3267(6) 0.1253(6)
C2 C 0.261(1) 0.4142(8) 0.1520(6)
C3 C -0.122(1) 0.5604(6) 0.1653(6)
C4 C 0.1076(9) 0.4791(6) 0.3498(6)
C5 C -0.2282(9) 0.4030(6) 0.3195(6)
C6 C 0.300(1) -0.1054(6) 0.3819(6)
C7 C 0.393(1) -0.2344(7) 0.3573(8)
C8 C 0.288(1) -0.2408(7) 0.2501(7)
C9 C 0.200(1) -0.1090(6) 0.2002(6)
C10 C 0.333(1) -0.0644(8) 0.1098(7)
C11 C -0.025(1) -0.0834(7) 0.1616(7)
H1 H 0.31440 -0.07460 0.45200
H2 H 0.36360 -0.29280 0.41690
H3 H 0.54240 -0.25110 0.34690
H4 H 0.38840 -0.28610 0.19940
H5 H 0.17780 -0.28080 0.26570
H6 H 0.26550 0.02080 0.08210
H7 H 0.46770 -0.06980 0.13980
H8 H 0.35080 -0.11540 0.04900
H9 H -0.07610 0.00260 0.12980
H10 H -0.03170 -0.13650 0.10510
H11 H -0.11300 -0.09890 0.22440
#END
