
#######################################################################
#
#                 Cambridge Crystallographic Data Centre
#                                CCDC
#
#######################################################################
#
# If this CIF has been generated from an entry in the Cambridge
# Structural Database, then it will include bibliographic, chemical,
# crystal, experimental, refinement or atomic coordinate data resulting
# from the CCDC's data processing and validation procedures.
#
#######################################################################

data_CSD_CIF_EACPCO
_audit_creation_date 1976-02-16
_audit_creation_method CSD-ConQuest-V1
_database_code_CSD EACPCO
_chemical_formula_sum 'C9 H22 Cl1 Co1 N4 O5'
_chemical_formula_moiety
;
C9 H20 Co1 N4 O4 1+,Cl1 1-,H2 O1
;
_journal_coden_Cambridge 9
_journal_volume 14
_journal_year 1975
_journal_page_first 1762
_journal_name_full 'Inorg.Chem. '
loop_
_publ_author_name
"L.J.Halloran"
"R.E.Caputo"
"R.D.Willett"
"J.I.Legg"
_chemical_name_systematic
;
cis,trans(N-O)-uns-cis-Ethylenediamine-N,N'-diacetato((R)-1,2-diaminopropane) 
cobalt(iii) chloride monohydrate
;
_cell_volume    768.240
_exptl_crystal_density_diffrn 1.559
_diffrn_ambient_temperature ?
_diffrn_special_details
;
The study was carried out at room temperature,in the range 283-303K

;
#These two values have been output from a single CSD field.
_refine_ls_R_factor_gt 0.055
_refine_ls_wR_factor_gt 0.055
_symmetry_cell_setting monoclinic
_symmetry_space_group_name_H-M 'P 21'
_symmetry_Int_Tables_number 4
loop_
_symmetry_equiv_pos_site_id
_symmetry_equiv_pos_as_xyz
1 x,y,z
2 -x,1/2+y,-z
_cell_length_a 9.260(8)
_cell_length_b 7.255(9)
_cell_length_c 12.253(13)
_cell_angle_alpha 90
_cell_angle_beta 111.05(6)
_cell_angle_gamma 90
_cell_formula_units_Z 2
loop_
_atom_type_symbol
_atom_type_radius_bond
C 0.68
H 0.23
Cl 0.99
Co 1.33
N 0.68
O 0.68
loop_
_atom_site_label
_atom_site_type_symbol
_atom_site_fract_x
_atom_site_fract_y
_atom_site_fract_z
Cl1 Cl 0.01750 -0.27740 -0.06080
Co1 Co 0.07430 -0.25000 0.30780
C1 C 0.31480 -0.48010 0.32230
C2 C 0.28360 -0.37240 0.20790
C3 C 0.29380 -0.03560 0.25870
C4 C 0.34440 -0.03720 0.39140
C5 C 0.21880 -0.12570 0.53590
C6 C 0.07600 -0.22820 0.52880
C7 C -0.22290 -0.37230 0.16040
C8 C -0.21000 -0.17180 0.12220
C9 C -0.36450 -0.05900 0.08390
H1 H 0.12900 -0.20400 0.13000
H2 H 0.37100 0.06900 0.42400
H3 H 0.28800 -0.19900 0.55500
H4 H 0.23600 0.00500 0.59300
H5 H -0.31100 -0.40100 0.20900
H6 H -0.26800 -0.44100 0.09300
H7 H -0.14100 -0.18800 0.06500
H8 H 0.14100 0.03800 0.39900
H9 H -0.05000 -0.57000 0.27000
H10 H -0.02000 -0.47000 0.16700
H11 H -0.13000 -0.05000 0.29500
H12 H -0.05000 0.05000 0.18500
H13 H 0.39400 -0.03500 0.24400
H14 H 0.25600 0.09600 0.22900
H15 H 0.42300 -0.11100 0.39800
N1 N 0.19430 -0.20220 0.20910
N2 N 0.19870 -0.06390 0.41430
N3 N -0.05710 -0.44250 0.21320
N4 N -0.09140 -0.07950 0.22360
O1 O 0.22760 -0.43090 0.37930
O2 O 0.40780 -0.60390 0.34950
O3 O -0.01430 -0.28830 0.42510
O4 O 0.04360 -0.26050 0.61810
O5 O 0.30720 0.37190 -0.40050
#END
