
#######################################################################
#
#                 Cambridge Crystallographic Data Centre
#                                CCDC
#
#######################################################################
#
# If this CIF has been generated from an entry in the Cambridge
# Structural Database, then it will include bibliographic, chemical,
# crystal, experimental, refinement or atomic coordinate data resulting
# from the CCDC's data processing and validation procedures.
#
#######################################################################

data_CSD_CIF_EADBIU
_audit_creation_date 1994-04-11
_audit_creation_method CSD-ConQuest-V1
_database_code_CSD EADBIU
_chemical_formula_sum 'C20 H14 Fe1'
_chemical_formula_moiety
;
C20 H14 Fe1
;
_journal_coden_Cambridge 35
_journal_volume 58
_journal_year 1993
_journal_page_first 4078
_journal_name_full 'J.Org.Chem. '
loop_
_publ_author_name
"B.M.Foxman"
"D.A.Gronbeck"
"N.Khruschova"
"M.Rosenblum"
_chemical_name_systematic
;
1,1'-(1,8-Naphthalenediyl)-ferrocene
;
_chemical_melting_point 537.15
_cell_volume    670.368
_exptl_crystal_colour 'pale yellow'
_exptl_crystal_density_diffrn 1.53
_exptl_special_details
;
Melting point range 537.15-538.15K

;
_diffrn_ambient_temperature ?
_diffrn_special_details
;
The study was carried out at room temperature,in the range 283-303K

;
#These two values have been output from a single CSD field.
_refine_ls_R_factor_gt 0.028
_refine_ls_wR_factor_gt 0.028
_symmetry_cell_setting triclinic
_symmetry_space_group_name_H-M 'P -1'
_symmetry_Int_Tables_number 2
loop_
_symmetry_equiv_pos_site_id
_symmetry_equiv_pos_as_xyz
1 x,y,z
2 -x,-y,-z
_cell_length_a 7.609(1)
_cell_length_b 9.759(2)
_cell_length_c 10.046(2)
_cell_angle_alpha 73.31(2)
_cell_angle_beta 75.19(2)
_cell_angle_gamma 72.72(2)
_cell_formula_units_Z 2
loop_
_atom_type_symbol
_atom_type_radius_bond
C 0.68
H 0.23
Fe 1.34
loop_
_atom_site_label
_atom_site_type_symbol
_atom_site_fract_x
_atom_site_fract_y
_atom_site_fract_z
Fe1 Fe 0.05820(3) 0.31270(2) 0.25397(2)
C1 C -0.1741(2) 0.3455(2) 0.3987(2)
C2 C -0.2000(2) 0.2730(2) 0.3016(2)
C3 C -0.1743(3) 0.3636(2) 0.1647(2)
C4 C -0.1364(3) 0.4929(2) 0.1753(2)
C5 C -0.1390(2) 0.4838(2) 0.3193(2)
C6 C 0.2252(2) 0.2064(2) 0.3918(2)
C7 C 0.2296(3) 0.1122(2) 0.3026(2)
C8 C 0.2939(3) 0.1786(2) 0.1609(2)
C9 C 0.3324(3) 0.3117(3) 0.1605(2)
C10 C 0.2936(2) 0.3282(2) 0.3021(2)
C11 C -0.1863(2) 0.2919(2) 0.5529(2)
C12 C -0.3628(2) 0.3177(2) 0.6342(2)
C13 C -0.3944(3) 0.2794(2) 0.7816(2)
C14 C -0.2460(3) 0.2181(2) 0.8481(2)
C15 C -0.0607(2) 0.1874(2) 0.7711(2)
C16 C 0.0913(3) 0.1241(2) 0.8428(2)
C17 C 0.2700(3) 0.0916(2) 0.7719(2)
C18 C 0.3065(2) 0.1199(2) 0.6237(2)
C19 C 0.1653(2) 0.1816(2) 0.5476(2)
C20 C -0.0261(2) 0.2211(2) 0.6193(2)
H1 H -0.22900 0.18000 0.32500
H2 H -0.18100 0.34100 0.08000
H3 H -0.11300 0.57200 0.09900
H4 H -0.12100 0.55700 0.35700
H5 H 0.19500 0.02100 0.33300
H6 H 0.30800 0.14000 0.08000
H7 H 0.37600 0.37900 0.08000
H8 H 0.31000 0.40700 0.33200
H9 H -0.46700 0.36300 0.58900
H10 H -0.51900 0.29600 0.83500
H11 H -0.26700 0.19500 0.94800
H12 H 0.06700 0.10400 0.94300
H13 H 0.37100 0.05000 0.82200
H14 H 0.43200 0.09500 0.57500
#END
