
#######################################################################
#
#                 Cambridge Crystallographic Data Centre
#                                CCDC
#
#######################################################################
#
# If this CIF has been generated from an entry in the Cambridge
# Structural Database, then it will include bibliographic, chemical,
# crystal, experimental, refinement or atomic coordinate data resulting
# from the CCDC's data processing and validation procedures.
#
#######################################################################

data_CSD_CIF_EAIMCO
_audit_creation_date 1973-01-31
_audit_creation_method CSD-ConQuest-V1
_database_code_CSD EAIMCO
_database_code_depnum_ccdc_archive 'CCDC 1147973'
_chemical_formula_sum 'C18 H24 Co1 N2 O2'
_chemical_formula_moiety
;
C12 H18 Co1 N2 O2,C6 H6
;
_journal_coden_Cambridge 155
_journal_volume 2
_journal_year 1968
_journal_page_first 386
_journal_name_full 'Inorg.Chim.Acta '
loop_
_publ_author_name
"S.Bruckner"
"M.Calligaris"
"G.Nardin"
"L.Randaccio"
_chemical_name_systematic
;
(N,N'-Ethylene-bis(acetylacetoniminato))-cobalt(ii) benzene solvate
;
_chemical_name_common
;
(4,4'-(ethane-1,2-diylbis(azanylylidene))dipent-2-en-2-olato)-cobalt(ii) 
benzene solvate
;
_cell_volume    903.402
_exptl_crystal_density_diffrn 1.32
_diffrn_ambient_temperature ?
_diffrn_special_details
;
The study was carried out at room temperature,in the range 283-303K

;
#These two values have been output from a single CSD field.
_refine_ls_R_factor_gt 0.075
_refine_ls_wR_factor_gt 0.075
_symmetry_cell_setting monoclinic
_symmetry_space_group_name_H-M 'P 21/m'
_symmetry_Int_Tables_number 11
loop_
_symmetry_equiv_pos_site_id
_symmetry_equiv_pos_as_xyz
1 x,y,z
2 -x,1/2+y,-z
3 -x,-y,-z
4 x,-1/2-y,z
_cell_length_a 11.74(2)
_cell_length_b 7.35(2)
_cell_length_c 10.60(2)
_cell_angle_alpha 90
_cell_angle_beta 99.0(3)
_cell_angle_gamma 90
_cell_formula_units_Z 2
loop_
_atom_type_symbol
_atom_type_radius_bond
C 0.68
H 0.20
Co 1.26
N 0.68
O 0.68
loop_
_atom_site_label
_atom_site_type_symbol
_atom_site_fract_x
_atom_site_fract_y
_atom_site_fract_z
Co1 Co 0.13050 0.25000 0.41210
C1 C 0.02870 0.25000 0.01840
C2 C 0.36370 0.25000 0.61550
C3 C 0.37360 0.25000 0.48860
C4 C 0.48930 0.25000 0.44150
C5 C 0.01270 0.25000 0.15550
C6 C -0.09140 0.25000 0.19200
C7 C -0.11350 0.25000 0.31990
C8 C -0.23720 0.25000 0.34670
C9 C -0.05540 0.25000 0.55220
C10 C 0.05010 0.25000 0.65450
C11 C 0.26310 0.25000 0.81000
C12 C 0.25890 0.25000 0.66460
H1 H -0.04500 0.25000 -0.03900
H2 H -0.10500 0.13000 0.55000
H3 H 0.04500 0.13000 0.71300
H4 H 0.44300 0.25000 0.68100
H5 H 0.08000 0.13000 0.00000
H6 H -0.28900 0.25000 0.25500
H7 H -0.25000 0.13000 0.40300
H8 H 0.35000 0.25000 0.85800
H9 H 0.21500 0.13000 0.83800
H10 H 0.56300 0.25000 0.51200
H11 H 0.49000 0.13000 0.38500
H12 H -0.16700 0.25000 0.12000
N1 N -0.02690 0.25000 0.42060
N2 N 0.15570 0.25000 0.59200
O1 O 0.10940 0.25000 0.23510
O2 O 0.28570 0.25000 0.39780
C13 C -0.28740 0.16190 -0.21580
C14 C -0.33030 0.06910 -0.12930
C15 C -0.37850 0.16130 -0.03890
H13 H -0.25200 0.08000 -0.29200
H14 H -0.32900 -0.08000 -0.13200
H15 H -0.42400 0.08000 0.04100
H5C H 0.08000 0.37000 0.00000
H7C H -0.25000 0.37000 0.40300
H2C H -0.10500 0.37000 0.55000
H3C H 0.04500 0.37000 0.71300
H11C H 0.49000 0.37000 0.38500
H9C H 0.21500 0.37000 0.83800
C13C C -0.28740 0.33810 -0.21580
C15C C -0.37850 0.33870 -0.03890
C14C C -0.33030 0.43090 -0.12930
H13C H -0.25200 0.42000 -0.29200
H15C H -0.42400 0.42000 0.04100
H14C H -0.32900 0.58000 -0.13200
#END
