
#######################################################################
#
#                 Cambridge Crystallographic Data Centre
#                                CCDC
#
#######################################################################
#
# If this CIF has been generated from an entry in the Cambridge
# Structural Database, then it will include bibliographic, chemical,
# crystal, experimental, refinement or atomic coordinate data resulting
# from the CCDC's data processing and validation procedures.
#
#######################################################################

data_CSD_CIF_EAMNCR10
_audit_creation_date 1978-11-29
_audit_creation_method CSD-ConQuest-V1
_database_code_CSD EAMNCR10
_database_code_depnum_ccdc_archive 'CCDC 1148008'
_chemical_formula_sum 'C10 H10 Cr1 N2 O5'
_chemical_formula_moiety
;
C10 H10 Cr1 N2 O5
;
_journal_coeditor_code "IUCr A16254"
_journal_coden_Cambridge 107
_journal_volume 34
_journal_year 1978
_journal_page_first 2293
_journal_name_full 'Acta Crystallogr.,Sect.B:Struct.Crystallogr.Cryst.Chem. '
loop_
_publ_author_name
"U.Schubert"
"D.Neugebauer"
"P.Friedrich"
_chemical_name_systematic
;
Pentacarbonyl-diethylaminonitrile-chromium(0)
;
_cell_volume   1306.312
_exptl_crystal_density_diffrn 1.48
_diffrn_ambient_temperature 243.15
#These two values have been output from a single CSD field.
_refine_ls_R_factor_gt 0.039
_refine_ls_wR_factor_gt 0.039
_symmetry_cell_setting monoclinic
_symmetry_space_group_name_H-M 'C 2/c'
_symmetry_Int_Tables_number 15
loop_
_symmetry_equiv_pos_site_id
_symmetry_equiv_pos_as_xyz
1 x,y,z
2 1/2+x,1/2+y,z
3 -x,y,1/2-z
4 1/2-x,1/2+y,1/2-z
5 -x,-y,-z
6 -1/2-x,-1/2-y,-z
7 x,-y,-1/2+z
8 -1/2+x,-1/2-y,-1/2+z
_cell_length_a 13.69(1)
_cell_length_b 11.43(2)
_cell_length_c 9.33(1)
_cell_angle_alpha 90
_cell_angle_beta 116.52(8)
_cell_angle_gamma 90
_cell_formula_units_Z 4
loop_
_atom_type_symbol
_atom_type_radius_bond
C 0.68
H 0.23
Cr 1.35
N 0.68
O 0.68
loop_
_atom_site_label
_atom_site_type_symbol
_atom_site_fract_x
_atom_site_fract_y
_atom_site_fract_z
Cr1 Cr 0.00000 0.15878 0.25000
C1 C 0.00000 -0.00130 0.25000
O1 O 0.00000 -0.10310 0.25000
N1 N 0.00000 0.33940 0.25000
C2 C 0.00000 0.43880 0.25000
N2 N 0.00000 0.55400 0.25000
C3 C -0.07750 0.61990 0.11240
C4 C -0.15920 0.54570 -0.01770
C5 C 0.10730 0.16250 0.46630
O2 O 0.17300 0.16390 0.59610
C6 C 0.11110 0.15200 0.18270
O3 O 0.17900 0.14010 0.14500
H1 H -0.11800 0.66600 0.14600
H2 H -0.02300 0.66500 0.08200
H3 H -0.20500 0.49800 0.01300
H4 H -0.21100 0.59600 -0.09000
H5 H -0.11600 0.49300 -0.04800
C5B C -0.10730 0.16250 0.03370
C6B C -0.11110 0.15200 0.31730
C3B C 0.07750 0.61990 0.38760
O2B O -0.17300 0.16390 -0.09610
O3B O -0.17900 0.14010 0.35500
C4B C 0.15920 0.54570 0.51770
H1B H 0.11800 0.66600 0.35400
H2B H 0.02300 0.66500 0.41800
H3B H 0.20500 0.49800 0.48700
H4B H 0.21100 0.59600 0.59000
H5B H 0.11600 0.49300 0.54800
#END
