
#######################################################################
#
#                 Cambridge Crystallographic Data Centre
#                                CCDC
#
#######################################################################
#
# If this CIF has been generated from an entry in the Cambridge
# Structural Database, then it will include bibliographic, chemical,
# crystal, experimental, refinement or atomic coordinate data resulting
# from the CCDC's data processing and validation procedures.
#
#######################################################################

data_CSD_CIF_EAMNCR01
_audit_creation_date 1995-11-06
_audit_creation_method CSD-ConQuest-V1
_database_code_CSD EAMNCR01
_chemical_formula_sum 'C10 H10 Cr1 N2 O5'
_chemical_formula_moiety
;
C10 H10 Cr1 N2 O5
;
_journal_coden_Cambridge 186
_journal_year 1995
_journal_page_first 665
_journal_name_full 'J.Chem.Soc.,Dalton Trans. '
loop_
_publ_author_name
"M.-N.Ohnet"
"A.Spasojevic-de Bire"
"N.Q.Dao"
"P.Schweiss"
"M.Braden"
"H.Fischer"
"D.Reindl"
_chemical_name_systematic
;
Pentacarbonyl-diethylcyanamide-chromium
;
_cell_volume   1269.191
_exptl_crystal_colour 'yellow'
_exptl_special_details
;
Oxygen-sensitive

;
_diffrn_ambient_temperature 110
_diffrn_radiation_probe 'neutron radiation'
#These two values have been output from a single CSD field.
_refine_ls_R_factor_gt 0.05
_refine_ls_wR_factor_gt 0.05
_symmetry_cell_setting monoclinic
_symmetry_space_group_name_H-M 'C 2/c'
_symmetry_Int_Tables_number 15
loop_
_symmetry_equiv_pos_site_id
_symmetry_equiv_pos_as_xyz
1 x,y,z
2 -x,y,1/2-z
3 1/2+x,1/2+y,z
4 1/2-x,1/2+y,1/2-z
5 -x,-y,-z
6 x,-y,-1/2+z
7 -1/2-x,-1/2-y,-z
8 -1/2+x,-1/2-y,-1/2+z
_cell_length_a 13.4
_cell_length_b 11.35
_cell_length_c 9.291
_cell_angle_alpha 90
_cell_angle_beta 116.08
_cell_angle_gamma 90
_cell_formula_units_Z 4
loop_
_atom_type_symbol
_atom_type_radius_bond
C 0.68
H 0.23
Cr 1.35
N 0.68
O 0.68
loop_
_atom_site_label
_atom_site_type_symbol
_atom_site_fract_x
_atom_site_fract_y
_atom_site_fract_z
Cr1 Cr 0.00000 0.1578(3) 0.25000
C1 C 0.00000 -0.0045(1) 0.25000
O1 O 0.00000 -0.1058(2) 0.25000
N1 N 0.00000 0.3388(1) 0.25000
C2 C 0.00000 0.4412(1) 0.25000
N2 N 0.00000 0.5556(1) 0.25000
C3 C 0.1096(1) 0.1620(1) 0.4679(1)
O2 O 0.1757(1) 0.1649(2) 0.5979(2)
C4 C 0.1151(1) 0.1499(1) 0.1821(1)
O3 O 0.1832(1) 0.1375(1) 0.1424(2)
C5 C -0.0760(1) 0.6224(1) 0.1088(1)
C6 C -0.1578(1) 0.5453(1) -0.0217(1)
H1 H -0.1187(3) 0.6861(3) 0.1502(4)
H2 H -0.0256(3) 0.6732(3) 0.0649(4)
H3 H -0.2088(3) 0.4958(3) 0.0206(4)
H4 H -0.2132(3) 0.5995(3) -0.1213(4)
H5 H -0.1171(3) 0.4827(3) -0.0677(4)
C3A C -0.1096(1) 0.1620(1) 0.0321(1)
C4A C -0.1151(1) 0.1499(1) 0.3179(1)
C5A C 0.0760(1) 0.6224(1) 0.3912(1)
O2A O -0.1757(1) 0.1649(2) -0.0979(2)
O3A O -0.1832(1) 0.1375(1) 0.3576(2)
C6A C 0.1578(1) 0.5453(1) 0.5217(1)
H1A H 0.1187(3) 0.6861(3) 0.3498(4)
H2A H 0.0256(3) 0.6732(3) 0.4351(4)
H3A H 0.2088(3) 0.4958(3) 0.4794(4)
H4A H 0.2132(3) 0.5995(3) 0.6213(4)
H5A H 0.1171(3) 0.4827(3) 0.5677(4)
#END
