
#######################################################################
#
#                 Cambridge Crystallographic Data Centre
#                                CCDC
#
#######################################################################
#
# If this CIF has been generated from an entry in the Cambridge
# Structural Database, then it will include bibliographic, chemical,
# crystal, experimental, refinement or atomic coordinate data resulting
# from the CCDC's data processing and validation procedures.
#
#######################################################################

data_CSD_CIF_EAPRCZ10
_audit_creation_date 1971-12-31
_audit_creation_method CSD-ConQuest-V1
_database_code_CSD EAPRCZ10
_chemical_formula_sum 'C11 H26 Cl4 Co1 N5 O2 Zn1'
_chemical_formula_moiety
;
C11 H26 Co1 N5 O2 2+,Cl4 Zn1 2-
;
_journal_coden_Cambridge 9
_journal_volume 9
_journal_year 1970
_journal_page_first 2408
_journal_name_full 'Inorg.Chem. '
loop_
_publ_author_name
"H.C.Freeman"
"L.G.Marzilli"
"I.E.Maxwell"
_chemical_name_systematic
;
D-\b~2~-(SSS)-(Triethylenetetramine-(S)-prolinato)-cobalt(iii) 
tetrachloro-zinc
;
_cell_volume    992.027
_exptl_crystal_density_diffrn 1.75
_exptl_special_details
;
Absolute configuration

;
_diffrn_ambient_temperature ?
_diffrn_special_details
;
The study was carried out at room temperature,in the range 283-303K

;
#These two values have been output from a single CSD field.
_refine_ls_R_factor_gt 0.055
_refine_ls_wR_factor_gt 0.055
_symmetry_cell_setting monoclinic
_symmetry_space_group_name_H-M 'P 21'
_symmetry_Int_Tables_number 4
loop_
_symmetry_equiv_pos_site_id
_symmetry_equiv_pos_as_xyz
1 x,y,z
2 -x,1/2+y,-z
_cell_length_a 7.01(1)
_cell_length_b 15.58(2)
_cell_length_c 9.66(1)
_cell_angle_alpha 90
_cell_angle_beta 109.9(3)
_cell_angle_gamma 90
_cell_formula_units_Z 2
loop_
_atom_type_symbol
_atom_type_radius_bond
C 0.68
H 0.20
Cl 0.99
Co 1.26
N 0.68
O 0.68
Zn 1.45
loop_
_atom_site_label
_atom_site_type_symbol
_atom_site_fract_x
_atom_site_fract_y
_atom_site_fract_z
Cl1 Cl 0.02410 -0.21950 -0.43760
Cl2 Cl 0.15420 -0.34300 -0.06940
Cl3 Cl -0.37550 -0.29140 -0.29330
Cl4 Cl -0.02510 -0.12070 -0.11610
Co1 Co 0.48030 0.44570 -0.23800
C1 C 0.60330 0.52510 0.04350
C2 C 0.22370 0.56100 -0.44200
C3 C 0.09610 0.50980 -0.37370
C4 C 0.49550 0.44420 0.05670
C5 C 0.37840 0.30780 -0.09300
C6 C 0.40740 0.26520 -0.22420
C7 C 0.61130 0.30960 -0.37850
C8 C 0.79900 0.33860 -0.25920
C9 C 0.41170 0.48510 -0.56460
C10 C 0.29250 0.55400 -0.66810
C11 C 0.12480 0.57480 -0.61070
H1 H 0.63900 0.58140 -0.13240
H2 H 0.56240 0.41720 0.16630
H3 H 0.33590 0.45680 0.03520
H4 H 0.22240 0.32940 -0.12030
H5 H 0.41430 0.26350 -0.00100
H6 H 0.54100 0.22460 -0.18710
H7 H 0.27560 0.22630 -0.28050
H8 H 0.59660 0.34280 -0.48030
H9 H 0.61660 0.24110 -0.39500
H10 H 0.82840 0.29730 -0.16370
H11 H 0.92730 0.33620 -0.29770
H12 H 0.41550 0.58220 -0.13720
H13 H 0.56260 0.47870 -0.57100
H14 H 0.33460 0.42370 -0.58850
H15 H 0.38560 0.60980 -0.66480
H16 H 0.23180 0.52990 -0.78000
H17 H 0.07490 0.64070 -0.63570
H18 H -0.00340 0.53200 -0.65680
H19 H 0.24870 0.62250 -0.38560
H20 H 0.64710 0.36270 -0.02240
H21 H 0.32230 0.33440 -0.40770
H22 H 0.79850 0.46790 -0.28390
H23 H 0.84870 0.44070 -0.12090
H24 H 0.52430 0.55360 -0.38210
H25 H 0.56530 0.57630 0.10620
H26 H 0.76610 0.51520 0.08440
N1 N 0.53570 0.54860 -0.11380
N2 N 0.52040 0.38310 -0.05630
N3 N 0.43490 0.33170 -0.32940
N4 N 0.76440 0.42950 -0.21990
N5 N 0.42180 0.51700 -0.41730
O1 O -0.08680 0.51990 -0.41100
O2 O 0.19480 0.45680 -0.27140
Zn1 Zn -0.04870 -0.25000 -0.23430
#END
