
#######################################################################
#
#                 Cambridge Crystallographic Data Centre
#                                CCDC
#
#######################################################################
#
# If this CIF has been generated from an entry in the Cambridge
# Structural Database, then it will include bibliographic, chemical,
# crystal, experimental, refinement or atomic coordinate data resulting
# from the CCDC's data processing and validation procedures.
#
#######################################################################

data_CSD_CIF_EBAGUK
_audit_creation_date 2004-11-16
_audit_creation_method CSD-ConQuest-V1
_database_code_CSD EBAGUK
_database_code_depnum_ccdc_archive 'CCDC 228122'
_chemical_formula_sum 'C22 H28 F12 Fe1 N4 P2'
_chemical_formula_moiety
;
C22 H28 Fe1 N4 2+,2(F6 P1 1-)
;
_journal_coden_Cambridge 9
_journal_volume 43
_journal_year 2004
_journal_page_first 3406
_journal_name_full 'Inorg.Chem. '
loop_
_publ_author_name
"Ye Gao"
"B.Twamley"
"J.M.Shreeve"
_chemical_name_systematic
;
1,1'-bis(2,3-Dimethylimidazolium-1-ylmethyl)ferrocene bis(hexafluorophosphate)
;
_chemical_melting_point 518.15
_cell_volume    641.612
_exptl_crystal_colour 'yellow'
_exptl_crystal_density_diffrn 1.797
_exptl_special_details
;
Melts with decomposition.

;
_exptl_crystal_description 'plate'
_exptl_crystal_preparation 'acetone/methanol'
_diffrn_ambient_temperature 84
#These two values have been output from a single CSD field.
_refine_ls_R_factor_gt 0.0454
_refine_ls_wR_factor_gt 0.0454
_symmetry_cell_setting triclinic
_symmetry_space_group_name_H-M 'P -1'
_symmetry_Int_Tables_number 2
loop_
_symmetry_equiv_pos_site_id
_symmetry_equiv_pos_as_xyz
1 x,y,z
2 -x,-y,-z
_cell_length_a 7.9312(16)
_cell_length_b 9.5198(19)
_cell_length_c 10.575(2)
_cell_angle_alpha 97.20(3)
_cell_angle_beta 111.68(3)
_cell_angle_gamma 113.93(3)
_cell_formula_units_Z 1
loop_
_atom_type_symbol
_atom_type_radius_bond
C 0.68
H 0.23
F 0.64
Fe 1.34
N 0.68
P 1.05
loop_
_atom_site_label
_atom_site_type_symbol
_atom_site_fract_x
_atom_site_fract_y
_atom_site_fract_z
C1 C 0.8897(4) 0.2610(3) 0.8993(3)
H1 H 0.87370 0.17790 0.94250
C2 C 1.0703(4) 0.3607(3) 0.8872(3)
H2 H 1.19590 0.35560 0.92090
C3 C 1.0295(4) 0.4694(3) 0.8157(3)
H3 H 1.12340 0.54960 0.79370
C4 C 0.8240(4) 0.4368(3) 0.7829(3)
H4 H 0.75610 0.49090 0.73470
C5 C 0.7374(4) 0.3082(3) 0.8351(2)
C6 C 0.5262(4) 0.2413(3) 0.8280(3)
H5 H 0.53130 0.20790 0.91370
H6 H 0.48610 0.32710 0.82910
C7 C 0.3668(4) 0.0811(3) 0.5644(3)
H7 H 0.46520 0.15600 0.54190
C8 C 0.2008(4) -0.0631(3) 0.4735(3)
H8 H 0.16050 -0.10950 0.37530
C9 C 0.2030(4) -0.0310(3) 0.6856(3)
C10 C 0.1416(4) -0.0588(3) 0.8001(3)
H9 H 0.05780 -0.00720 0.80280
H10 H 0.26660 -0.01190 0.89310
H11 H 0.05960 -0.17580 0.78020
C11 C -0.0832(4) -0.2930(3) 0.4948(3)
H12 H -0.04120 -0.36740 0.53540
H13 H -0.14450 -0.33320 0.38970
H14 H -0.18610 -0.28640 0.52180
F1 F 0.6075(2) 0.90168(18) 0.70961(16)
F2 F 0.3120(2) 0.66454(19) 0.63328(18)
F3 F 0.4782(2) 0.5903(2) 0.81451(19)
F4 F 0.7738(2) 0.8285(2) 0.89154(16)
F5 F 0.6086(3) 0.6642(2) 0.66023(17)
F6 F 0.4764(3) 0.8286(2) 0.86279(17)
Fe1 Fe 1.00000 0.50000 1.00000
N1 N 0.3680(3) 0.1002(2) 0.6964(2)
N2 N 0.0997(3) -0.1310(2) 0.5508(2)
P1 P 0.54352(10) 0.74631(7) 0.76182(7)
C1A C 1.1103(4) 0.7390(3) 1.1007(3)
H1A H 1.12630 0.82210 1.05750
C2A C 0.9297(4) 0.6393(3) 1.1128(3)
H2A H 0.80410 0.64440 1.07910
C3A C 0.9705(4) 0.5306(3) 1.1843(3)
H3A H 0.87660 0.45040 1.20630
C4A C 1.1760(4) 0.5632(3) 1.2171(3)
H4A H 1.24390 0.50910 1.26530
C5A C 1.2626(4) 0.6918(3) 1.1649(2)
C6A C 1.4738(4) 0.7587(3) 1.1720(3)
H5A H 1.46870 0.79210 1.08630
H6A H 1.51390 0.67290 1.17090
N1A N 1.6320(3) 0.8998(2) 1.3036(2)
C7A C 1.6332(4) 0.9189(3) 1.4356(3)
H7A H 1.53480 0.84400 1.45810
C8A C 1.7992(4) 1.0631(3) 1.5265(3)
H8A H 1.83950 1.10950 1.62470
N2A N 1.9003(3) 1.1310(2) 1.4492(2)
C9A C 1.7970(4) 1.0310(3) 1.3144(3)
C10A C 1.8584(4) 1.0588(3) 1.1999(3)
H9A H 1.94220 1.00720 1.19720
H10A H 1.73340 1.01190 1.10690
H11A H 1.94040 1.17580 1.21980
C11A C 2.0832(4) 1.2930(3) 1.5052(3)
H12A H 2.04120 1.36740 1.46460
H13A H 2.14450 1.33320 1.61030
H14A H 2.18610 1.28640 1.47820
#END
