
#######################################################################
#
#                 Cambridge Crystallographic Data Centre
#                                CCDC
#
#######################################################################
#
# If this CIF has been generated from an entry in the Cambridge
# Structural Database, then it will include bibliographic, chemical,
# crystal, experimental, refinement or atomic coordinate data resulting
# from the CCDC's data processing and validation procedures.
#
#######################################################################

data_CSD_CIF_EBAKAV
_audit_creation_date 2011-11-29
_audit_creation_method CSD-ConQuest-V1
_database_code_CSD EBAKAV
_database_code_depnum_ccdc_archive 'CCDC 851026'
_chemical_formula_sum 'C6 H8 Fe1 N4 O3'
_chemical_formula_moiety
;
C6 H8 Fe1 N4 O3
;
_journal_coden_Cambridge 9
_journal_volume 50
_journal_year 2011
_journal_page_first 8541
_journal_name_full 'Inorg.Chem. '
loop_
_publ_author_name
"J.L.Hess"
"Chung-Hung Hsieh"
"J.H.Reibenspies"
"M.Y.Darensbourg"
_chemical_name_systematic
;
(1,3-Dimethyl-imidazole-2-ylidene)-dinitrosy-carbonyl-iron
;
_cell_volume    481.893
_exptl_crystal_colour 'red brown'
_exptl_crystal_density_diffrn 1.654
_exptl_crystal_description 'plate'
_diffrn_ambient_temperature 110
#These two values have been output from a single CSD field.
_refine_ls_R_factor_gt 0.106
_refine_ls_wR_factor_gt 0.106
_symmetry_cell_setting triclinic
_symmetry_space_group_name_H-M 'P -1'
_symmetry_Int_Tables_number 2
loop_
_symmetry_equiv_pos_site_id
_symmetry_equiv_pos_as_xyz
1 x,y,z
2 -x,-y,-z
_cell_length_a 7.193(11)
_cell_length_b 7.831(12)
_cell_length_c 9.450(15)
_cell_angle_alpha 76.020(16)
_cell_angle_beta 71.134(16)
_cell_angle_gamma 76.597(16)
_cell_formula_units_Z 2
loop_
_atom_type_symbol
_atom_type_radius_bond
C 0.68
H 0.23
Fe 1.41
N 0.68
O 0.68
loop_
_atom_site_label
_atom_site_type_symbol
_atom_site_fract_x
_atom_site_fract_y
_atom_site_fract_z
C1 C 0.2394(8) 0.9555(8) 0.7767(6)
C2 C 0.1322(11) 1.2511(8) 0.6157(8)
H1 H 0.19200 1.19260 0.52950
H2 H 0.17640 1.36380 0.59360
H3 H -0.01020 1.27040 0.63740
C3 C 0.2003(9) 1.2100(8) 0.8703(7)
H4 H 0.17410 1.32980 0.87840
C4 C 0.2546(9) 1.0685(9) 0.9711(7)
H5 H 0.27380 1.07270 1.06290
C5 C 0.3373(10) 0.7352(8) 0.9927(7)
H6 H 0.24630 0.65990 0.99800
H7 H 0.33590 0.73970 1.09360
H8 H 0.46940 0.68790 0.93740
C6 C 0.0208(8) 0.7046(7) 0.7334(6)
Fe1 Fe 0.24594(13) 0.78004(11) 0.64834(10)
N1 N 0.1916(7) 1.1377(6) 0.7495(6)
N2 N 0.2764(7) 0.9166(7) 0.9143(5)
N3 N 0.4413(8) 0.6077(7) 0.6704(6)
N4 N 0.2841(8) 0.8862(7) 0.4620(6)
O1 O 0.5687(7) 0.4834(6) 0.6766(6)
O2 O -0.1283(7) 0.6432(7) 0.7861(6)
O3 O 0.3105(7) 0.9413(6) 0.3311(5)
#END
