
#######################################################################
#
#                 Cambridge Crystallographic Data Centre
#                                CCDC
#
#######################################################################
#
# If this CIF has been generated from an entry in the Cambridge
# Structural Database, then it will include bibliographic, chemical,
# crystal, experimental, refinement or atomic coordinate data resulting
# from the CCDC's data processing and validation procedures.
#
#######################################################################

data_CSD_CIF_EBAKUP
_audit_creation_date 2011-11-29
_audit_creation_method CSD-ConQuest-V1
_database_code_CSD EBAKUP
_database_code_depnum_ccdc_archive 'CCDC 851030'
_chemical_formula_sum 'C15 H21 Fe1 N4 O2 S1'
_chemical_formula_moiety
;
C15 H21 Fe1 N4 O2 S1
;
_journal_coden_Cambridge 9
_journal_volume 50
_journal_year 2011
_journal_page_first 8541
_journal_name_full 'Inorg.Chem. '
loop_
_publ_author_name
"J.L.Hess"
"Chung-Hung Hsieh"
"J.H.Reibenspies"
"M.Y.Darensbourg"
_chemical_name_systematic
;
(1,3-Diisopropyl-imidazole-2-ylidene)-dinitrosy-benzenethiolato-iron
;
_cell_volume    899.507
_exptl_crystal_colour 'red'
_exptl_crystal_density_diffrn 1.393
_exptl_crystal_description 'plate'
_diffrn_ambient_temperature 110
#These two values have been output from a single CSD field.
_refine_ls_R_factor_gt 0.0496
_refine_ls_wR_factor_gt 0.0496
_symmetry_cell_setting triclinic
_symmetry_space_group_name_H-M 'P -1'
_symmetry_Int_Tables_number 2
loop_
_symmetry_equiv_pos_site_id
_symmetry_equiv_pos_as_xyz
1 x,y,z
2 -x,-y,-z
_cell_length_a 9.268(3)
_cell_length_b 10.074(3)
_cell_length_c 10.983(4)
_cell_angle_alpha 91.349(4)
_cell_angle_beta 97.626(4)
_cell_angle_gamma 117.240(4)
_cell_formula_units_Z 2
loop_
_atom_type_symbol
_atom_type_radius_bond
C 0.68
H 0.23
Fe 1.34
N 0.68
O 0.68
S 1.02
loop_
_atom_site_label
_atom_site_type_symbol
_atom_site_fract_x
_atom_site_fract_y
_atom_site_fract_z
Fe1 Fe 0.47616(5) 0.70991(5) 0.69480(4)
S1 S 0.72903(10) 0.82046(10) 0.80993(8)
O1 O 0.4805(3) 0.8197(3) 0.4608(2)
O2 O 0.3993(3) 0.4075(3) 0.6384(3)
N1 N 0.4796(3) 0.7888(3) 0.5627(3)
N2 N 0.4294(3) 0.5290(3) 0.6763(3)
N3 N 0.3038(3) 0.7190(3) 0.9128(2)
N4 N 0.1731(3) 0.7439(3) 0.7460(2)
C1 C 0.3066(3) 0.7267(3) 0.7896(3)
C2 C 0.1725(4) 0.7342(4) 0.9437(3)
H1 H 0.14570 0.73450 1.02420
C3 C 0.0895(4) 0.7486(3) 0.8399(3)
H2 H -0.00760 0.75980 0.83220
C4 C 0.4221(4) 0.6984(4) 1.0030(3)
H3 H 0.49200 0.67090 0.95670
C5 C 0.5335(4) 0.8449(4) 1.0829(3)
H4 H 0.59430 0.92240 1.03060
H5 H 0.61130 0.83020 1.14350
H6 H 0.46670 0.87650 1.12600
C6 C 0.3330(4) 0.5714(4) 1.0798(3)
H7 H 0.25360 0.48230 1.02510
H8 H 0.27500 0.60140 1.13390
H9 H 0.41280 0.54830 1.12990
C7 C 0.1170(4) 0.7570(4) 0.6161(3)
H10 H 0.18620 0.73680 0.56340
C8 C 0.1434(6) 0.9137(4) 0.6014(3)
H11 H 0.26000 0.98450 0.62690
H12 H 0.07770 0.93680 0.65300
H13 H 0.10960 0.92230 0.51480
C9 C -0.0587(5) 0.6405(5) 0.5756(3)
H14 H -0.06850 0.54050 0.58610
H15 H -0.09280 0.64700 0.48850
H16 H -0.12930 0.65810 0.62580
C10 C 0.8360(4) 1.0133(4) 0.7933(3)
C11 C 1.0014(4) 1.0892(4) 0.8453(3)
H17 H 1.05190 1.03680 0.88860
C12 C 1.0925(5) 1.2403(4) 0.8344(4)
H18 H 1.20550 1.29080 0.86970
C13 C 1.0221(5) 1.3189(4) 0.7731(3)
H19 H 1.08570 1.42300 0.76620
C14 C 0.8581(5) 1.2449(4) 0.7217(3)
H20 H 0.80890 1.29860 0.67880
C15 C 0.7646(4) 1.0939(4) 0.7317(3)
H21 H 0.65140 1.04460 0.69670
#END
