
#######################################################################
#
#                 Cambridge Crystallographic Data Centre
#                                CCDC
#
#######################################################################
#
# If this CIF has been generated from an entry in the Cambridge
# Structural Database, then it will include bibliographic, chemical,
# crystal, experimental, refinement or atomic coordinate data resulting
# from the CCDC's data processing and validation procedures.
#
#######################################################################

data_CSD_CIF_EBEKEB
_audit_creation_date 2001-10-02
_audit_creation_method CSD-ConQuest-V1
_database_code_CSD EBEKEB
_database_code_depnum_ccdc_journal 186/1962
_chemical_formula_sum 'C34 H38 Cr1 N4'
_chemical_formula_moiety
;
C34 H38 Cr1 N4
;
_journal_coden_Cambridge 186
_journal_year 2000
_journal_page_first 2001
_journal_name_full 'J.Chem.Soc.,Dalton Trans. '
loop_
_publ_author_name
"F.A.Cotton"
"L.M.Daniels"
"C.A.Murillo"
"P.Schooler"
_chemical_name_systematic
;
bis(N,N'-bis(2,6-Xylyl)formamidinato-N,N')-chromium(ii)
;
_cell_volume    757.945
_exptl_crystal_colour 'red'
_exptl_crystal_density_diffrn 1.215
_exptl_crystal_preparation 'toluene'
_diffrn_ambient_temperature 213
#These two values have been output from a single CSD field.
_refine_ls_R_factor_gt 0.053
_refine_ls_wR_factor_gt 0.053
_symmetry_cell_setting triclinic
_symmetry_space_group_name_H-M 'P -1'
_symmetry_Int_Tables_number 2
loop_
_symmetry_equiv_pos_site_id
_symmetry_equiv_pos_as_xyz
1 x,y,z
2 -x,-y,-z
_cell_length_a 8.5292(10)
_cell_length_b 8.8898(11)
_cell_length_c 10.3749(13)
_cell_angle_alpha 78.187(2)
_cell_angle_beta 81.956(2)
_cell_angle_gamma 82.329(2)
_cell_formula_units_Z 1
loop_
_atom_type_symbol
_atom_type_radius_bond
C 0.68
H 0.23
Cr 1.35
N 0.68
loop_
_atom_site_label
_atom_site_type_symbol
_atom_site_fract_x
_atom_site_fract_y
_atom_site_fract_z
Cr1 Cr 0.00000 0.00000 0.00000
N1 N -0.1454(2) -0.1406(2) 0.1304(2)
N2 N -0.0155(2) -0.2100(2) -0.0527(2)
C1 C 0.2056(3) -0.3251(2) -0.1867(2)
C2 C 0.0401(3) -0.3053(2) -0.1472(2)
C3 C -0.1090(3) -0.2505(2) 0.0585(2)
C4 C -0.0640(3) -0.3704(3) -0.2097(2)
C5 C 0.2624(3) -0.4050(3) -0.2895(2)
C6 C -0.1638(3) -0.1413(2) 0.3646(2)
C7 C 0.1604(3) -0.4662(3) -0.3530(2)
C8 C -0.4112(3) -0.1810(3) 0.5042(3)
C9 C -0.3975(3) -0.1847(3) 0.2709(2)
C10 C -0.2371(3) -0.1588(2) 0.2558(2)
C11 C 0.0005(3) -0.4494(3) -0.3128(2)
C12 C -0.4788(4) -0.2007(4) 0.1551(3)
C13 C 0.3185(3) -0.2604(4) -0.1183(3)
C14 C 0.0079(4) -0.1145(4) 0.3488(3)
C15 C -0.2407(3) -0.3522(4) -0.1713(3)
C16 C -0.2545(4) -0.1519(3) 0.4879(2)
C17 C -0.4810(3) -0.1971(3) 0.3973(3)
H1 H -0.1416(26) -0.3485(27) 0.0858(20)
H2 H 0.2001(32) -0.5152(33) -0.4168(26)
H3 H -0.2981(30) -0.3772(30) -0.2358(25)
H4 H 0.0678(34) -0.1981(37) 0.3100(28)
H5 H 0.3745(37) -0.4263(33) -0.3146(27)
H6 H -0.2117(35) -0.1448(35) 0.5552(28)
H7 H -0.5873(41) -0.2255(38) 0.4074(29)
H8 H 0.4292(39) -0.3162(36) -0.1307(29)
H9 H -0.2747(35) -0.2506(38) -0.1710(29)
H10 H -0.4770(38) -0.1855(37) 0.5894(31)
H11 H -0.0691(35) -0.4868(34) -0.3533(28)
H12 H 0.0491(51) -0.1239(49) 0.4314(42)
H13 H 0.2947(36) -0.2913(37) -0.0265(32)
H14 H -0.4465(42) -0.1324(42) 0.0843(34)
H15 H -0.4559(41) -0.3065(44) 0.1289(33)
H16 H -0.5890(51) -0.1706(44) 0.1690(35)
H17 H 0.3173(39) -0.1461(41) -0.1430(32)
H18 H 0.0227(36) -0.0116(39) 0.3057(30)
H19 H -0.2699(41) -0.4268(42) -0.0834(35)
N1A N 0.1454(2) 0.1406(2) -0.1304(2)
C3A C 0.1090(3) 0.2505(2) -0.0585(2)
N2A N 0.0155(2) 0.2100(2) 0.0527(2)
C2A C -0.0401(3) 0.3053(2) 0.1472(2)
C1A C -0.2056(3) 0.3251(2) 0.1867(2)
C5A C -0.2624(3) 0.4050(3) 0.2895(2)
C7A C -0.1604(3) 0.4662(3) 0.3530(2)
C11A C -0.0005(3) 0.4494(3) 0.3128(2)
C4A C 0.0640(3) 0.3704(3) 0.2097(2)
C15A C 0.2407(3) 0.3522(4) 0.1713(3)
H3A H 0.2981(30) 0.3772(30) 0.2358(25)
H9A H 0.2747(35) 0.2506(38) 0.1710(29)
H19A H 0.2699(41) 0.4268(42) 0.0834(35)
H11A H 0.0691(35) 0.4868(34) 0.3533(28)
H2A H -0.2001(32) 0.5152(33) 0.4168(26)
H5A H -0.3745(37) 0.4263(33) 0.3146(27)
C13A C -0.3185(3) 0.2604(4) 0.1183(3)
H8A H -0.4292(39) 0.3162(36) 0.1307(29)
H13A H -0.2947(36) 0.2913(37) 0.0265(32)
H17A H -0.3173(39) 0.1461(41) 0.1430(32)
H1A H 0.1416(26) 0.3485(27) -0.0858(20)
C10A C 0.2371(3) 0.1588(2) -0.2558(2)
C6A C 0.1638(3) 0.1413(2) -0.3646(2)
C14A C -0.0079(4) 0.1145(4) -0.3488(3)
H4A H -0.0678(34) 0.1981(37) -0.3100(28)
H12A H -0.0491(51) 0.1239(49) -0.4314(42)
H18A H -0.0227(36) 0.0116(39) -0.3057(30)
C16A C 0.2545(4) 0.1519(3) -0.4879(2)
C8A C 0.4112(3) 0.1810(3) -0.5042(3)
C17A C 0.4810(3) 0.1971(3) -0.3973(3)
C9A C 0.3975(3) 0.1847(3) -0.2709(2)
C12A C 0.4788(4) 0.2007(4) -0.1551(3)
H14A H 0.4465(42) 0.1324(42) -0.0843(34)
H15A H 0.4559(41) 0.3065(44) -0.1289(33)
H16A H 0.5890(51) 0.1706(44) -0.1690(35)
H7A H 0.5873(41) 0.2255(38) -0.4074(29)
H10A H 0.4770(38) 0.1855(37) -0.5894(31)
H6A H 0.2117(35) 0.1448(35) -0.5552(28)
#END
