
#######################################################################
#
#                 Cambridge Crystallographic Data Centre
#                                CCDC
#
#######################################################################
#
# If this CIF has been generated from an entry in the Cambridge
# Structural Database, then it will include bibliographic, chemical,
# crystal, experimental, refinement or atomic coordinate data resulting
# from the CCDC's data processing and validation procedures.
#
#######################################################################

data_CSD_CIF_EBENOP
_audit_creation_date 2004-11-16
_audit_creation_method CSD-ConQuest-V1
_database_code_CSD EBENOP
_database_code_depnum_ccdc_archive 'CCDC 231771'
_chemical_formula_sum 'C12 H5 F8 Mn1 O1'
_chemical_formula_moiety
;
C12 H5 F8 Mn1 O1
;
_journal_coden_Cambridge 29
_journal_volume 630
_journal_year 2004
_journal_page_first 973
_journal_name_full 'Z.Anorg.Allg.Chem. '
loop_
_publ_author_name
"D.Lentz"
"M.Patzschke"
_chemical_name_systematic
;
(\h^5^-Cyclopentadienyl)-(\h^4^-3,3,4,4-tetrafluoro-1,2-bis(difluoromethylene)
cyclobutane)-carbonyl-manganese
;
_cell_volume    598.266
_exptl_crystal_colour 'yellow'
_exptl_crystal_density_diffrn 2.066
_exptl_crystal_description 'prism'
_diffrn_ambient_temperature 173
#These two values have been output from a single CSD field.
_refine_ls_R_factor_gt 0.0454
_refine_ls_wR_factor_gt 0.0454
_symmetry_cell_setting monoclinic
_symmetry_space_group_name_H-M 'P 21/m'
_symmetry_Int_Tables_number 11
loop_
_symmetry_equiv_pos_site_id
_symmetry_equiv_pos_as_xyz
1 x,y,z
2 x,1/2-y,z
3 -x,-y,-z
4 -x,-1/2+y,-z
_cell_length_a 6.9808(4)
_cell_length_b 11.3862(6)
_cell_length_c 7.8796(4)
_cell_angle_alpha 90
_cell_angle_beta 107.210(1)
_cell_angle_gamma 90
_cell_formula_units_Z 2
loop_
_atom_type_symbol
_atom_type_radius_bond
C 0.68
H 0.23
F 0.64
Mn 1.35
O 0.68
loop_
_atom_site_label
_atom_site_type_symbol
_atom_site_fract_x
_atom_site_fract_y
_atom_site_fract_z
Mn1 Mn 0.51761(4) 0.25000 0.81444(4)
C1 C 0.3318(2) 0.11114(14) 0.8119(2)
C2 C 0.2348(2) 0.18767(14) 0.6680(2)
C3 C 0.1669(3) 0.18098(17) 0.4666(2)
C4 C 0.5286(4) 0.25000 1.0466(3)
C5 C 0.6844(3) 0.1918(3) 0.6372(4)
H1 H 0.62970 0.14470 0.53470
C6 C 0.7714(4) 0.1491(2) 0.8002(5)
H2 H 0.78970 0.06860 0.83280
C7 C 0.8327(4) 0.25000 0.9181(4)
H3 H 0.89730 0.25000 1.04240
F1 F 0.37304(19) 0.00299(10) 0.7605(2)
F2 F 0.24755(18) 0.09393(12) 0.94519(17)
F3 F 0.2871(2) 0.13001(13) 0.38199(18)
F4 F -0.0173(2) 0.13362(13) 0.39711(18)
O1 O 0.5448(4) 0.25000 1.1948(3)
C1A C 0.3318(2) 0.38886(14) 0.8119(2)
C2A C 0.2348(2) 0.31233(14) 0.6680(2)
C5A C 0.6844(3) 0.3082(3) 0.6372(4)
C6A C 0.7714(4) 0.3509(2) 0.8002(5)
H1A H 0.62970 0.35530 0.53470
H2A H 0.78970 0.43140 0.83280
C3A C 0.1669(3) 0.31902(17) 0.4666(2)
F3A F 0.2871(2) 0.36999(13) 0.38199(18)
F4A F -0.0173(2) 0.36638(13) 0.39711(18)
F1A F 0.37304(19) 0.49701(10) 0.7605(2)
F2A F 0.24755(18) 0.40607(12) 0.94519(17)
#END
