
#######################################################################
#
#                 Cambridge Crystallographic Data Centre
#                                CCDC
#
#######################################################################
#
# If this CIF has been generated from an entry in the Cambridge
# Structural Database, then it will include bibliographic, chemical,
# crystal, experimental, refinement or atomic coordinate data resulting
# from the CCDC's data processing and validation procedures.
#
#######################################################################

data_CSD_CIF_EBTFEC
_audit_creation_date 1977-10-06
_audit_creation_method CSD-ConQuest-V1
_database_code_CSD EBTFEC
_database_code_depnum_ccdc_archive 'CCDC 1148391'
_chemical_formula_sum 'C13 H22 B2 Fe1 N2 O3 S1'
_chemical_formula_moiety
;
C13 H22 B2 Fe1 N2 O3 S1
;
_journal_coden_Cambridge 36
_journal_volume 131
_journal_year 1977
_journal_page_first 1
_journal_name_full 'J.Organomet.Chem. '
loop_
_publ_author_name
"W.Siebert"
"R.Full"
"J.Edwin"
"K.Kinberger"
"C.Kruger"
_chemical_name_systematic
;
(\h^2^,\s^3^-2,5-bis(Dimethylamino)-1,2,5-thiadiborolene)-tricarbonyl-iron
;
_chemical_melting_point 374.15
_cell_volume    897.730
_exptl_crystal_density_diffrn 1.36
_exptl_special_details
;
Melting point range 374.15-375.15K

;
_diffrn_ambient_temperature ?
_diffrn_special_details
;
The study was carried out at room temperature,in the range 283-303K

;
#These two values have been output from a single CSD field.
_refine_ls_R_factor_gt 0.027
_refine_ls_wR_factor_gt 0.027
_symmetry_cell_setting triclinic
_symmetry_space_group_name_H-M 'P -1'
_symmetry_Int_Tables_number 2
loop_
_symmetry_equiv_pos_site_id
_symmetry_equiv_pos_as_xyz
1 x,y,z
2 -x,-y,-z
_cell_length_a 9.0310(8)
_cell_length_b 9.7214(8)
_cell_length_c 11.0198(8)
_cell_angle_alpha 74.598(8)
_cell_angle_beta 89.658(9)
_cell_angle_gamma 74.744(9)
_cell_formula_units_Z 2
loop_
_atom_type_symbol
_atom_type_radius_bond
C 0.68
H 0.23
B 0.83
Fe 1.34
N 0.68
O 0.68
S 1.02
loop_
_atom_site_label
_atom_site_type_symbol
_atom_site_fract_x
_atom_site_fract_y
_atom_site_fract_z
Fe1 Fe 0.42330 0.21080 0.20000
S1 S 0.28660 0.46310 0.10750
N1 N 0.25890 0.48600 0.35760
N2 N 0.16970 0.35110 -0.07230
B1 B 0.24570 0.39860 0.27700
B2 B 0.19850 0.33020 0.05760
O1 O 0.64360 0.26280 0.36790
O2 O 0.50540 -0.10640 0.31480
O3 O 0.58290 0.16930 -0.02670
C1 C 0.55840 0.24490 0.30070
C2 C 0.47400 0.01830 0.27020
C3 C 0.51970 0.18750 0.06000
C4 C 0.21520 0.24530 0.29540
C5 C 0.18700 0.21150 0.17890
C6 C 0.19920 0.14440 0.42350
C7 C 0.04060 0.18970 0.47280
C8 C 0.13280 0.07510 0.17950
C9 C -0.04260 0.11350 0.16380
C10 C 0.21290 0.46490 -0.16890
C11 C 0.12120 0.24750 -0.12660
C12 C 0.30140 0.62450 0.31470
C13 C 0.26040 0.43720 0.49520
H1 H 0.28420 0.14640 0.48390
H2 H 0.22360 0.04450 0.42210
H3 H 0.03740 0.14430 0.55540
H4 H 0.01410 0.29290 0.46930
H5 H -0.03040 0.17650 0.42560
H6 H 0.17860 0.02920 0.11640
H7 H 0.16670 -0.00720 0.26160
H8 H -0.07700 0.03490 0.15630
H9 H -0.09180 0.19840 0.09120
H10 H -0.08770 0.15790 0.23620
H11 H 0.22750 0.54180 -0.14290
H12 H 0.29660 0.43030 -0.21150
H13 H 0.12700 0.50900 -0.23620
H14 H 0.21120 0.19620 -0.15410
H15 H 0.04160 0.30680 -0.19890
H16 H 0.05940 0.19270 -0.07910
H17 H 0.27940 0.66630 0.23110
H18 H 0.25160 0.69140 0.36190
H19 H 0.41020 0.60710 0.31660
H20 H 0.21480 0.35540 0.52510
H21 H 0.20840 0.52010 0.52740
H22 H 0.37730 0.38680 0.53830
#END
