
#######################################################################
#
#                 Cambridge Crystallographic Data Centre
#                                CCDC
#
#######################################################################
#
# If this CIF has been generated from an entry in the Cambridge
# Structural Database, then it will include bibliographic, chemical,
# crystal, experimental, refinement or atomic coordinate data resulting
# from the CCDC's data processing and validation procedures.
#
#######################################################################

data_CSD_CIF_ECOQIX
_audit_creation_date 2006-05-29
_audit_creation_method CSD-ConQuest-V1
_database_code_CSD ECOQIX
_database_code_depnum_ccdc_archive 'CCDC 258738'
_chemical_formula_sum 'C28 H48 Mn1 N14'
_chemical_formula_moiety
;
C28 H48 Mn1 N14
;
_journal_coden_Cambridge 456
_journal_volume 79
_journal_year 2005
_journal_page_first 1389
_journal_name_full 'Pol.J.Chem. '
loop_
_publ_author_name
"Q.Li"
"L.Zhang"
"F.Peng"
"Y.Y.Ge"
"L.Chen"
"L.F.Tang"
_chemical_name_systematic
;
bis(azido-N)-tetrakis(5-t-butylpyrazole-N^2^)-manganese(ii)
;
_cell_volume    915.335
_exptl_crystal_colour 'red'
_exptl_crystal_density_diffrn 1.153
_diffrn_ambient_temperature 293
#These two values have been output from a single CSD field.
_refine_ls_R_factor_gt 0.0584
_refine_ls_wR_factor_gt 0.0584
_symmetry_cell_setting triclinic
_symmetry_space_group_name_H-M 'P -1'
_symmetry_Int_Tables_number 2
loop_
_symmetry_equiv_pos_site_id
_symmetry_equiv_pos_as_xyz
1 x,y,z
2 -x,-y,-z
_cell_length_a 8.0844(9)
_cell_length_b 10.1230(12)
_cell_length_c 12.1046(13)
_cell_angle_alpha 91.854(3)
_cell_angle_beta 108.495(2)
_cell_angle_gamma 101.598(2)
_cell_formula_units_Z 1
loop_
_atom_type_symbol
_atom_type_radius_bond
C 0.68
H 0.23
Mn 1.35
N 0.68
loop_
_atom_site_label
_atom_site_type_symbol
_atom_site_fract_x
_atom_site_fract_y
_atom_site_fract_z
Mn1 Mn 0.50000 0.50000 0.50000
N1 N 0.4490(4) 0.6926(3) 0.4194(3)
N2 N 0.2963(3) 0.7390(2) 0.3943(2)
H1 H 0.20760 0.70370 0.41650
N3 N 0.5271(4) 0.5907(3) 0.6805(3)
N4 N 0.4025(3) 0.6299(3) 0.7174(2)
H2 H 0.29750 0.63190 0.67140
C1 C 0.2980(4) 0.8450(3) 0.3317(3)
C2 C 0.4580(4) 0.6654(3) 0.8332(3)
C3 C 0.3435(5) 0.7115(4) 0.8954(3)
C4 C 0.6309(5) 0.6482(4) 0.8731(4)
H3 H 0.70890 0.66420 0.94990
C5 C 0.4596(6) 0.8668(5) 0.3159(4)
H4 H 0.50370 0.93360 0.27510
C6 C 0.1452(6) 0.9136(4) 0.2904(4)
C7 C 0.6648(5) 0.6025(4) 0.7757(4)
H5 H 0.77290 0.58240 0.77760
C8 C 0.4438(8) 0.7310(6) 1.0279(4)
H6 H 0.55080 0.80080 1.04500
H7 H 0.47460 0.64770 1.05330
H8 H 0.36850 0.75690 1.06830
C9 C 0.5456(5) 0.7713(5) 0.3714(4)
H9 H 0.65980 0.76450 0.37400
C10 C 0.1259(14) 0.9855(11) 0.3905(7)
H10 H 0.02780 1.02960 0.36380
H11 H 0.23400 1.05210 0.42940
H12 H 0.10310 0.92220 0.44410
C11 C -0.0246(10) 0.8115(9) 0.2420(9)
H13 H -0.12190 0.85650 0.21580
H14 H -0.04170 0.75520 0.30150
H15 H -0.02080 0.75650 0.17710
C12 C 0.1711(15) 1.0027(13) 0.2023(11)
H16 H 0.07250 1.04650 0.17670
H17 H 0.17730 0.95040 0.13680
H18 H 0.28040 1.07000 0.23550
N5 N 0.0779(3) 0.3779(3) 0.4570(2)
N6 N -0.0634(4) 0.3224(4) 0.4500(3)
N7 N 0.2142(4) 0.4322(4) 0.4597(4)
C13 C 0.2945(9) 0.8404(5) 0.8519(5)
H19 H 0.23200 0.82550 0.76900
H20 H 0.40120 0.91020 0.86760
H21 H 0.21890 0.86800 0.89120
C14 C 0.1751(6) 0.6020(6) 0.8721(4)
H22 H 0.10990 0.58800 0.78970
H23 H 0.10200 0.62940 0.91350
H24 H 0.20660 0.51920 0.89850
N1A N 0.5510(4) 0.3074(3) 0.5806(3)
N2A N 0.7037(3) 0.2610(2) 0.6057(2)
H1A H 0.79240 0.29630 0.58350
N3A N 0.4729(4) 0.4093(3) 0.3195(3)
N4A N 0.5975(3) 0.3701(3) 0.2826(2)
H2A H 0.70250 0.36810 0.32860
C1A C 0.7020(4) 0.1550(3) 0.6683(3)
C2A C 0.5420(4) 0.3346(3) 0.1668(3)
C3A C 0.6565(5) 0.2885(4) 0.1046(3)
C4A C 0.3691(5) 0.3518(4) 0.1269(4)
H3A H 0.29110 0.33580 0.05010
C5A C 0.5404(6) 0.1332(5) 0.6841(4)
H4A H 0.49630 0.06640 0.72490
C6A C 0.8548(6) 0.0864(4) 0.7096(4)
C7A C 0.3352(5) 0.3975(4) 0.2243(4)
H5A H 0.22710 0.41760 0.22240
C8A C 0.5562(8) 0.2690(6) -0.0279(4)
H6A H 0.44920 0.19920 -0.04500
H7A H 0.52540 0.35230 -0.05330
H8A H 0.63150 0.24310 -0.06830
C9A C 0.4544(5) 0.2287(5) 0.6286(4)
H9A H 0.34020 0.23550 0.62600
C10A C 0.8741(14) 0.0145(11) 0.6095(7)
H10A H 0.97220 -0.02960 0.63620
H11A H 0.76600 -0.05210 0.57060
H12A H 0.89690 0.07780 0.55590
C11A C 1.0246(10) 0.1885(9) 0.7580(9)
H13A H 1.12190 0.14350 0.78420
H14A H 1.04170 0.24480 0.69850
H15A H 1.02080 0.24350 0.82290
C12A C 0.8289(15) -0.0027(13) 0.7977(11)
H16A H 0.92750 -0.04650 0.82330
H17A H 0.82270 0.04960 0.86320
H18A H 0.71960 -0.07000 0.76450
N5A N 0.9221(3) 0.6221(3) 0.5430(2)
N6A N 1.0634(4) 0.6776(4) 0.5500(3)
N7A N 0.7858(4) 0.5678(4) 0.5403(4)
C13A C 0.7055(9) 0.1596(5) 0.1481(5)
H19A H 0.76800 0.17450 0.23100
H20A H 0.59880 0.08980 0.13240
H21A H 0.78110 0.13200 0.10880
C14A C 0.8249(6) 0.3980(6) 0.1279(4)
H22A H 0.89010 0.41200 0.21030
H23A H 0.89800 0.37060 0.08650
H24A H 0.79340 0.48080 0.10150
#END
