
#######################################################################
#
#                 Cambridge Crystallographic Data Centre
#                                CCDC
#
#######################################################################
#
# If this CIF has been generated from an entry in the Cambridge
# Structural Database, then it will include bibliographic, chemical,
# crystal, experimental, refinement or atomic coordinate data resulting
# from the CCDC's data processing and validation procedures.
#
#######################################################################

data_CSD_CIF_EDETIT
_audit_creation_date 2017-10-16
_audit_creation_method CSD-ConQuest-V1
_database_code_CSD EDETIT
_database_code_depnum_ccdc_archive 'CCDC 1031209'
_chemical_formula_sum 'C14 H28 Cl2 Co1 N8 O6'
_chemical_formula_moiety
;
C14 H24 Co1 N8 O4 2+,2(H2 O1),2(Cl1 1-)
;
_journal_coden_Cambridge 1268
_journal_volume 22
_journal_year 2017
_journal_page_first 1233
_journal_name_full 'Molecules '
loop_
_publ_author_name
"L.Marutescu"
"L.Calu"
"M.C.Chifiriuc"
"C.Bleotu"
"C.-G.Daniliuc"
"D.Falcescu"
"C.M.Kamerzan"
"M.Badea"
"R.Olar"
_chemical_name_systematic
;
tetra-aqua-bis(5,7-dimethyl[1,2,4]triazolo[1,5-a]pyrimidine)-cobalt(ii) 
dichloride dihydrate
;
_cell_volume    592.052
_exptl_crystal_colour 'pale yellow'
_exptl_crystal_density_diffrn 1.498
_exptl_crystal_description 'prism'
_diffrn_ambient_temperature 223
#These two values have been output from a single CSD field.
_refine_ls_R_factor_gt 0.0433
_refine_ls_wR_factor_gt 0.0433
_symmetry_cell_setting triclinic
_symmetry_space_group_name_H-M 'P -1'
_symmetry_Int_Tables_number 2
loop_
_symmetry_equiv_pos_site_id
_symmetry_equiv_pos_as_xyz
1 x,y,z
2 -x,-y,-z
_cell_length_a 7.6872(4)
_cell_length_b 8.3348(8)
_cell_length_c 9.6388(9)
_cell_angle_alpha 99.636(8)
_cell_angle_beta 100.828(7)
_cell_angle_gamma 96.026(4)
_cell_formula_units_Z 1
loop_
_atom_type_symbol
_atom_type_radius_bond
C 0.68
H 0.23
Cl 0.99
Co 1.26
N 0.68
O 0.68
loop_
_atom_site_label
_atom_site_type_symbol
_atom_site_fract_x
_atom_site_fract_y
_atom_site_fract_z
Co1 Co -0.50000 0.00000 0.00000
O1 O -0.4830(3) -0.2400(3) 0.0348(3)
H1 H -0.558(6) -0.317(5) 0.009(6)
H2 H -0.428(5) -0.249(6) 0.109(3)
O2 O -0.2327(3) 0.0141(3) -0.0065(3)
H3 H -0.156(5) 0.080(4) 0.041(4)
H4 H -0.196(6) -0.070(4) -0.025(5)
N1 N -0.4294(4) 0.1024(3) 0.2266(3)
N2 N -0.3857(4) 0.2913(3) 0.4335(3)
N3 N -0.3228(4) 0.1482(3) 0.4594(3)
N4 N -0.3047(4) -0.1161(3) 0.3288(3)
C1 C -0.4474(5) 0.2540(4) 0.2934(4)
H5 H -0.50130 0.32890 0.24240
C2 C -0.3503(4) 0.0356(4) 0.3340(3)
C3 C -0.2295(5) -0.1520(4) 0.4541(4)
C4 C -0.1958(5) -0.0360(4) 0.5852(4)
H6 H -0.14080 -0.06630 0.67080
C5 C -0.2413(4) 0.1181(4) 0.5901(3)
C6 C -0.1837(6) -0.3213(4) 0.4532(4)
H7 H -0.18200 -0.37320 0.35560
H8 H -0.27260 -0.38510 0.48890
H9 H -0.06680 -0.31600 0.51430
C7 C -0.2153(6) 0.2513(5) 0.7183(4)
H10 H -0.15600 0.35130 0.69900
H11 H -0.14230 0.21950 0.80000
H12 H -0.33070 0.27030 0.73960
Cl1 Cl 0.07943(11) 0.29134(9) 0.14081(9)
O3 O -0.2449(4) 0.4867(3) 0.0656(3)
H13 H -0.160(5) 0.445(6) 0.090(5)
H14 H -0.229(6) 0.549(5) 0.015(4)
O1A O -0.5170(3) 0.2400(3) -0.0348(3)
H1A H -0.442(6) 0.317(5) -0.009(6)
H2A H -0.572(5) 0.249(6) -0.109(3)
O2A O -0.7673(3) -0.0141(3) 0.0065(3)
H3A H -0.844(5) -0.080(4) -0.041(4)
H4A H -0.804(6) 0.070(4) 0.025(5)
N1A N -0.5706(4) -0.1024(3) -0.2266(3)
N2A N -0.6143(4) -0.2913(3) -0.4335(3)
N3A N -0.6772(4) -0.1482(3) -0.4594(3)
N4A N -0.6953(4) 0.1161(3) -0.3288(3)
C1A C -0.5526(5) -0.2540(4) -0.2934(4)
H5A H -0.49870 -0.32890 -0.24240
C2A C -0.6497(4) -0.0356(4) -0.3340(3)
C3A C -0.7705(5) 0.1520(4) -0.4541(4)
C4A C -0.8042(5) 0.0360(4) -0.5852(4)
H6A H -0.85920 0.06630 -0.67080
C5A C -0.7587(4) -0.1181(4) -0.5901(3)
C6A C -0.8163(6) 0.3213(4) -0.4532(4)
H7A H -0.81800 0.37320 -0.35560
H8A H -0.72740 0.38510 -0.48890
H9A H -0.93320 0.31600 -0.51430
C7A C -0.7847(6) -0.2513(5) -0.7183(4)
H10A H -0.84400 -0.35130 -0.69900
H11A H -0.85770 -0.21950 -0.80000
H12A H -0.66930 -0.27030 -0.73960
#END
