
#######################################################################
#
#                 Cambridge Crystallographic Data Centre
#                                CCDC
#
#######################################################################
#
# If this CIF has been generated from an entry in the Cambridge
# Structural Database, then it will include bibliographic, chemical,
# crystal, experimental, refinement or atomic coordinate data resulting
# from the CCDC's data processing and validation procedures.
#
#######################################################################

data_CSD_CIF_EDIFII
_audit_creation_date 2013-03-18
_audit_creation_method CSD-ConQuest-V1
_database_code_CSD EDIFII
_database_code_depnum_ccdc_archive 'CCDC 912869'
_chemical_formula_sum 'C16 H12 Br1 Mn1 N2 O3 S1'
_chemical_formula_moiety
;
C16 H12 Br1 Mn1 N2 O3 S1
;
_journal_coden_Cambridge 9
_journal_volume 51
_journal_year 2012
_journal_page_first 11930
_journal_name_full 'Inorg.Chem. '
loop_
_publ_author_name
"M.A.Gonzalez"
"S.J.Carrington"
"N.L.Fry"
"J.L.Martinez"
"P.K.Mascharak"
_chemical_name_systematic
;
Bromo-(tricarbonyl)-(2-(methylsulfanyl)-N-((pyridin-2-yl)methylene)aniline)-ma
nganese
;
_cell_volume    898.356
_exptl_crystal_colour 'red'
_exptl_crystal_density_diffrn 1.653
_exptl_crystal_description 'blade'
_diffrn_ambient_temperature 296
#These two values have been output from a single CSD field.
_refine_ls_R_factor_gt 0.0353
_refine_ls_wR_factor_gt 0.0353
_symmetry_cell_setting triclinic
_symmetry_space_group_name_H-M 'P -1'
_symmetry_Int_Tables_number 2
loop_
_symmetry_equiv_pos_site_id
_symmetry_equiv_pos_as_xyz
1 x,y,z
2 -x,-y,-z
_cell_length_a 7.7145(6)
_cell_length_b 8.9929(6)
_cell_length_c 13.6094(10)
_cell_angle_alpha 93.746(1)
_cell_angle_beta 95.547(1)
_cell_angle_gamma 106.169(1)
_cell_formula_units_Z 2
loop_
_atom_type_symbol
_atom_type_radius_bond
C 0.68
H 0.23
Br 1.21
Mn 1.49
N 0.68
O 0.68
S 1.02
loop_
_atom_site_label
_atom_site_type_symbol
_atom_site_fract_x
_atom_site_fract_y
_atom_site_fract_z
Br1 Br 0.25895(4) 0.62691(4) 0.85917(3)
Mn1 Mn 0.54971(6) 0.67773(4) 0.77839(3)
S1 S 0.83016(11) 1.14346(10) 0.69097(7)
N1 N 0.5502(3) 0.9057(2) 0.77830(17)
O1 O 0.8703(3) 0.7152(3) 0.6731(2)
N2 N 0.6883(3) 0.7701(3) 0.91524(17)
C1 C 0.4791(4) 0.9798(3) 0.6996(2)
C2 C 0.2938(4) 0.9323(3) 0.6704(2)
H1 H 0.21920 0.85090 0.69900
C3 C 0.5948(4) 1.0970(3) 0.6543(2)
C4 C 0.6948(4) 0.9201(3) 0.9394(2)
C5 C 0.6172(4) 0.9900(3) 0.8604(2)
H2 H 0.61590 1.09310 0.86870
O2 O 0.3305(3) 0.5589(3) 0.58495(18)
C6 C 0.5475(4) 0.4808(4) 0.7988(2)
C7 C 0.4135(4) 0.6083(3) 0.6605(2)
O3 O 0.5481(4) 0.3567(3) 0.81367(19)
C8 C 0.7627(4) 0.6994(3) 0.9837(2)
H3 H 0.76000 0.59640 0.96850
C9 C 0.7719(4) 0.9985(4) 1.0308(2)
H4 H 0.77260 1.10110 1.04550
C10 C 0.5165(4) 1.1682(3) 0.5820(2)
H5 H 0.59040 1.24720 0.55120
C11 C 0.8474(4) 0.9225(4) 1.0997(2)
H6 H 0.90050 0.97290 1.16170
C12 C 0.7483(4) 0.7044(3) 0.7170(2)
C13 C 0.3316(4) 1.1242(4) 0.5551(2)
H7 H 0.28180 1.17470 0.50730
C14 C 0.8434(4) 0.7719(4) 1.0758(2)
H8 H 0.89470 0.71860 1.12120
C15 C 0.9258(5) 1.3059(4) 0.6250(3)
H9 H 1.05550 1.33860 0.64110
H10 H 0.87750 1.38990 0.64340
H11 H 0.89570 1.27660 0.55500
C16 C 0.2197(4) 1.0057(4) 0.5986(2)
H12 H 0.09490 0.97550 0.57960
#END
