
#######################################################################
#
#                 Cambridge Crystallographic Data Centre
#                                CCDC
#
#######################################################################
#
# If this CIF has been generated from an entry in the Cambridge
# Structural Database, then it will include bibliographic, chemical,
# crystal, experimental, refinement or atomic coordinate data resulting
# from the CCDC's data processing and validation procedures.
#
#######################################################################

data_CSD_CIF_EDIFEF
_audit_creation_date 2017-10-16
_audit_creation_method CSD-ConQuest-V1
_database_code_CSD EDIFEF
_database_code_depnum_ccdc_archive 'CCDC 1511937'
_chemical_formula_sum 'C42 H86 Fe1 N4 Sn2'
_chemical_formula_moiety
;
C42 H86 Fe1 N4 Sn2
;
_journal_coden_Cambridge 1290
_journal_year 2017
_journal_page_first 2600
_journal_name_full 'Eur.J.Inorg.Chem. '
loop_
_publ_author_name
"H.Schneider"
"D.Schmidt"
"A.Eichhofer"
"M.Radius"
"F.Weigend"
"U.Radius"
_chemical_name_systematic
;
hexabutyl-bis(1,3-diisopropylimidazol-2-ylidene)-iron-di-tin
;
_cell_volume   1237.061
_exptl_crystal_colour 'red'
_exptl_crystal_density_diffrn 1.262
_exptl_crystal_description 'block'
_diffrn_ambient_temperature 168
#These two values have been output from a single CSD field.
_refine_ls_R_factor_gt 0.0253
_refine_ls_wR_factor_gt 0.0253
_symmetry_cell_setting triclinic
_symmetry_space_group_name_H-M 'P -1'
_symmetry_Int_Tables_number 2
loop_
_symmetry_equiv_pos_site_id
_symmetry_equiv_pos_as_xyz
1 x,y,z
2 -x,-y,-z
_cell_length_a 9.5043(14)
_cell_length_b 11.2846(16)
_cell_length_c 12.7354(19)
_cell_angle_alpha 74.138(2)
_cell_angle_beta 75.604(2)
_cell_angle_gamma 73.339(2)
_cell_formula_units_Z 1
loop_
_atom_type_symbol
_atom_type_radius_bond
C 0.68
H 0.23
Fe 1.52
N 0.68
Sn 1.39
loop_
_atom_site_label
_atom_site_type_symbol
_atom_site_fract_x
_atom_site_fract_y
_atom_site_fract_z
Sn1 Sn 0.14190(2) 0.62069(2) 0.31435(2)
Fe1 Fe 0.00000 0.50000 0.50000
N1 N -0.1070(2) 0.76100(17) 0.55018(16)
N2 N 0.0690(2) 0.64579(18) 0.63711(16)
C1 C -0.0161(2) 0.6421(2) 0.56621(17)
C2 C -0.0777(3) 0.8351(2) 0.6092(2)
H1 H -0.12570 0.91890 0.61130
C3 C 0.0321(3) 0.7635(2) 0.6619(2)
H2 H 0.07600 0.78830 0.70740
C4 C 0.1918(2) 0.5399(2) 0.67241(19)
H3 H 0.16630 0.46120 0.67400
C5 C -0.2195(3) 0.8027(2) 0.4791(2)
H4 H -0.18820 0.75060 0.42350
C6 C 0.2101(3) 0.5349(3) 0.7890(2)
H5 H 0.11470 0.53980 0.83790
H6 H 0.24920 0.60490 0.78770
H7 H 0.27780 0.45680 0.81490
C7 C 0.3351(3) 0.5472(3) 0.5888(2)
H8 H 0.41290 0.47490 0.61060
H9 H 0.36350 0.62330 0.58590
H10 H 0.31980 0.54810 0.51680
C8 C -0.3693(4) 0.7835(4) 0.5459(4)
H11 H -0.44010 0.80730 0.49730
H12 H -0.40300 0.83500 0.60020
H13 H -0.36010 0.69590 0.58280
C9 C -0.2309(4) 0.9388(3) 0.4190(3)
H14 H -0.13390 0.94980 0.37910
H15 H -0.26800 0.99230 0.47180
H16 H -0.29810 0.96120 0.36780
C10 C 0.0183(3) 0.7048(2) 0.17699(19)
H17 H -0.01080 0.63810 0.15900
H18 H -0.07250 0.76390 0.20200
C11 C 0.1036(3) 0.7738(2) 0.07211(19)
H19 H 0.19750 0.71640 0.04950
H20 H 0.12670 0.84430 0.08870
C12 C 0.0193(3) 0.8240(2) -0.0246(2)
H21 H 0.00020 0.75320 -0.04370
H22 H -0.07650 0.87860 -0.00120
C13 C 0.1036(4) 0.8974(3) -0.1266(2)
H23 H 0.04300 0.93130 -0.18300
H24 H 0.19460 0.84180 -0.15410
H25 H 0.12660 0.96540 -0.10760
C14 C 0.2119(3) 0.7864(2) 0.3238(2)
H26 H 0.14000 0.86250 0.29700
H27 H 0.21000 0.78310 0.40110
C15 C 0.3672(3) 0.7963(2) 0.2576(2)
H28 H 0.43930 0.72170 0.28680
H29 H 0.37020 0.79530 0.18120
C16 C 0.4154(3) 0.9123(3) 0.2584(3)
H30 H 0.41560 0.91270 0.33450
H31 H 0.34300 0.98730 0.23030
C17 C 0.5686(4) 0.9190(3) 0.1895(3)
H32 H 0.59270 0.99470 0.19280
H33 H 0.56890 0.92010 0.11380
H34 H 0.64150 0.84630 0.21830
C18 C 0.3437(3) 0.5119(2) 0.22477(19)
H35 H 0.39510 0.57020 0.16810
H36 H 0.41020 0.46350 0.27620
C19 C 0.3088(3) 0.4220(2) 0.1703(2)
H37 H 0.24930 0.47140 0.11440
H38 H 0.24900 0.36940 0.22610
C20 C 0.4472(4) 0.3363(3) 0.1161(2)
H39 H 0.50260 0.28120 0.17280
H40 H 0.51130 0.38820 0.06440
C21 C 0.4079(5) 0.2554(3) 0.0542(3)
H41 H 0.49690 0.19710 0.02790
H42 H 0.36390 0.30920 -0.00770
H43 H 0.33810 0.20900 0.10360
Sn1A Sn -0.14190(2) 0.37931(2) 0.68565(2)
N1A N 0.1070(2) 0.23900(17) 0.44982(16)
N2A N -0.0690(2) 0.35421(18) 0.36289(16)
C1A C 0.0161(2) 0.3579(2) 0.43379(17)
C2A C 0.0777(3) 0.1649(2) 0.3908(2)
H1A H 0.12570 0.08110 0.38870
C3A C -0.0321(3) 0.2365(2) 0.3381(2)
H2A H -0.07600 0.21170 0.29260
C4A C -0.1918(2) 0.4601(2) 0.32759(19)
H3A H -0.16630 0.53880 0.32600
C5A C 0.2195(3) 0.1973(2) 0.5209(2)
H4A H 0.18820 0.24940 0.57650
C6A C -0.2101(3) 0.4651(3) 0.2110(2)
H5A H -0.11470 0.46020 0.16210
H6A H -0.24920 0.39510 0.21230
H7A H -0.27780 0.54320 0.18510
C7A C -0.3351(3) 0.4528(3) 0.4112(2)
H8A H -0.41290 0.52510 0.38940
H9A H -0.36350 0.37670 0.41410
H10A H -0.31980 0.45190 0.48320
C8A C 0.3693(4) 0.2165(4) 0.4541(4)
H11A H 0.44010 0.19270 0.50270
H12A H 0.40300 0.16500 0.39980
H13A H 0.36010 0.30410 0.41720
C9A C 0.2309(4) 0.0612(3) 0.5810(3)
H14A H 0.13390 0.05020 0.62090
H15A H 0.26800 0.00770 0.52820
H16A H 0.29810 0.03880 0.63220
C10A C -0.0183(3) 0.2952(2) 0.82301(19)
H17A H 0.01080 0.36190 0.84100
H18A H 0.07250 0.23610 0.79800
C11A C -0.1036(3) 0.2262(2) 0.92789(19)
H19A H -0.19750 0.28360 0.95050
H20A H -0.12670 0.15570 0.91130
C12A C -0.0193(3) 0.1760(2) 1.0246(2)
H21A H -0.00020 0.24680 1.04370
H22A H 0.07650 0.12140 1.00120
C13A C -0.1036(4) 0.1026(3) 1.1266(2)
H23A H -0.04300 0.06870 1.18300
H24A H -0.19460 0.15820 1.15410
H25A H -0.12660 0.03460 1.10760
C14A C -0.2119(3) 0.2136(2) 0.6762(2)
H26A H -0.14000 0.13750 0.70300
H27A H -0.21000 0.21690 0.59890
C15A C -0.3672(3) 0.2037(2) 0.7424(2)
H28A H -0.43930 0.27830 0.71320
H29A H -0.37020 0.20470 0.81880
C16A C -0.4154(3) 0.0877(3) 0.7416(3)
H30A H -0.41560 0.08730 0.66550
H31A H -0.34300 0.01270 0.76970
C17A C -0.5686(4) 0.0810(3) 0.8105(3)
H32A H -0.59270 0.00530 0.80720
H33A H -0.56890 0.07990 0.88620
H34A H -0.64150 0.15370 0.78170
C18A C -0.3437(3) 0.4881(2) 0.77523(19)
H35A H -0.39510 0.42980 0.83190
H36A H -0.41020 0.53650 0.72380
C19A C -0.3088(3) 0.5780(2) 0.8297(2)
H37A H -0.24930 0.52860 0.88560
H38A H -0.24900 0.63060 0.77390
C20A C -0.4472(4) 0.6637(3) 0.8839(2)
H39A H -0.50260 0.71880 0.82720
H40A H -0.51130 0.61180 0.93560
C21A C -0.4079(5) 0.7446(3) 0.9458(3)
H41A H -0.49690 0.80290 0.97210
H42A H -0.36390 0.69080 1.00770
H43A H -0.33810 0.79100 0.89640
#END
