
#######################################################################
#
#                 Cambridge Crystallographic Data Centre
#                                CCDC
#
#######################################################################
#
# If this CIF has been generated from an entry in the Cambridge
# Structural Database, then it will include bibliographic, chemical,
# crystal, experimental, refinement or atomic coordinate data resulting
# from the CCDC's data processing and validation procedures.
#
#######################################################################

data_CSD_CIF_EDURIG
_audit_creation_date 2013-01-17
_audit_creation_method CSD-ConQuest-V1
_database_code_CSD EDURIG
_database_code_depnum_ccdc_archive 'CCDC 914261'
_chemical_formula_sum 'C9 H19 Fe1 N6 O4'
_chemical_formula_moiety
;
C9 H19 Fe1 N6 O4
;
_journal_coeditor_code "IUCr HY2607"
_journal_coden_Cambridge 1370
_journal_volume 68
_journal_year 2012
_journal_page_first m1568
_journal_name_full 'Acta Crystallogr.,Sect.E:Struct.Rep.Online '
loop_
_publ_author_name
"S.Tomyn"
"M.Haukka"
"R.Nedelkov"
_chemical_name_systematic
;
Diammine-(N-[2-(hydroxyimino)propionyl]-N'-[2-(oxidoimino)propionyl]propane-1,
3-diamido)-iron(iii)
;
_cell_volume    646.524
_exptl_crystal_colour 'red'
_exptl_crystal_density_diffrn 1.701
_exptl_crystal_description 'block'
_diffrn_ambient_temperature 100
_refine_special_details
;
The propane group is disordered by symmetry.

;
#These two values have been output from a single CSD field.
_refine_ls_R_factor_gt 0.0299
_refine_ls_wR_factor_gt 0.0299
_symmetry_cell_setting monoclinic
_symmetry_space_group_name_H-M 'P 21/m'
_symmetry_Int_Tables_number 11
loop_
_symmetry_equiv_pos_site_id
_symmetry_equiv_pos_as_xyz
1 x,y,z
2 -x,1/2+y,-z
3 -x,-y,-z
4 x,-1/2-y,z
_cell_length_a 8.9111(3)
_cell_length_b 7.2255(3)
_cell_length_c 10.6194(4)
_cell_angle_alpha 90
_cell_angle_beta 108.994(2)
_cell_angle_gamma 90
_cell_formula_units_Z 2
loop_
_atom_type_symbol
_atom_type_radius_bond
C 0.68
H 0.23
Fe 1.52
N 0.68
O 0.68
loop_
_atom_site_label
_atom_site_type_symbol
_atom_site_fract_x
_atom_site_fract_y
_atom_site_fract_z
Fe1 Fe 0.84000(4) 0.75000 0.68148(4)
O1 O 1.1762(2) 0.75000 0.72129(19)
H1 H 1.11800 0.75000 0.62580
O2 O 0.9831(2) 0.75000 1.07989(18)
O3 O 0.4412(2) 0.75000 0.36943(19)
O4 O 0.9952(2) 0.75000 0.48443(18)
N1 N 0.85135(18) 0.4745(2) 0.67972(15)
H2 H 0.90630 0.43820 0.62520
H3 H 0.90160 0.43260 0.76370
H4 H 0.75140 0.42700 0.64940
N2 N 1.0616(3) 0.75000 0.7808(2)
N3 N 0.8273(3) 0.75000 0.8580(2)
N4 N 0.6183(3) 0.75000 0.5839(2)
N5 N 0.8536(2) 0.75000 0.5050(2)
C1 C 1.1043(3) 0.75000 0.9092(3)
C2 C 1.2708(3) 0.75000 0.9983(3)
H5? H 1.27410 0.72150 1.08940
H6? H 1.31770 0.87220 0.99640
H7? H 1.33100 0.65630 0.96810
C3 C 0.9631(3) 0.75000 0.9576(3)
C4 C 0.6775(3) 0.75000 0.8870(3)
H8? H 0.69400 0.81190 0.97360
H9? H 0.64560 0.62050 0.89520
C5 C 0.5460(4) 0.8461(6) 0.7819(4)
H10? H 0.58110 0.97330 0.77080
H11? H 0.45340 0.85640 0.81360
C6 C 0.4926(3) 0.75000 0.6449(3)
H12? H 0.46180 0.62070 0.65550
H13? H 0.39810 0.81450 0.58520
C7 C 0.5789(3) 0.75000 0.4522(3)
C8 C 0.7221(3) 0.75000 0.4066(3)
C9 C 0.7113(3) 0.75000 0.2641(3)
H14? H 0.73490 0.87420 0.23860
H15? H 0.60380 0.71420 0.20920
H16? H 0.78800 0.66160 0.25050
N1C N 0.85135(18) 1.0255(2) 0.67972(15)
H2C H 0.90630 1.06180 0.62520
H3C H 0.90160 1.06740 0.76370
H4C H 0.75140 1.07300 0.64940
C5C C 0.5460(4) 0.6539(6) 0.7819(4)
#END
