
#######################################################################
#
#                 Cambridge Crystallographic Data Centre
#                                CCDC
#
#######################################################################
#
# If this CIF has been generated from an entry in the Cambridge
# Structural Database, then it will include bibliographic, chemical,
# crystal, experimental, refinement or atomic coordinate data resulting
# from the CCDC's data processing and validation procedures.
#
#######################################################################

data_CSD_CIF_EDUSEC
_audit_creation_date 2007-09-06
_audit_creation_method CSD-ConQuest-V1
_database_code_CSD EDUSEC
_database_code_depnum_ccdc_archive 'CCDC 654743'
_chemical_formula_sum 'C26 H24 Br2 Co1 N4 O8'
_chemical_formula_moiety
;
C26 H24 Br2 Co1 N4 O8
;
_journal_coeditor_code "IUCr XU2273"
_journal_coden_Cambridge 1370
_journal_volume 63
_journal_year 2007
_journal_page_first m1873
_journal_name_full 'Acta Crystallogr.,Sect.E:Struct.Rep.Online '
loop_
_publ_author_name
"T.Hokelek"
"N.Caylak"
"H.Necefoglu"
_chemical_name_systematic
;
Diaqua-bis(4-bromobenzoato-\kO)-bis(nicotinamide-\kN^1^)-cobalt(ii)
;
_cell_volume    712.261
_exptl_crystal_colour 'pink'
_exptl_crystal_density_diffrn 1.723
_exptl_crystal_description 'prism'
_diffrn_ambient_temperature 294
#These two values have been output from a single CSD field.
_refine_ls_R_factor_gt 0.042
_refine_ls_wR_factor_gt 0.042
_symmetry_cell_setting triclinic
_symmetry_space_group_name_H-M 'P -1'
_symmetry_Int_Tables_number 2
loop_
_symmetry_equiv_pos_site_id
_symmetry_equiv_pos_as_xyz
1 x,y,z
2 -x,-y,-z
_cell_length_a 7.6202(1)
_cell_length_b 9.9593(3)
_cell_length_c 10.1125(2)
_cell_angle_alpha 77.92(1)
_cell_angle_beta 85.65(1)
_cell_angle_gamma 71.65(2)
_cell_formula_units_Z 1
loop_
_atom_type_symbol
_atom_type_radius_bond
C 0.68
H 0.23
Br 1.21
Co 1.33
N 0.68
O 0.68
loop_
_atom_site_label
_atom_site_type_symbol
_atom_site_fract_x
_atom_site_fract_y
_atom_site_fract_z
Co1 Co 0.00000 0.00000 0.50000
Br1 Br 0.51245(9) 0.28767(7) 1.09652(7)
O1 O 0.1170(4) 0.0145(3) 0.6725(3)
O2 O -0.1297(4) 0.1515(4) 0.7667(3)
O3 O 0.4344(4) 0.3394(3) 0.4903(4)
O4 O 0.2740(4) -0.0730(3) 0.4218(3)
H1 H 0.241(7) -0.107(5) 0.349(4)
H2 H 0.357(5) -0.150(4) 0.473(4)
N1 N -0.0003(4) 0.2151(3) 0.4081(3)
N2 N 0.3329(6) 0.5588(4) 0.3608(5)
H3 H 0.261(5) 0.628(4) 0.304(4)
H4 H 0.423(5) 0.579(5) 0.391(5)
C1 C 0.0411(5) 0.0925(4) 0.7565(4)
C2 C 0.1624(5) 0.1255(4) 0.8464(4)
C3 C 0.3438(6) 0.1150(4) 0.8117(4)
H5 H 0.39590 0.07590 0.73670
C4 C 0.4502(6) 0.1617(5) 0.8863(4)
H6 H 0.57190 0.15580 0.86130
C5 C 0.3718(6) 0.2168(5) 0.9980(4)
C6 C 0.1944(7) 0.2219(6) 1.0394(5)
H7 H 0.14560 0.25480 1.11800
C7 C 0.0898(6) 0.1773(5) 0.9623(4)
H8 H -0.03130 0.18210 0.98850
C8 C 0.1419(5) 0.2577(4) 0.4292(4)
H9 H 0.23830 0.19260 0.48250
C9 C 0.1538(5) 0.3957(4) 0.3753(4)
C10 C 0.0106(6) 0.4892(4) 0.2960(5)
H10 H 0.01280 0.58210 0.25780
C11 C -0.1365(6) 0.4450(5) 0.2729(5)
H11 H -0.23370 0.50710 0.21850
C12 C -0.1373(5) 0.3087(4) 0.3312(4)
H12 H -0.23780 0.27990 0.31650
C13 C 0.3196(6) 0.4291(5) 0.4132(5)
Br1A Br -0.51245(9) -0.28767(7) -0.09652(7)
O1A O -0.1170(4) -0.0145(3) 0.3275(3)
O2A O 0.1297(4) -0.1515(4) 0.2333(3)
O3A O -0.4344(4) -0.3394(3) 0.5097(4)
O4A O -0.2740(4) 0.0730(3) 0.5782(3)
H1A H -0.241(7) 0.107(5) 0.651(4)
H2A H -0.357(5) 0.150(4) 0.527(4)
N1A N 0.0003(4) -0.2151(3) 0.5919(3)
N2A N -0.3329(6) -0.5588(4) 0.6392(5)
H3A H -0.261(5) -0.628(4) 0.696(4)
H4A H -0.423(5) -0.579(5) 0.609(5)
C1A C -0.0411(5) -0.0925(4) 0.2435(4)
C2A C -0.1624(5) -0.1255(4) 0.1536(4)
C3A C -0.3438(6) -0.1150(4) 0.1883(4)
H5A H -0.39590 -0.07590 0.26330
C4A C -0.4502(6) -0.1617(5) 0.1137(4)
H6A H -0.57190 -0.15580 0.13870
C5A C -0.3718(6) -0.2168(5) 0.0020(4)
C6A C -0.1944(7) -0.2219(6) -0.0394(5)
H7A H -0.14560 -0.25480 -0.11800
C7A C -0.0898(6) -0.1773(5) 0.0377(4)
H8A H 0.03130 -0.18210 0.01150
C8A C -0.1419(5) -0.2577(4) 0.5708(4)
H9A H -0.23830 -0.19260 0.51750
C9A C -0.1538(5) -0.3957(4) 0.6247(4)
C10A C -0.0106(6) -0.4892(4) 0.7040(5)
H10A H -0.01280 -0.58210 0.74220
C11A C 0.1365(6) -0.4450(5) 0.7271(5)
H11A H 0.23370 -0.50710 0.78150
C12A C 0.1373(5) -0.3087(4) 0.6688(4)
H12A H 0.23780 -0.27990 0.68350
C13A C -0.3196(6) -0.4291(5) 0.5868(5)
#END
