
#######################################################################
#
#                 Cambridge Crystallographic Data Centre
#                                CCDC
#
#######################################################################
#
# If this CIF has been generated from an entry in the Cambridge
# Structural Database, then it will include bibliographic, chemical,
# crystal, experimental, refinement or atomic coordinate data resulting
# from the CCDC's data processing and validation procedures.
#
#######################################################################

data_CSD_CIF_EFAKOO
_audit_creation_date 2017-10-16
_audit_creation_method CSD-ConQuest-V1
_database_code_CSD EFAKOO
_database_code_depnum_ccdc_archive 'CCDC 976156'
_chemical_formula_sum 'C12 H12 Cr1 O4'
_chemical_formula_moiety
;
C12 H12 Cr1 O4
;
_journal_coden_Cambridge 1078
_journal_year 2017
_journal_name_full 'CSD Communication(Private Communication) '
loop_
_publ_author_name
"N.Hsueh"
"A.B.Chaplin"
_chemical_name_systematic
;
Tricarbonyl-(\h^6^-2,6-dimethylphenyl methyl ether)-chromium
;
_chemical_name_common
;
Tricarbonyl-(2,6-dimethylanisole)-chromium
;
_cell_volume    597.623
_exptl_crystal_colour 'yellow'
_exptl_crystal_density_diffrn 1.513
_exptl_crystal_description 'block'
_exptl_crystal_preparation 'diethylether/hexane at 293 K'
_diffrn_ambient_temperature 150
#These two values have been output from a single CSD field.
_refine_ls_R_factor_gt 0.0307
_refine_ls_wR_factor_gt 0.0307
_symmetry_cell_setting triclinic
_symmetry_space_group_name_H-M 'P -1'
_symmetry_Int_Tables_number 2
loop_
_symmetry_equiv_pos_site_id
_symmetry_equiv_pos_as_xyz
1 x,y,z
2 -x,-y,-z
_cell_length_a 6.9431(2)
_cell_length_b 7.6245(3)
_cell_length_c 12.7779(4)
_cell_angle_alpha 79.515(3)
_cell_angle_beta 76.157(3)
_cell_angle_gamma 66.081(4)
_cell_formula_units_Z 2
loop_
_atom_type_symbol
_atom_type_radius_bond
C 0.68
H 0.23
Cr 1.39
O 0.68
loop_
_atom_site_label
_atom_site_type_symbol
_atom_site_fract_x
_atom_site_fract_y
_atom_site_fract_z
Cr1 Cr 0.11265(4) 0.69312(3) 0.30464(2)
O1 O -0.2780(2) 0.8837(2) 0.46562(12)
O2 O -0.0336(2) 0.36867(18) 0.32051(12)
O3 O -0.1215(2) 0.8845(2) 0.12094(11)
O4 O 0.49836(18) 0.59667(19) 0.09295(10)
C1 C 0.0241(2) 0.4936(2) 0.31443(13)
C2 C -0.1293(3) 0.8110(2) 0.40220(14)
C3 C -0.0326(2) 0.8103(2) 0.19214(14)
C4 C 0.2972(3) 0.7187(2) 0.41569(13)
H1 H 0.25130 0.74690 0.48910
C5 C 0.3811(3) 0.5276(2) 0.39117(14)
H2 H 0.39040 0.42700 0.44810
C6 C 0.4527(2) 0.4822(2) 0.28227(15)
C7 C 0.4373(2) 0.6342(2) 0.19989(13)
C8 C 0.2803(2) 0.8693(2) 0.33219(13)
H3 H 0.22350 0.99880 0.34970
C9 C 0.3466(2) 0.8303(2) 0.22313(13)
C10 C 0.7247(3) 0.5422(3) 0.05254(17)
H4 H 0.75810 0.50920 -0.02210
H5 H 0.80400 0.43030 0.09800
H6 H 0.76630 0.64990 0.05420
C11 C 0.3240(3) 0.9908(3) 0.13374(14)
H7 H 0.28300 0.95920 0.07350
H8 H 0.46100 1.00750 0.10870
H9 H 0.21330 1.11050 0.16060
C12 C 0.5466(3) 0.2754(2) 0.25731(19)
H10 H 0.47740 0.20110 0.31230
H11 H 0.70090 0.22180 0.25750
H12 H 0.52270 0.26870 0.18580
#END
