
#######################################################################
#
#                 Cambridge Crystallographic Data Centre
#                                CCDC
#
#######################################################################
#
# If this CIF has been generated from an entry in the Cambridge
# Structural Database, then it will include bibliographic, chemical,
# crystal, experimental, refinement or atomic coordinate data resulting
# from the CCDC's data processing and validation procedures.
#
#######################################################################

data_CSD_CIF_EFAMUU
_audit_creation_date 2008-11-20
_audit_creation_method CSD-ConQuest-V1
_database_code_CSD EFAMUU
_database_code_depnum_ccdc_archive 'CCDC 669240'
_chemical_formula_sum 'C16 H12 Fe1 N2 S4'
_chemical_formula_moiety
;
C16 H12 Fe1 N2 S4
;
_journal_coden_Cambridge 1220
_journal_volume 14
_journal_year 2008
_journal_page_first 4346
_journal_name_full 'Chem.-Eur.J. '
loop_
_publ_author_name
"T.Weidner"
"N.Ballav"
"M.Zharnikov"
"A.Priebe"
"N.J.Long"
"J.Maurer"
"R.Winter"
"A.Rothenberger"
"D.Fenske"
"D.Rother"
"C.Bruhn"
"H.Fink"
"U.Siemeling"
_chemical_name_systematic
;
1,1'-bis(Thiazol-2-ylthio)ferrocene
;
_cell_volume    422.582
_exptl_crystal_colour 'yellow'
_exptl_crystal_density_diffrn 1.636
_exptl_crystal_description 'plate'
_diffrn_ambient_temperature 133
#These two values have been output from a single CSD field.
_refine_ls_R_factor_gt 0.059
_refine_ls_wR_factor_gt 0.059
_symmetry_cell_setting triclinic
_symmetry_space_group_name_H-M 'P -1'
_symmetry_Int_Tables_number 2
loop_
_symmetry_equiv_pos_site_id
_symmetry_equiv_pos_as_xyz
1 x,y,z
2 -x,-y,-z
_cell_length_a 6.8474(12)
_cell_length_b 8.0194(16)
_cell_length_c 8.3936(16)
_cell_angle_alpha 110.715(14)
_cell_angle_beta 94.770(15)
_cell_angle_gamma 97.967(15)
_cell_formula_units_Z 1
loop_
_atom_type_symbol
_atom_type_radius_bond
C 0.68
H 0.23
Fe 1.34
N 0.68
S 1.02
loop_
_atom_site_label
_atom_site_type_symbol
_atom_site_fract_x
_atom_site_fract_y
_atom_site_fract_z
C1 C 0.1170(8) 0.2757(7) -0.1132(7)
C2 C 0.1938(7) 0.3556(7) 0.0674(6)
H1 H 0.17970 0.29930 0.14920
C3 C 0.2943(7) 0.5337(7) 0.1006(6)
H2 H 0.36000 0.61800 0.20930
C4 C 0.2805(7) 0.5657(7) -0.0565(6)
H3 H 0.33390 0.67500 -0.06980
C5 C 0.1727(7) 0.4051(6) -0.1902(6)
H4 H 0.14340 0.38740 -0.30830
C6 C 0.1359(8) -0.0769(7) -0.3007(6)
C7 C 0.2396(9) -0.3307(7) -0.4439(6)
H5 H 0.22630 -0.45630 -0.51060
C8 C 0.4227(9) -0.2164(7) -0.3924(7)
H6 H 0.54650 -0.25110 -0.42020
N1 N 0.0776(7) -0.2518(5) -0.3929(5)
S1 S -0.0384(2) 0.06117(17) -0.21990(19)
S2 S 0.3912(2) 0.00001(18) -0.26939(19)
Fe1 Fe 0.00000 0.50000 0.00000
C1A C -0.1170(8) 0.7243(7) 0.1132(7)
C2A C -0.1938(7) 0.6444(7) -0.0674(6)
H1A H -0.17970 0.70070 -0.14920
C3A C -0.2943(7) 0.4663(7) -0.1006(6)
H2A H -0.36000 0.38200 -0.20930
C4A C -0.2805(7) 0.4343(7) 0.0565(6)
H3A H -0.33390 0.32500 0.06980
C5A C -0.1727(7) 0.5949(6) 0.1902(6)
H4A H -0.14340 0.61260 0.30830
C6A C -0.1359(8) 1.0769(7) 0.3007(6)
C7A C -0.2396(9) 1.3307(7) 0.4439(6)
H5A H -0.22630 1.45630 0.51060
C8A C -0.4227(9) 1.2164(7) 0.3924(7)
H6A H -0.54650 1.25110 0.42020
N1A N -0.0776(7) 1.2518(5) 0.3929(5)
S1A S 0.0384(2) 0.93883(17) 0.21990(19)
S2A S -0.3912(2) 0.99999(18) 0.26939(19)
#END
