
#######################################################################
#
#                 Cambridge Crystallographic Data Centre
#                                CCDC
#
#######################################################################
#
# If this CIF has been generated from an entry in the Cambridge
# Structural Database, then it will include bibliographic, chemical,
# crystal, experimental, refinement or atomic coordinate data resulting
# from the CCDC's data processing and validation procedures.
#
#######################################################################

data_CSD_CIF_EGIYUO
_audit_creation_date 2002-12-11
_audit_creation_method CSD-ConQuest-V1
_database_code_CSD EGIYUO
_database_code_depnum_ccdc_archive 'CCDC 195328'
_chemical_formula_sum 'C13 H14 Cr1 O4'
_chemical_formula_moiety
;
C13 H14 Cr1 O4
;
_journal_coden_Cambridge 579
_journal_volume 21
_journal_year 2002
_journal_page_first 3848
_journal_name_full 'Organometallics '
loop_
_publ_author_name
"Hechun Lin"
"Li Yang"
"Chaozhong Li"
_chemical_name_systematic
;
(\h^6^-1-(1-Hydroxy-1-methylethyl)-3-methylbenzene)-tricarbonyl-chromium
;
_chemical_melting_point 330.15
_cell_volume    639.464
_exptl_crystal_colour 'colorless'
_exptl_crystal_density_diffrn 1.487
_exptl_special_details
;
Melting point range 330.15-331.15K

;
_diffrn_ambient_temperature 293
#These two values have been output from a single CSD field.
_refine_ls_R_factor_gt 0.0585
_refine_ls_wR_factor_gt 0.0585
_symmetry_cell_setting triclinic
_symmetry_space_group_name_H-M 'P -1'
_symmetry_Int_Tables_number 2
loop_
_symmetry_equiv_pos_site_id
_symmetry_equiv_pos_as_xyz
1 x,y,z
2 -x,-y,-z
_cell_length_a 8.6006(10)
_cell_length_b 8.6323(10)
_cell_length_c 9.5853(11)
_cell_angle_alpha 98.277(2)
_cell_angle_beta 95.690(2)
_cell_angle_gamma 112.860(2)
_cell_formula_units_Z 2
loop_
_atom_type_symbol
_atom_type_radius_bond
C 0.68
H 0.23
Cr 1.35
O 0.68
loop_
_atom_site_label
_atom_site_type_symbol
_atom_site_fract_x
_atom_site_fract_y
_atom_site_fract_z
Cr1 Cr 0.37008(9) 0.79842(8) 0.19416(7)
O1 O 0.1256(5) 0.8960(5) 0.0236(4)
O2 O 0.2113(6) 0.8746(5) 0.4426(4)
O3 O 0.6103(5) 1.1682(4) 0.2660(4)
O4 O 0.2901(5) 0.5080(5) 0.4818(4)
C1 C 0.2208(6) 0.8583(5) 0.0892(5)
C2 C 0.2736(7) 0.8434(6) 0.3480(5)
C3 C 0.5188(6) 1.0248(6) 0.2379(5)
C4 C 0.3181(5) 0.5365(5) 0.2354(5)
C5 C 0.4933(6) 0.6412(5) 0.2833(5)
C6 C 0.5978(6) 0.7320(6) 0.1927(5)
C7 C 0.5223(7) 0.7175(6) 0.0512(5)
C8 C 0.3522(7) 0.6131(6) 0.0026(5)
C9 C 0.2485(6) 0.5218(5) 0.0940(5)
C10 C 0.2135(6) 0.4311(5) 0.3359(5)
C11 C 0.2281(9) 0.2596(7) 0.3123(7)
C12 C 0.0288(7) 0.4044(8) 0.3118(7)
C13 C 0.7851(7) 0.8386(9) 0.2464(9)
H1 H 0.538(6) 0.646(5) 0.378(5)
H2 H 0.138(5) 0.452(5) 0.062(4)
H3 H 0.580(6) 0.776(6) -0.007(5)
H4 H 0.297(6) 0.604(6) -0.091(5)
H5 H 0.024(6) 0.496(6) 0.322(5)
H6 H -0.019(6) 0.338(6) 0.220(5)
H7 H -0.039(8) 0.323(8) 0.365(6)
H8 H 0.81(1) 0.872(10) 0.334(9)
H9 H 0.843(9) 0.779(9) 0.217(7)
H10 H 0.168(8) 0.197(7) 0.382(6)
H11 H 0.336(6) 0.273(6) 0.325(5)
H12 H 0.274(8) 0.587(7) 0.497(7)
H13 H 0.187(6) 0.205(6) 0.220(5)
H14 H 0.828(10) 0.944(11) 0.206(8)
#END
