
#######################################################################
#
#                 Cambridge Crystallographic Data Centre
#                                CCDC
#
#######################################################################
#
# If this CIF has been generated from an entry in the Cambridge
# Structural Database, then it will include bibliographic, chemical,
# crystal, experimental, refinement or atomic coordinate data resulting
# from the CCDC's data processing and validation procedures.
#
#######################################################################

data_CSD_CIF_EGIZAV
_audit_creation_date 2002-12-11
_audit_creation_method CSD-ConQuest-V1
_database_code_CSD EGIZAV
_database_code_depnum_ccdc_archive 'CCDC 195329'
_chemical_formula_sum 'C13 H14 Cr1 O4'
_chemical_formula_moiety
;
C13 H14 Cr1 O4
;
_journal_coden_Cambridge 579
_journal_volume 21
_journal_year 2002
_journal_page_first 3848
_journal_name_full 'Organometallics '
loop_
_publ_author_name
"Hechun Lin"
"Li Yang"
"Chaozhong Li"
_chemical_name_systematic
;
(\h^6^-1-(1-Hydroxy-1-methylethyl)-4-methylbenzene)-tricarbonyl-chromium
;
_chemical_melting_point 353.15
_cell_volume    645.718
_exptl_crystal_colour 'yellow'
_exptl_crystal_density_diffrn 1.472
_exptl_special_details
;
Melting point range 353.15-354.15K

;
_diffrn_ambient_temperature 293
#These two values have been output from a single CSD field.
_refine_ls_R_factor_gt 0.0417
_refine_ls_wR_factor_gt 0.0417
_symmetry_cell_setting triclinic
_symmetry_space_group_name_H-M 'P -1'
_symmetry_Int_Tables_number 2
loop_
_symmetry_equiv_pos_site_id
_symmetry_equiv_pos_as_xyz
1 x,y,z
2 -x,-y,-z
_cell_length_a 6.6390(8)
_cell_length_b 9.9448(12)
_cell_length_c 9.9474(12)
_cell_angle_alpha 100.175(2)
_cell_angle_beta 92.517(2)
_cell_angle_gamma 90.505(2)
_cell_formula_units_Z 2
loop_
_atom_type_symbol
_atom_type_radius_bond
C 0.68
H 0.23
Cr 1.35
O 0.68
loop_
_atom_site_label
_atom_site_type_symbol
_atom_site_fract_x
_atom_site_fract_y
_atom_site_fract_z
Cr1 Cr 0.50703(6) 0.25195(4) 0.31852(4)
O1 O 0.2732(4) 0.4921(2) 0.2622(3)
O2 O 0.1754(3) 0.0714(2) 0.1735(3)
O3 O 0.2965(4) 0.2745(3) 0.5813(3)
O4 O 0.6971(4) 0.4560(2) 0.0526(2)
C1 C 0.3657(4) 0.3999(3) 0.2837(3)
C2 C 0.3028(4) 0.1420(3) 0.2313(3)
C3 C 0.3792(5) 0.2653(3) 0.4789(3)
C4 C 0.7420(4) 0.2658(3) 0.1663(3)
C5 C 0.7139(4) 0.1292(3) 0.1790(3)
C6 C 0.7318(4) 0.0863(3) 0.3068(3)
C7 C 0.7782(4) 0.1803(3) 0.4256(3)
C8 C 0.8087(4) 0.3178(3) 0.4142(3)
C9 C 0.7903(4) 0.3601(3) 0.2875(3)
C10 C 0.7321(4) 0.3118(3) 0.0276(3)
C11 C 0.9333(5) 0.2843(4) -0.0358(3)
C12 C 0.5592(5) 0.2419(4) -0.0665(3)
C13 C 0.7980(6) 0.1350(5) 0.5633(4)
H1 H 0.694(4) 0.067(3) 0.103(3)
H2 H 0.708(4) -0.0018(19) 0.311(3)
H3 H 0.841(5) 0.383(3) 0.489(3)
H4 H 0.816(5) 0.450(2) 0.282(3)
H5 H 0.962(4) 0.195(3) -0.051(3)
H6 H 1.028(5) 0.342(3) 0.028(3)
H7 H 0.928(5) 0.321(3) -0.117(2)
H8 H 0.594(5) 0.150(4) -0.094(3)
H9 H 0.441(5) 0.256(3) -0.015(3)
H10 H 0.567(5) 0.278(3) -0.150(4)
H11 H 0.698(6) 0.066(4) 0.570(5)
H12 H 0.714(8) 0.200(6) 0.630(5)
H13 H 0.949(3) 0.127(5) 0.576(4)
H14 H 0.715(8) 0.479(5) -0.026(3)
#END
