
#######################################################################
#
#                 Cambridge Crystallographic Data Centre
#                                CCDC
#
#######################################################################
#
# If this CIF has been generated from an entry in the Cambridge
# Structural Database, then it will include bibliographic, chemical,
# crystal, experimental, refinement or atomic coordinate data resulting
# from the CCDC's data processing and validation procedures.
#
#######################################################################

data_CSD_CIF_EGUKUP
_audit_creation_date 2019-05-17
_audit_creation_method CSD-ConQuest-V1
_database_code_CSD EGUKUP
_database_code_depnum_ccdc_archive 'CCDC 1858545'
_chemical_formula_sum 'C12 H16 Cl2 Co1 N2 O1'
_chemical_formula_moiety
;
C12 H16 Cl2 Co1 N2 O1
;
_journal_coden_Cambridge 1078
_journal_year 2019
_journal_name_full 'CSD Communication(Private Communication) '
loop_
_publ_author_name
"huananwen"
_chemical_name_systematic
;
dichloro-{2-methyl-6-[4-(propan-2-yl)-4,5-dihydro-1,3-oxazol-2-yl]pyridine}-co
balt(ii)
;
_cell_volume    717.084
_exptl_crystal_colour 'blue'
_exptl_crystal_density_diffrn 1.543
_exptl_special_details
;
Absolute configuration

;
_exptl_crystal_description 'block'
_diffrn_ambient_temperature 170.0
#These two values have been output from a single CSD field.
_refine_ls_R_factor_gt 0.0369
_refine_ls_wR_factor_gt 0.0369
_symmetry_cell_setting triclinic
_symmetry_space_group_name_H-M 'P 1'
_symmetry_Int_Tables_number 1
loop_
_symmetry_equiv_pos_site_id
_symmetry_equiv_pos_as_xyz
1 x,y,z
_cell_length_a 8.5586(2)
_cell_length_b 8.9303(2)
_cell_length_c 9.6822(2)
_cell_angle_alpha 76.723(1)
_cell_angle_beta 86.703(1)
_cell_angle_gamma 85.126(1)
_cell_formula_units_Z 2
loop_
_atom_type_symbol
_atom_type_radius_bond
C 0.68
H 0.23
Cl 0.99
Co 1.26
N 0.68
O 0.68
loop_
_atom_site_label
_atom_site_type_symbol
_atom_site_fract_x
_atom_site_fract_y
_atom_site_fract_z
Co1 Co 0.66737(7) 0.68885(7) 0.78374(7)
Cl1 Cl 0.78471(17) 0.65474(17) 0.98722(15)
Cl2 Cl 0.76636(17) 0.86002(15) 0.59950(15)
O1 O 0.2354(5) 0.5772(5) 0.7209(5)
N1 N 0.4311(6) 0.6837(5) 0.7983(5)
N2 N 0.6498(5) 0.4901(6) 0.7084(5)
C1 C 0.9301(7) 0.4243(7) 0.6869(7)
H1 H 0.94124 0.53331 0.64270
H2 H 1.00096 0.35984 0.63762
H3 H 0.95668 0.40373 0.78700
C2 C 0.7639(7) 0.3874(7) 0.6770(6)
C3 C 0.7251(8) 0.2549(7) 0.6368(6)
H4 H 0.80575 0.18243 0.61623
C4 C 0.5710(8) 0.2297(7) 0.6271(6)
H5 H 0.54444 0.13889 0.60127
C5 C 0.4534(8) 0.3374(7) 0.6551(6)
H6 H 0.34584 0.32435 0.64577
C6 C 0.4990(7) 0.4619(7) 0.6964(6)
C7 C 0.3872(6) 0.5806(7) 0.7399(6)
C8 C 0.1603(8) 0.7147(9) 0.7651(9)
H7 H 0.06454 0.68899 0.82533
H8 H 0.13199 0.79772 0.68151
C9 C 0.2855(6) 0.7633(6) 0.8492(6)
H9 H 0.26617 0.71591 0.95221
C10 C 0.2912(7) 0.9362(7) 0.8321(7)
H10 H 0.32001 0.98280 0.73070
C11 C 0.4146(8) 0.9703(7) 0.9250(7)
H11 H 0.41666 1.08217 0.91262
H12 H 0.51776 0.92712 0.89766
H13 H 0.38905 0.92360 1.02476
C12 C 0.1311(9) 1.0060(9) 0.868(1)
H14 H 0.09448 0.95099 0.96229
H15 H 0.05704 0.99723 0.79721
H16 H 0.13796 1.11507 0.86771
Co2 Co 0.32362(7) 0.33379(7) 0.25932(7)
Cl3 Cl 0.21231(15) 0.17411(14) 0.44494(15)
Cl4 Cl 0.22344(19) 0.35305(19) 0.04943(17)
O2 O 0.7571(5) 0.4490(5) 0.3176(5)
N3 N 0.5592(6) 0.3225(5) 0.2715(5)
N4 N 0.3441(6) 0.5500(5) 0.3035(5)
C13 C 0.0668(7) 0.6249(8) 0.3055(9)
H17 H 0.04918 0.63369 0.20477
H18 H -0.00500 0.69974 0.34164
H19 H 0.04774 0.52033 0.35903
C14 C 0.2327(7) 0.6566(7) 0.3226(7)
C15 C 0.2692(8) 0.7932(7) 0.3587(7)
H20 H 0.18843 0.86957 0.37071
C16 C 0.4240(8) 0.8147(7) 0.3765(8)
H21 H 0.44992 0.90440 0.40462
C17 C 0.5414(7) 0.7056(7) 0.3536(7)
H22 H 0.64868 0.71990 0.36281
C18 C 0.4970(7) 0.5743(6) 0.3165(6)
C19 C 0.6068(7) 0.4452(7) 0.2979(6)
C20 C 0.8339(7) 0.3101(7) 0.2782(7)
H23 H 0.91191 0.25750 0.34828
H24 H 0.88664 0.33602 0.18290
C21 C 0.6955(6) 0.2087(6) 0.2788(6)
H25 H 0.68993 0.13345 0.37271
C22 C 0.7041(7) 0.1192(7) 0.1619(6)
H26 H 0.60784 0.06065 0.17350
C23 C 0.8449(9) 0.0010(8) 0.1832(8)
H27 H 0.94187 0.05458 0.16652
H28 H 0.84260 -0.06584 0.11608
H29 H 0.84074 -0.06162 0.28052
C24 C 0.7064(8) 0.2211(7) 0.0121(6)
H30 H 0.70605 0.15655 -0.05720
H31 H 0.80117 0.27807 -0.00399
H32 H 0.61339 0.29419 0.00116
#END
