
#######################################################################
#
#                 Cambridge Crystallographic Data Centre
#                                CCDC
#
#######################################################################
#
# If this CIF has been generated from an entry in the Cambridge
# Structural Database, then it will include bibliographic, chemical,
# crystal, experimental, refinement or atomic coordinate data resulting
# from the CCDC's data processing and validation procedures.
#
#######################################################################

data_CSD_CIF_EGUNOK
_audit_creation_date 2009-04-10
_audit_creation_method CSD-ConQuest-V1
_database_code_CSD EGUNOK
_database_code_depnum_ccdc_archive 'CCDC 711141'
_chemical_formula_sum 'C24 H26 Cr1'
_chemical_formula_moiety
;
C24 H26 Cr1
;
_journal_coden_Cambridge 579
_journal_volume 27
_journal_year 2008
_journal_page_first 5464
_journal_name_full 'Organometallics '
loop_
_publ_author_name
"M.B.Meredith"
"J.A.Crisp"
"E.D.Brady"
"T.P.Hanusa"
"G.T.Yee"
"M.Pink"
"W.W.Brennessel"
"V.G.Young Junior"
_chemical_name_systematic
;
bis(\h^5^-1,2,3-Trimethylindenyl)-chromium(ii)
;
_cell_volume    478.937
_exptl_crystal_colour 'purple'
_exptl_crystal_density_diffrn 1.271
_exptl_special_details
;
magnetic properties

;
_exptl_crystal_description 'needle'
_exptl_crystal_preparation 'hexanes'
_diffrn_ambient_temperature 173
_diffrn_special_details
;
twin

;
#These two values have been output from a single CSD field.
_refine_ls_R_factor_gt 0.06
_refine_ls_wR_factor_gt 0.06
_symmetry_cell_setting triclinic
_symmetry_space_group_name_H-M 'P -1'
_symmetry_Int_Tables_number 2
loop_
_symmetry_equiv_pos_site_id
_symmetry_equiv_pos_as_xyz
1 x,y,z
2 -x,-y,-z
_cell_length_a 7.372(4)
_cell_length_b 8.565(5)
_cell_length_c 8.586(5)
_cell_angle_alpha 69.977(8)
_cell_angle_beta 74.027(8)
_cell_angle_gamma 73.589(9)
_cell_formula_units_Z 1
loop_
_atom_type_symbol
_atom_type_radius_bond
C 0.68
H 0.23
Cr 1.35
loop_
_atom_site_label
_atom_site_type_symbol
_atom_site_fract_x
_atom_site_fract_y
_atom_site_fract_z
Cr1 Cr 0.50000 0.50000 0.50000
C1 C 0.2912(6) 0.4403(7) 0.3985(6)
C2 C 0.2283(8) 0.6154(7) 0.4026(7)
C3 C 0.1940(7) 0.6172(5) 0.5700(6)
C4 C 0.2161(7) 0.4447(6) 0.6757(6)
C5 C 0.2032(7) 0.3722(7) 0.8525(6)
H1 H 0.16520 0.44290 0.92530
C6 C 0.2463(8) 0.1979(7) 0.9178(6)
H2 H 0.23690 0.14940 1.03640
C7 C 0.3029(9) 0.0919(7) 0.8147(7)
H3 H 0.32900 -0.02770 0.86450
C8 C 0.3223(8) 0.1551(6) 0.6421(7)
H4 H 0.36450 0.08090 0.57260
C9 C 0.2774(7) 0.3363(6) 0.5691(6)
C10 C 0.3429(11) 0.3797(10) 0.2454(7)
H5 H 0.22490 0.38610 0.20990
H6 H 0.41500 0.26180 0.27190
H7 H 0.42270 0.45140 0.15390
C11 C 0.2115(10) 0.7658(9) 0.2485(9)
H8 H 0.07840 0.79950 0.23100
H9 H 0.29850 0.73530 0.14950
H10 H 0.24650 0.86060 0.26460
C12 C 0.1249(9) 0.7752(7) 0.6321(9)
H11 H -0.01150 0.82230 0.62630
H12 H 0.20140 0.86020 0.56070
H13 H 0.14030 0.74450 0.74940
C1A C 0.7088(6) 0.5597(7) 0.6015(6)
C2A C 0.7717(8) 0.3846(7) 0.5974(7)
C3A C 0.8060(7) 0.3828(5) 0.4300(6)
C4A C 0.7839(7) 0.5553(6) 0.3243(6)
C5A C 0.7968(7) 0.6278(7) 0.1475(6)
H1A H 0.83480 0.55710 0.07470
C6A C 0.7537(8) 0.8021(7) 0.0822(6)
H2A H 0.76310 0.85060 -0.03640
C7A C 0.6971(9) 0.9081(7) 0.1853(7)
H3A H 0.67100 1.02770 0.13550
C8A C 0.6777(8) 0.8449(6) 0.3579(7)
H4A H 0.63550 0.91910 0.42740
C9A C 0.7226(7) 0.6637(6) 0.4309(6)
C10A C 0.6571(11) 0.6203(10) 0.7546(7)
H5A H 0.77510 0.61390 0.79010
H6A H 0.58500 0.73820 0.72810
H7A H 0.57730 0.54860 0.84610
C11A C 0.7885(10) 0.2342(9) 0.7515(9)
H8A H 0.92160 0.20050 0.76900
H9A H 0.70150 0.26470 0.85050
H10A H 0.75350 0.13940 0.73540
C12A C 0.8751(9) 0.2248(7) 0.3679(9)
H11A H 1.01150 0.17770 0.37370
H12A H 0.79860 0.13980 0.43930
H13A H 0.85970 0.25550 0.25060
#END
