
#######################################################################
#
#                 Cambridge Crystallographic Data Centre
#                                CCDC
#
#######################################################################
#
# If this CIF has been generated from an entry in the Cambridge
# Structural Database, then it will include bibliographic, chemical,
# crystal, experimental, refinement or atomic coordinate data resulting
# from the CCDC's data processing and validation procedures.
#
#######################################################################

data_CSD_CIF_EHABAQ
_audit_creation_date 2002-12-11
_audit_creation_method CSD-ConQuest-V1
_database_code_CSD EHABAQ
_database_code_depnum_ccdc_archive 'CCDC 173562'
_chemical_formula_sum 'C24 H38 B2 F8 Fe1 O2 P2 S4'
_chemical_formula_moiety
;
C24 H34 Fe1 P2 S4 2+,2(B1 F4 1-),2(H2 O1)
;
_journal_coden_Cambridge 1295
_journal_volume 5
_journal_year 2002
_journal_page_first 832
_journal_name_full 'Inorg.Chem.Commun. '
loop_
_publ_author_name
"F.E.Sowrey"
"P.J.Blower"
"J.C.Jeffery"
"E.J.MacLean"
"M.J.Went"
_chemical_name_systematic
;
bis(7-Phenyl-1,4-dithia-7-phosphacyclononane)-iron(ii) bis(tetrafluoroborate) 
dihydrate
;
_cell_volume    768.915
_exptl_crystal_colour 'orange'
_exptl_crystal_density_diffrn 1.681
_exptl_crystal_description 'plate'
_exptl_crystal_preparation 'acetonitrile'
_diffrn_ambient_temperature 150
_diffrn_radiation_probe x-ray
_diffrn_source synchrotron
#These two values have been output from a single CSD field.
_refine_ls_R_factor_gt 0.0503
_refine_ls_wR_factor_gt 0.0503
_symmetry_cell_setting triclinic
_symmetry_space_group_name_H-M 'P -1'
_symmetry_Int_Tables_number 2
loop_
_symmetry_equiv_pos_site_id
_symmetry_equiv_pos_as_xyz
1 x,y,z
2 -x,-y,-z
_cell_length_a 8.5574(12)
_cell_length_b 9.9105(14)
_cell_length_c 10.7513(15)
_cell_angle_alpha 104.837(3)
_cell_angle_beta 112.378(3)
_cell_angle_gamma 101.472(3)
_cell_formula_units_Z 1
loop_
_atom_type_symbol
_atom_type_radius_bond
C 0.68
H 0.23
B 0.83
F 0.64
Fe 1.34
O 0.68
P 1.05
S 1.02
loop_
_atom_site_label
_atom_site_type_symbol
_atom_site_fract_x
_atom_site_fract_y
_atom_site_fract_z
Fe1 Fe 0.50000 0.50000 0.50000
P1 P 0.54622(9) 0.73237(7) 0.51014(7)
C1 C 0.7716(4) 0.8076(3) 0.5274(3)
H1 H 0.76300 0.80050 0.43320
H2 H 0.82450 0.91130 0.58990
C2 C 0.8907(4) 0.7215(3) 0.5907(3)
H3 H 0.93220 0.75520 0.69440
H4 H 0.99480 0.74170 0.57360
S1 S 0.77170(8) 0.52257(7) 0.51111(7)
C3 C 0.7424(4) 0.4867(3) 0.3264(3)
H5 H 0.76630 0.57980 0.31190
H6 H 0.82830 0.44130 0.31330
C4 C 0.5562(4) 0.3868(3) 0.2154(3)
H7 H 0.54660 0.28550 0.20780
H8 H 0.53620 0.39250 0.12210
S2 S 0.38242(9) 0.43356(7) 0.25826(7)
C5 C 0.3891(4) 0.6038(3) 0.2163(3)
H9 H 0.49690 0.63810 0.20680
H10 H 0.28660 0.58250 0.12510
C6 C 0.3866(4) 0.7235(3) 0.3353(3)
H11 H 0.26730 0.70140 0.32840
H12 H 0.41820 0.81820 0.32510
C7 C 0.5263(4) 0.8716(3) 0.6433(3)
C8 C 0.6716(4) 0.9487(3) 0.7801(3)
H13 H 0.78210 0.93620 0.79860
C9 C 0.6523(5) 1.0440(3) 0.8888(3)
H14 H 0.74940 1.09450 0.98000
C10 C 0.4886(5) 1.0637(3) 0.8613(3)
H15 H 0.47620 1.12810 0.93410
C11 C 0.3439(4) 0.9888(3) 0.7268(3)
H16 H 0.23420 1.00240 0.70930
C12 C 0.3613(4) 0.8929(3) 0.6172(3)
H17 H 0.26330 0.84270 0.52640
B1 B 0.1037(5) 0.2368(4) 0.8358(4)
F1 F 0.2793(2) 0.3239(2) 0.8847(2)
F2 F 0.0185(3) 0.3219(3) 0.8920(2)
F3 F 0.0166(3) 0.1886(2) 0.6865(2)
F4 F 0.1017(3) 0.1177(3) 0.8792(3)
O1 O -0.0562(5) 0.3929(4) 1.1308(4)
P1A P 0.45378(9) 0.26763(7) 0.48986(7)
C1A C 0.2284(4) 0.1924(3) 0.4726(3)
H1A H 0.23700 0.19950 0.56680
H2A H 0.17550 0.08870 0.41010
C2A C 0.1093(4) 0.2785(3) 0.4093(3)
H3A H 0.06780 0.24480 0.30560
H4A H 0.00520 0.25830 0.42640
S1A S 0.22830(8) 0.47743(7) 0.48889(7)
S2A S 0.61758(9) 0.56644(7) 0.74174(7)
C4A C 0.4438(4) 0.6132(3) 0.7846(3)
C3A C 0.2576(4) 0.5133(3) 0.6736(3)
H5A H 0.23370 0.42020 0.68810
H6A H 0.17170 0.55870 0.68670
H7A H 0.45340 0.71450 0.79220
H8A H 0.46380 0.60750 0.87790
C5A C 0.6109(4) 0.3962(3) 0.7837(3)
H9A H 0.50310 0.36190 0.79320
H10A H 0.71340 0.41750 0.87490
C6A C 0.6134(4) 0.2765(3) 0.6647(3)
C7A C 0.4737(4) 0.1284(3) 0.3567(3)
C8A C 0.3284(4) 0.0513(3) 0.2199(3)
H13A H 0.21790 0.06380 0.20140
C9A C 0.3477(5) -0.0440(3) 0.1112(3)
H14A H 0.25060 -0.09450 0.02000
C10A C 0.5114(5) -0.0637(3) 0.1387(3)
H15A H 0.52380 -0.12810 0.06590
C11A C 0.6561(4) 0.0112(3) 0.2732(3)
H16A H 0.76580 -0.00240 0.29070
C12A C 0.6387(4) 0.1071(3) 0.3828(3)
H17A H 0.73670 0.15730 0.47360
H11A H 0.73270 0.29860 0.67160
H12A H 0.58180 0.18180 0.67490
#END
