
#######################################################################
#
#                 Cambridge Crystallographic Data Centre
#                                CCDC
#
#######################################################################
#
# If this CIF has been generated from an entry in the Cambridge
# Structural Database, then it will include bibliographic, chemical,
# crystal, experimental, refinement or atomic coordinate data resulting
# from the CCDC's data processing and validation procedures.
#
#######################################################################

data_CSD_CIF_EHAWOZ
_audit_creation_date 2002-12-11
_audit_creation_method CSD-ConQuest-V1
_database_code_CSD EHAWOZ
_database_code_depnum_ccdc_archive 'CCDC 186396'
_chemical_formula_sum 'C12 H14 Mn1 N4 O6'
_chemical_formula_moiety
;
C12 H14 Mn1 N4 O6
;
_journal_coden_Cambridge 971
_journal_volume 4
_journal_year 2002
_journal_page_first 1187
_journal_name_full 'Solid State Sciences '
loop_
_publ_author_name
"C.T.Chapman"
"D.M.Ciurtin"
"M.D.Smith"
"H.-C.zur Loye"
_chemical_name_systematic
;
Diaqua-bis(2-methylpyrazine-5-carboxylato)-manganese(ii)
;
_cell_volume    727.769
_exptl_crystal_colour 'yellow'
_exptl_crystal_density_diffrn 1.667
_exptl_crystal_description 'block'
_diffrn_ambient_temperature 173
#These two values have been output from a single CSD field.
_refine_ls_R_factor_gt 0.0391
_refine_ls_wR_factor_gt 0.0391
_symmetry_cell_setting triclinic
_symmetry_space_group_name_H-M 'P -1'
_symmetry_Int_Tables_number 2
loop_
_symmetry_equiv_pos_site_id
_symmetry_equiv_pos_as_xyz
1 x,y,z
2 -x,-y,-z
_cell_length_a 7.2042(6)
_cell_length_b 7.4067(6)
_cell_length_c 13.9982(12)
_cell_angle_alpha 87.205(2)
_cell_angle_beta 81.162(2)
_cell_angle_gamma 80.517(2)
_cell_formula_units_Z 2
loop_
_atom_type_symbol
_atom_type_radius_bond
C 0.68
H 0.23
Mn 1.35
N 0.68
O 0.68
loop_
_atom_site_label
_atom_site_type_symbol
_atom_site_fract_x
_atom_site_fract_y
_atom_site_fract_z
Mn1 Mn 0.61246(6) 0.68099(5) 0.73923(3)
C1 C 0.7104(4) 0.5037(3) 0.53907(19)
C2 C 0.7849(4) 0.4640(3) 0.44387(19)
H1 H 0.78910 0.34350 0.42230
C3 C 0.8363(4) 0.7584(3) 0.4123(2)
C4 C 0.7566(4) 0.8004(3) 0.50790(19)
H2 H 0.74410 0.92300 0.52800
C5 C 0.6475(4) 0.3610(3) 0.6127(2)
C6 C 0.9083(5) 0.9020(4) 0.3440(2)
H3 H 0.99430 0.84300 0.28930
H4 H 0.97700 0.97650 0.37780
H5 H 0.80060 0.98040 0.32040
C7 C 0.3606(4) 0.7694(3) 0.93330(19)
C8 C 0.3019(4) 0.8409(3) 1.02498(19)
H6 H 0.17320 0.89630 1.04230
C9 C 0.6016(4) 0.7475(3) 1.0641(2)
C10 C 0.6592(4) 0.6790(3) 0.97141(19)
H7 H 0.78680 0.61990 0.95460
C11 C 0.2286(4) 0.7740(3) 0.8582(2)
C12 C 0.7376(4) 0.7310(4) 1.1361(2)
H8 H 0.75380 0.85350 1.15350
H9 H 0.86100 0.66360 1.10780
H10 H 0.68720 0.66510 1.19420
N1 N 0.6973(3) 0.6743(3) 0.57183(15)
N2 N 0.8511(3) 0.5884(3) 0.38104(16)
N3 N 0.5420(3) 0.6935(3) 0.90559(16)
N4 N 0.4229(4) 0.8334(3) 1.08966(16)
O1 O 0.6110(3) 0.4076(2) 0.69972(13)
O2 O 0.6415(3) 0.2073(2) 0.58180(14)
O3 O 0.3072(3) 0.7298(2) 0.77355(13)
O4 O 0.0545(3) 0.8168(3) 0.88470(14)
O5 O 0.9019(3) 0.6133(3) 0.76603(15)
H11 H 0.987(4) 0.539(4) 0.736(2)
H12 H 0.959(5) 0.685(4) 0.792(3)
O6 O 0.6263(3) 0.9696(3) 0.73511(15)
H13 H 0.626(5) 1.048(3) 0.6883(17)
H14 H 0.625(5) 1.029(4) 0.7842(18)
#END
