
#######################################################################
#
#                 Cambridge Crystallographic Data Centre
#                                CCDC
#
#######################################################################
#
# If this CIF has been generated from an entry in the Cambridge
# Structural Database, then it will include bibliographic, chemical,
# crystal, experimental, refinement or atomic coordinate data resulting
# from the CCDC's data processing and validation procedures.
#
#######################################################################

data_CSD_CIF_EHIBEC
_audit_creation_date 2003-09-30
_audit_creation_method CSD-ConQuest-V1
_database_code_CSD EHIBEC
_database_code_depnum_ccdc_archive 'CCDC 189255'
_chemical_formula_sum 'C8 H18 Mn1 O8'
_chemical_formula_moiety
;
C8 H18 Mn1 O8
;
_journal_coden_Cambridge 580
_journal_volume 22
_journal_year 2003
_journal_page_first 1051
_journal_name_full 'Polyhedron '
loop_
_publ_author_name
"R.Carballo"
"B.Covelo"
"E.Garcia-Martinez"
"E.M.Vazquez-Lopez"
"A.Castineiras"
"J.Niclos"
_chemical_name_systematic
;
Diaqua-bis(2-methyl lactato-O,O')-manganese(ii)
;
_chemical_melting_point 523.15
_cell_volume   1260.778
_exptl_crystal_colour 'white'
_exptl_crystal_density_diffrn 1.566
_exptl_special_details
;
Melts above 523.15K

;
_exptl_crystal_description 'block'
_exptl_crystal_preparation 'water'
_diffrn_ambient_temperature 298
#These two values have been output from a single CSD field.
_refine_ls_R_factor_gt 0.035
_refine_ls_wR_factor_gt 0.035
_symmetry_cell_setting monoclinic
_symmetry_space_group_name_H-M 'C 2/c'
_symmetry_Int_Tables_number 15
loop_
_symmetry_equiv_pos_site_id
_symmetry_equiv_pos_as_xyz
1 x,y,z
2 1/2+x,1/2+y,z
3 x,-y,1/2+z
4 1/2+x,1/2-y,1/2+z
5 -x,-y,-z
6 -1/2-x,-1/2-y,-z
7 -x,y,-1/2-z
8 -1/2-x,-1/2+y,-1/2-z
_cell_length_a 10.2316(10)
_cell_length_b 5.7454(5)
_cell_length_c 21.884(2)
_cell_angle_alpha 90
_cell_angle_beta 101.464(2)
_cell_angle_gamma 90
_cell_formula_units_Z 4
loop_
_atom_type_symbol
_atom_type_radius_bond
C 0.68
H 0.23
Mn 1.35
O 0.68
loop_
_atom_site_label
_atom_site_type_symbol
_atom_site_fract_x
_atom_site_fract_y
_atom_site_fract_z
Mn1 Mn 0.50000 0.31487(6) 0.75000
O1 O 0.39894(12) 0.0657(2) 0.79827(6)
O2 O 0.37005(14) -0.0743(3) 0.88889(7)
O3 O 0.62165(13) 0.2633(3) 0.84233(6)
O4 O 0.63962(15) 0.5861(3) 0.74209(9)
C1 C 0.43578(16) 0.0335(3) 0.85680(8)
C2 C 0.57187(16) 0.1319(3) 0.88862(8)
C3 C 0.5555(2) 0.2949(4) 0.94152(10)
H1 H 0.49480 0.41770 0.92540
H2 H 0.64050 0.36020 0.96000
H3 H 0.52090 0.20930 0.97250
C4 C 0.6664(2) -0.0681(4) 0.91129(11)
H4 H 0.75160 -0.00710 0.93110
H5 H 0.67660 -0.16310 0.87650
H6 H 0.63050 -0.16040 0.94060
H7 H 0.700(4) 0.313(5) 0.8580(15)
H8 H 0.729(4) 0.585(5) 0.7614(15)
H9 H 0.627(4) 0.695(5) 0.7253(18)
O1F O 0.60106(12) 0.0657(2) 0.70173(6)
C1F C 0.56422(16) 0.0335(3) 0.64320(8)
O2F O 0.62995(14) -0.0743(3) 0.61111(7)
C2F C 0.42813(16) 0.1319(3) 0.61138(8)
O3F O 0.37835(13) 0.2633(3) 0.65767(6)
O4F O 0.36038(15) 0.5861(3) 0.75791(9)
H8F H 0.271(4) 0.585(5) 0.7386(15)
H9F H 0.373(4) 0.695(5) 0.7747(18)
H7F H 0.300(4) 0.313(5) 0.6420(15)
C3F C 0.4445(2) 0.2949(4) 0.55848(10)
H1F H 0.50520 0.41770 0.57460
H2F H 0.35950 0.36020 0.54000
H3F H 0.47910 0.20930 0.52750
C4F C 0.3336(2) -0.0681(4) 0.58871(11)
H4F H 0.24840 -0.00710 0.56890
H5F H 0.32340 -0.16310 0.62350
H6F H 0.36950 -0.16040 0.55940
#END
