
#######################################################################
#
#                 Cambridge Crystallographic Data Centre
#                                CCDC
#
#######################################################################
#
# If this CIF has been generated from an entry in the Cambridge
# Structural Database, then it will include bibliographic, chemical,
# crystal, experimental, refinement or atomic coordinate data resulting
# from the CCDC's data processing and validation procedures.
#
#######################################################################

data_CSD_CIF_EJAYUK
_audit_creation_date 2011-04-07
_audit_creation_method CSD-ConQuest-V1
_database_code_CSD EJAYUK
_database_code_depnum_ccdc_archive 'CCDC 781641'
_chemical_formula_sum 'C17 H19 Cl2 Mn1 N3 O1'
_chemical_formula_moiety
;
C17 H19 Cl2 Mn1 N3 O1
;
_journal_coden_Cambridge 211
_journal_volume 63
_journal_year 2010
_journal_page_first 4177
_journal_name_full 'J.Coord.Chem. '
loop_
_publ_author_name
"A.Lennartson"
_chemical_name_systematic
;
Dichloro-(N,N-dimethylformamide)-(2,9-dimethyl-1,10-phenanthroline)-manganese(
ii)
;
_cell_volume    903.379
_exptl_crystal_colour 'yellow'
_exptl_crystal_density_diffrn 1.497
_exptl_crystal_description 'block'
_diffrn_ambient_temperature 100
#These two values have been output from a single CSD field.
_refine_ls_R_factor_gt 0.0444
_refine_ls_wR_factor_gt 0.0444
_symmetry_cell_setting triclinic
_symmetry_space_group_name_H-M 'P -1'
_symmetry_Int_Tables_number 2
loop_
_symmetry_equiv_pos_site_id
_symmetry_equiv_pos_as_xyz
1 x,y,z
2 -x,-y,-z
_cell_length_a 8.4348(7)
_cell_length_b 8.790(1)
_cell_length_c 12.9814(10)
_cell_angle_alpha 79.599(18)
_cell_angle_beta 74.683(16)
_cell_angle_gamma 79.326(16)
_cell_formula_units_Z 2
loop_
_atom_type_symbol
_atom_type_radius_bond
C 0.68
H 0.23
Cl 0.99
Mn 1.61
N 0.68
O 0.68
loop_
_atom_site_label
_atom_site_type_symbol
_atom_site_fract_x
_atom_site_fract_y
_atom_site_fract_z
C1 C 0.3323(4) 0.4554(3) 0.9306(3)
C2 C 0.4849(4) 0.3369(3) 0.7817(3)
C3 C 0.5571(4) 0.2155(4) 0.8506(3)
H1 H 0.63040 0.13250 0.82160
C4 C 0.5200(4) 0.2195(4) 0.9588(3)
H2 H 0.57290 0.14330 1.00310
C5 C 0.4008(4) 0.3401(4) 1.0031(3)
C6 C 0.3436(4) 0.3468(4) 1.1168(3)
H3 H 0.39360 0.27430 1.16460
C7 C 0.2179(4) 0.4571(4) 1.1555(3)
H4 H 0.18160 0.45820 1.22950
C8 C 0.1404(4) 0.5714(4) 1.0845(3)
C9 C 0.0029(4) 0.6847(4) 1.1194(3)
H5 H -0.04130 0.68770 1.19280
C10 C -0.0650(4) 0.7889(4) 1.0466(3)
H6 H -0.15670 0.86190 1.07020
C11 C 0.0031(4) 0.7868(3) 0.9350(3)
C12 C 0.2003(3) 0.5749(3) 0.9717(3)
C13 C 0.5229(4) 0.3268(4) 0.6634(3)
H7 H 0.46110 0.41460 0.62860
H8 H 0.49240 0.23170 0.65310
H9 H 0.63960 0.32760 0.63290
C14 C -0.0688(4) 0.9025(4) 0.8534(3)
H10 H -0.01820 0.99570 0.83900
H11 H -0.18650 0.92770 0.88090
H12 H -0.04780 0.85810 0.78780
C15 C 0.6757(4) 0.6692(4) 0.5559(3)
C16 C 0.7453(6) 0.9245(5) 0.5557(4)
H13 H 0.63970 0.93610 0.60670
H14 H 0.74890 1.01120 0.49880
H15 H 0.83230 0.92180 0.59130
C17 C 0.9012(5) 0.7610(5) 0.4144(3)
H16 H 0.90680 0.65970 0.39460
H17 H 1.00510 0.76960 0.42850
H18 H 0.87920 0.84020 0.35650
N1 N 0.3795(3) 0.4566(3) 0.8211(2)
N2 N 0.1342(3) 0.6825(3) 0.8992(2)
N3 N 0.7679(3) 0.7815(3) 0.5113(2)
O1 O 0.5600(3) 0.6775(3) 0.6377(2)
Cl1 Cl 0.15233(11) 0.67219(11) 0.61363(7)
Cl2 Cl 0.34181(9) 0.95433(8) 0.76463(6)
Mn1 Mn 0.31020(5) 0.69772(5) 0.73296(4)
H19 H 0.706(5) 0.568(5) 0.517(3)
#END
