
#######################################################################
#
#                 Cambridge Crystallographic Data Centre
#                                CCDC
#
#######################################################################
#
# If this CIF has been generated from an entry in the Cambridge
# Structural Database, then it will include bibliographic, chemical,
# crystal, experimental, refinement or atomic coordinate data resulting
# from the CCDC's data processing and validation procedures.
#
#######################################################################

data_CSD_CIF_EJONEW
_audit_creation_date 2003-11-07
_audit_creation_method CSD-ConQuest-V1
_database_code_CSD EJONEW
_database_code_depnum_ccdc_archive 'CCDC 179140'
_chemical_formula_sum 'C26 H30 Cl2 Fe1 N6 O8'
_chemical_formula_moiety
;
C26 H30 Fe1 N6 2+,2(Cl1 O4 1-)
;
_journal_coden_Cambridge 155
_journal_volume 350
_journal_year 2003
_journal_page_first 193
_journal_name_full 'Inorg.Chim.Acta '
loop_
_publ_author_name
"A.Cabort"
"A.Michel"
"B.Therrien"
"H.Stoeckli-Evans"
"K.Bernauer"
"G.Suss-Fink"
"A.F.Williams"
"G.Stupka"
_chemical_name_systematic
;
bis(2,6-bis(3,4-Dihydro-2H-pyrrol-5-yl)pyridine)-iron(ii) diperchlorate
;
_cell_volume   1509.935
_exptl_crystal_colour 'dark purple'
_exptl_crystal_density_diffrn 1.499
_exptl_special_details
;
extremely hygroscopic

;
_exptl_crystal_description 'block'
_exptl_crystal_preparation 'acetonitrile/dichloromethane'
_diffrn_ambient_temperature 293
#These two values have been output from a single CSD field.
_refine_ls_R_factor_gt 0.0468
_refine_ls_wR_factor_gt 0.0468
_symmetry_cell_setting tetragonal
_symmetry_space_group_name_H-M 'I -4 2 m'
_symmetry_Int_Tables_number 121
loop_
_symmetry_equiv_pos_site_id
_symmetry_equiv_pos_as_xyz
1 x,y,z
2 x,-y,-z
3 -x,-y,z
4 -x,y,-z
5 -y,-x,z
6 -y,x,-z
7 y,-x,-z
8 y,x,z
9 1/2+x,1/2+y,1/2+z
10 1/2+x,1/2-y,1/2-z
11 1/2-x,1/2-y,1/2+z
12 1/2-x,1/2+y,1/2-z
13 1/2-y,1/2-x,1/2+z
14 1/2-y,1/2+x,1/2-z
15 1/2+y,1/2-x,1/2-z
16 1/2+y,1/2+x,1/2+z
_cell_length_a 10.326(7)
_cell_length_b 10.326(7)
_cell_length_c 14.161(19)
_cell_angle_alpha 90
_cell_angle_beta 90
_cell_angle_gamma 90
_cell_formula_units_Z 2
loop_
_atom_type_symbol
_atom_type_radius_bond
C 0.68
H 0.23
Cl 0.99
Fe 1.34
N 0.68
O 0.68
loop_
_atom_site_label
_atom_site_type_symbol
_atom_site_fract_x
_atom_site_fract_y
_atom_site_fract_z
Fe1 Fe 0.50000 0.50000 0.00000
N1 N 0.50000 0.50000 -0.1331(4)
N2 N 0.6309(3) 0.6309(3) -0.0243(3)
C1 C 0.5811(4) 0.5811(4) -0.1799(3)
C2 C 0.5824(5) 0.5824(5) -0.2770(4)
H1 H 0.638(4) 0.638(4) -0.305(4)
C3 C 0.50000 0.50000 -0.3253(6)
H2 H 0.50000 0.50000 -0.382(7)
C4 C 0.6569(4) 0.6569(4) -0.1115(5)
C5 C 0.7562(5) 0.7562(5) -0.1282(6)
H3 H 0.720(7) 0.812(8) -0.139(5)
C6 C 0.7925(7) 0.7925(7) -0.0277(8)
H4 H 0.791(10) 0.890(11) -0.015(10)
C7 C 0.7115(5) 0.7115(5) 0.0364(5)
H5 H 0.656(5) 0.748(5) 0.076(3)
Cl1 Cl 1.00000 0.50000 -0.25000
O1 O 1.0843(8) 0.5665(8) -0.1956(5)
C2B C 0.4176(5) 0.4176(5) -0.2770(4)
C1B C 0.4189(4) 0.4189(4) -0.1799(3)
C4B C 0.3431(4) 0.3431(4) -0.1115(5)
N2B N 0.3691(3) 0.3691(3) -0.0243(3)
N1A N 0.50000 0.50000 0.1331(4)
C1A C 0.5811(4) 0.4189(4) 0.1799(3)
C2A C 0.5824(5) 0.4176(5) 0.2770(4)
H1A H 0.638(4) 0.362(4) 0.305(4)
C3A C 0.50000 0.50000 0.3253(6)
C2C C 0.4176(5) 0.5824(5) 0.2770(4)
C1C C 0.4189(4) 0.5811(4) 0.1799(3)
C4C C 0.3431(4) 0.6569(4) 0.1115(5)
N2C N 0.3691(3) 0.6309(3) 0.0243(3)
H3G H 0.812(7) 0.720(8) -0.139(5)
H4G H 0.89(1) 0.791(11) -0.015(10)
H5G H 0.748(5) 0.656(5) 0.076(3)
N2A N 0.6309(3) 0.3691(3) 0.0243(3)
C4A C 0.6569(4) 0.3431(4) 0.1115(5)
C5A C 0.7562(5) 0.2438(5) 0.1282(6)
H3A H 0.720(7) 0.188(8) 0.139(5)
H3F H 0.812(7) 0.280(8) 0.139(5)
C6A C 0.7925(7) 0.2075(7) 0.0277(8)
H4A H 0.791(10) 0.110(11) 0.015(10)
H4F H 0.89(1) 0.209(11) 0.015(10)
C7A C 0.7115(5) 0.2885(5) -0.0364(5)
H5A H 0.656(5) 0.252(5) -0.076(3)
H5F H 0.748(5) 0.344(5) -0.076(3)
C7C C 0.2885(5) 0.7115(5) -0.0364(5)
C6C C 0.2075(7) 0.7925(7) 0.0277(8)
C5C C 0.2438(5) 0.7562(5) 0.1282(6)
H3C H 0.280(7) 0.812(8) 0.139(5)
H3E H 0.188(7) 0.720(8) 0.139(5)
H4C H 0.209(10) 0.890(11) 0.015(10)
H4E H 0.11(1) 0.791(11) 0.015(10)
H5C H 0.344(5) 0.748(5) -0.076(3)
H5E H 0.252(5) 0.656(5) -0.076(3)
H1C H 0.362(4) 0.638(4) 0.305(4)
H2A H 0.50000 0.50000 0.382(7)
C7B C 0.2885(5) 0.2885(5) 0.0364(5)
C6B C 0.2075(7) 0.2075(7) -0.0277(8)
C5B C 0.2438(5) 0.2438(5) -0.1282(6)
H3B H 0.280(7) 0.188(8) -0.139(5)
H3D H 0.188(7) 0.280(8) -0.139(5)
H4B H 0.209(10) 0.110(11) -0.015(10)
H4D H 0.11(1) 0.209(11) -0.015(10)
H5B H 0.344(5) 0.252(5) 0.076(3)
H5D H 0.252(5) 0.344(5) 0.076(3)
H1B H 0.362(4) 0.362(4) -0.305(4)
O1B O 0.9157(8) 0.4335(8) -0.1956(5)
O1M O 0.9335(8) 0.5843(8) -0.3044(5)
O1N O 1.0665(8) 0.4157(8) -0.3044(5)
#END
