
#######################################################################
#
#                 Cambridge Crystallographic Data Centre
#                                CCDC
#
#######################################################################
#
# If this CIF has been generated from an entry in the Cambridge
# Structural Database, then it will include bibliographic, chemical,
# crystal, experimental, refinement or atomic coordinate data resulting
# from the CCDC's data processing and validation procedures.
#
#######################################################################

data_CSD_CIF_EJOYIN
_audit_creation_date 2016-03-22
_audit_creation_method CSD-ConQuest-V1
_database_code_CSD EJOYIN
_database_code_depnum_ccdc_archive 'CCDC 1052490'
_chemical_formula_sum 'C15 H21 Co1 N1 O5'
_chemical_formula_moiety
;
C15 H21 Co1 N1 O5
;
_journal_coden_Cambridge 575
_journal_volume 160
_journal_year 2016
_journal_page_first 110
_journal_name_full 'J.Photochem.Photobiol.,B '
loop_
_publ_author_name
"V.Thamilarasan"
"N.Sengottuvelan"
"N.Stalin"
"P.Srinivasan"
"G.Chakkaravarthi"
_chemical_name_systematic
;
bis(Acetylacetonato-O,O')-aqua-pyridine-cobalt(ii)
;
_cell_volume   1660.981
_exptl_crystal_colour 'colorless'
_exptl_crystal_density_diffrn 1.413
_exptl_crystal_description 'block'
_diffrn_ambient_temperature 295
#These two values have been output from a single CSD field.
_refine_ls_R_factor_gt 0.0328
_refine_ls_wR_factor_gt 0.0328
_symmetry_cell_setting monoclinic
_symmetry_space_group_name_H-M 'C 2/c'
_symmetry_Int_Tables_number 15
loop_
_symmetry_equiv_pos_site_id
_symmetry_equiv_pos_as_xyz
1 x,y,z
2 -x,y,1/2-z
3 1/2+x,1/2+y,z
4 1/2-x,1/2+y,1/2-z
5 -x,-y,-z
6 x,-y,-1/2+z
7 -1/2-x,-1/2-y,-z
8 -1/2+x,-1/2-y,-1/2+z
_cell_length_a 13.777(3)
_cell_length_b 15.033(3)
_cell_length_c 8.2126(19)
_cell_angle_alpha 90
_cell_angle_beta 102.439(13)
_cell_angle_gamma 90
_cell_formula_units_Z 4
loop_
_atom_type_symbol
_atom_type_radius_bond
C 0.68
H 0.23
Co 1.26
N 0.68
O 0.68
loop_
_atom_site_label
_atom_site_type_symbol
_atom_site_fract_x
_atom_site_fract_y
_atom_site_fract_z
C1 C 0.66290(14) 0.12521(11) 0.5248(2)
C2 C 0.72994(15) 0.12895(15) 0.4203(3)
H1 H 0.79660 0.13860 0.46890
C3 C 0.70389(14) 0.11915(11) 0.2475(2)
C4 C 0.70170(17) 0.13386(16) 0.7100(3)
H2 H 0.65880 0.17240 0.75580
H3 H 0.76750 0.15850 0.73130
H4 H 0.70350 0.07630 0.76100
C5 C 0.78565(17) 0.11612(16) 0.1505(3)
H5 H 0.78320 0.06030 0.09300
H6 H 0.84900 0.12240 0.22590
H7 H 0.77660 0.16380 0.07090
C6 C 0.47967(14) 0.29047(13) 0.3851(3)
H8 H 0.46590 0.26000 0.47610
C7 C 0.47986(18) 0.38329(13) 0.3844(3)
H9 H 0.46630 0.41430 0.47500
C8 C 0.50000 0.4295(2) 0.25000
H10 H 0.50000 0.49140 0.25000
N1 N 0.50000 0.24320(16) 0.25000
O1 O 0.50000 -0.02436(13) 0.25000
O2 O 0.56883(10) 0.11378(8) 0.47684(16)
O3 O 0.61575(10) 0.11168(8) 0.16052(16)
Co1 Co 0.50000 0.11558(2) 0.25000
H11 H 0.507(4) -0.055(3) 0.173(4)
C6A C 0.52033(14) 0.29047(13) 0.1149(3)
H8A H 0.53410 0.26000 0.02390
C7A C 0.52014(18) 0.38329(13) 0.1156(3)
H9A H 0.53370 0.41430 0.02500
H11A H 0.493(4) -0.055(3) 0.327(4)
C1A C 0.33710(14) 0.12521(11) -0.0248(2)
C2A C 0.27006(15) 0.12895(15) 0.0797(3)
H1A H 0.20340 0.13860 0.03110
C3A C 0.29611(14) 0.11915(11) 0.2525(2)
C4A C 0.29830(17) 0.13386(16) -0.2100(3)
H2A H 0.34120 0.17240 -0.25580
H3A H 0.23250 0.15850 -0.23130
H4A H 0.29650 0.07630 -0.26100
C5A C 0.21435(17) 0.11612(16) 0.3495(3)
H5A H 0.21680 0.06030 0.40700
H6A H 0.15100 0.12240 0.27410
H7A H 0.22340 0.16380 0.42910
O2A O 0.43117(10) 0.11378(8) 0.02316(16)
O3A O 0.38425(10) 0.11168(8) 0.33948(16)
#END
