
#######################################################################
#
#                 Cambridge Crystallographic Data Centre
#                                CCDC
#
#######################################################################
#
# If this CIF has been generated from an entry in the Cambridge
# Structural Database, then it will include bibliographic, chemical,
# crystal, experimental, refinement or atomic coordinate data resulting
# from the CCDC's data processing and validation procedures.
#
#######################################################################

data_CSD_CIF_EJUJUP
_audit_creation_date 2011-04-07
_audit_creation_method CSD-ConQuest-V1
_database_code_CSD EJUJUP
_database_code_depnum_ccdc_archive 'CCDC 765566'
_chemical_formula_sum 'C13 H10 Cr1 O5'
_chemical_formula_moiety
;
C13 H10 Cr1 O5
;
_journal_coden_Cambridge 36
_journal_volume 695
_journal_year 2010
_journal_page_first 2180
_journal_name_full 'J.Organomet.Chem. '
loop_
_publ_author_name
"A.Kotera"
"J.Uenishi"
"M.Uemura"
_chemical_name_systematic
;
Tricarbonyl-(\h^6^-1-methoxy-3-methylene-1,3-dihydro-2-benzofuran)-chromium
;
_cell_volume    625.205
_exptl_crystal_colour 'yellow'
_exptl_crystal_density_diffrn 1.584
_exptl_crystal_description 'plate'
_diffrn_ambient_temperature 173.1
#These two values have been output from a single CSD field.
_refine_ls_R_factor_gt 0.0316
_refine_ls_wR_factor_gt 0.0316
_symmetry_cell_setting triclinic
_symmetry_space_group_name_H-M 'P -1'
_symmetry_Int_Tables_number 2
loop_
_symmetry_equiv_pos_site_id
_symmetry_equiv_pos_as_xyz
1 x,y,z
2 -x,-y,-z
_cell_length_a 8.502(3)
_cell_length_b 10.225(4)
_cell_length_c 8.467(3)
_cell_angle_alpha 110.68(3)
_cell_angle_beta 113.30(2)
_cell_angle_gamma 74.36(3)
_cell_formula_units_Z 2
loop_
_atom_type_symbol
_atom_type_radius_bond
C 0.68
H 0.23
Cr 1.39
O 0.68
loop_
_atom_site_label
_atom_site_type_symbol
_atom_site_fract_x
_atom_site_fract_y
_atom_site_fract_z
Cr1 Cr 0.26509(4) 0.36063(3) 0.71267(4)
O1 O 0.18976(17) -0.02251(14) 0.51719(18)
O2 O 0.12420(17) -0.00814(14) 0.22772(17)
O3 O 0.3118(2) 0.34864(17) 1.0777(2)
O4 O 0.2261(2) 0.67728(16) 0.8370(2)
O5 O -0.11527(19) 0.38413(16) 0.6372(2)
C1 C 0.1221(2) 0.0683(2) 0.3995(2)
C2 C 0.3479(2) 0.0098(2) 0.6451(2)
C3 C 0.3818(2) 0.1351(2) 0.6253(2)
C4 C 0.5171(2) 0.2176(2) 0.7276(2)
C5 C 0.5165(2) 0.3318(2) 0.6725(2)
C6 C 0.3810(2) 0.3675(2) 0.5248(2)
C7 C 0.2445(2) 0.2883(2) 0.4248(2)
C8 C 0.2469(2) 0.17213(19) 0.4793(2)
C9 C -0.0029(3) -0.1024(2) 0.1351(2)
C10 C 0.4421(2) -0.0666(2) 0.7582(2)
C11 C 0.2952(2) 0.3536(2) 0.9376(3)
C12 C 0.2432(2) 0.5547(2) 0.7916(2)
C13 C 0.0309(2) 0.3758(2) 0.6644(2)
H1 H -0.00130 0.10690 0.40150
H2 H 0.60950 0.18760 0.82740
H3 H 0.60350 0.39110 0.74150
H4 H 0.37410 0.45010 0.48690
H5 H 0.14630 0.31760 0.32600
H6 H 0.02560 -0.17360 0.19380
H7 H -0.11390 -0.05060 0.13530
H8 H -0.00430 -0.14510 0.01510
H9 H 0.40710 -0.15770 0.74990
H10 H 0.55410 -0.03770 0.84190
#END
