
#######################################################################
#
#                 Cambridge Crystallographic Data Centre
#                                CCDC
#
#######################################################################
#
# If this CIF has been generated from an entry in the Cambridge
# Structural Database, then it will include bibliographic, chemical,
# crystal, experimental, refinement or atomic coordinate data resulting
# from the CCDC's data processing and validation procedures.
#
#######################################################################

data_CSD_CIF_ELAHEE
_audit_creation_date 2004-01-09
_audit_creation_method CSD-ConQuest-V1
_database_code_CSD ELAHEE
_database_code_depnum_ccdc_archive 'CCDC 179906'
_chemical_formula_sum 'C5 H12 Co1 N2 O9'
_chemical_formula_moiety
;
C5 H10 Co1 N2 O8,H2 O1
;
_journal_coden_Cambridge 119
_journal_volume 657
_journal_year 2003
_journal_page_first 255
_journal_name_full 'J.Mol.Struct. '
loop_
_publ_author_name
"H.Icbudak"
"H.Olmez"
"O.Z.Yesilel"
"F.Arslan"
"P.Naumov"
"G.Jovanovski"
"A.R.Ibrahim"
"A.Usman"
"Hoong-Kun Fun"
"S.Chantrapromma"
"S.W.Ng"
_chemical_name_systematic
;
Tetraaqua-(orotato-N,O)-cobalt(ii) monohydrate
;
_cell_volume    519.712
_exptl_crystal_colour 'orange'
_exptl_crystal_density_diffrn 1.937
_exptl_crystal_description 'Block'
_diffrn_ambient_temperature 183
#These two values have been output from a single CSD field.
_refine_ls_R_factor_gt 0.0608
_refine_ls_wR_factor_gt 0.0608
_symmetry_cell_setting triclinic
_symmetry_space_group_name_H-M 'P -1'
_symmetry_Int_Tables_number 2
loop_
_symmetry_equiv_pos_site_id
_symmetry_equiv_pos_as_xyz
1 x,y,z
2 -x,-y,-z
_cell_length_a 7.2609(5)
_cell_length_b 8.3340(6)
_cell_length_c 10.0864(7)
_cell_angle_alpha 80.528(1)
_cell_angle_beta 70.458(1)
_cell_angle_gamma 64.666(1)
_cell_formula_units_Z 2
loop_
_atom_type_symbol
_atom_type_radius_bond
C 0.68
H 0.23
Co 1.33
N 0.68
O 0.68
loop_
_atom_site_label
_atom_site_type_symbol
_atom_site_fract_x
_atom_site_fract_y
_atom_site_fract_z
Co1 Co 0.24937(5) 0.34364(4) 0.18419(3)
O1 O 0.2756(4) 0.1162(3) 0.1109(2)
O2 O 0.3014(4) -0.1590(3) 0.1662(2)
O3 O 0.2252(3) -0.1724(3) 0.6933(2)
O4 O 0.2483(3) 0.3578(3) 0.5165(2)
O5 O 0.2253(4) 0.5525(3) 0.2808(2)
O6 O 0.2270(4) 0.4962(3) -0.0032(2)
O7 O -0.0930(3) 0.4417(3) 0.2497(2)
O8 O 0.5880(3) 0.2646(3) 0.0966(2)
O9 O 0.1623(5) 0.1746(4) -0.1277(3)
N1 N 0.2399(4) 0.0902(3) 0.5997(2)
C1 C 0.2845(4) -0.0132(3) 0.1959(3)
C2 C 0.2726(4) 0.0143(3) 0.3449(3)
C3 C 0.2658(4) -0.1115(3) 0.4475(3)
C4 C 0.2425(4) -0.0723(3) 0.5870(3)
C5 C 0.2514(4) 0.2150(4) 0.4921(3)
H1 H 0.263(7) 0.634(4) 0.237(2)
H2 H 0.226(9) 0.545(4) 0.366(2)
H3 H 0.190(7) 0.473(4) -0.066(2)
H4 H 0.299(5) 0.559(4) -0.039(2)
H5 H -0.136(4) 0.358(3) 0.276(4)
H6 H -0.149(4) 0.515(4) 0.317(3)
H7 H 0.637(4) 0.204(4) 0.022(2)
H8 H 0.655(4) 0.200(4) 0.155(2)
H9 H 0.045(4) 0.264(4) -0.105(4)
H10 H 0.200(8) 0.125(7) -0.055(3)
H11 H 0.23010 0.11710 0.68330
N2 N 0.2653(4) 0.1757(3) 0.3627(2)
H12 H 0.27630 -0.22320 0.42770
#END
