
#######################################################################
#
#                 Cambridge Crystallographic Data Centre
#                                CCDC
#
#######################################################################
#
# If this CIF has been generated from an entry in the Cambridge
# Structural Database, then it will include bibliographic, chemical,
# crystal, experimental, refinement or atomic coordinate data resulting
# from the CCDC's data processing and validation procedures.
#
#######################################################################

data_CSD_CIF_ELIQEW
_audit_creation_date 2011-05-02
_audit_creation_method CSD-ConQuest-V1
_database_code_CSD ELIQEW
_database_code_depnum_ccdc_archive 'CCDC 768088'
_chemical_formula_sum 'C13 H30 Br2 Mn1 N6'
_chemical_formula_moiety
;
C13 H30 Br2 Mn1 N6
;
_journal_coden_Cambridge 29
_journal_volume 636
_journal_year 2010
_journal_page_first 2641
_journal_name_full 'Z.Anorg.Allg.Chem. '
loop_
_publ_author_name
"A.Neuba"
"S.Herres-Pawlis"
"O.Seewald"
"J.Borner"
"A.J.Heuwing"
"U.Florke"
"G.Henkel"
_chemical_name_systematic
;
Dibromo-(2,2'-propane-1,3-diylbis(1,1,3,3-tetramethylguanidine))-manganese(ii)
;
_cell_volume   1009.693
_exptl_crystal_colour 'colorless'
_exptl_crystal_density_diffrn 1.596
_exptl_crystal_description 'block'
_diffrn_ambient_temperature 153
#These two values have been output from a single CSD field.
_refine_ls_R_factor_gt 0.0231
_refine_ls_wR_factor_gt 0.0231
_symmetry_cell_setting triclinic
_symmetry_space_group_name_H-M 'P -1'
_symmetry_Int_Tables_number 2
loop_
_symmetry_equiv_pos_site_id
_symmetry_equiv_pos_as_xyz
1 x,y,z
2 -x,-y,-z
_cell_length_a 9.3999(4)
_cell_length_b 10.1002(5)
_cell_length_c 12.6576(6)
_cell_angle_alpha 69.902(1)
_cell_angle_beta 87.674(1)
_cell_angle_gamma 64.424(1)
_cell_formula_units_Z 2
loop_
_atom_type_symbol
_atom_type_radius_bond
C 0.68
H 0.23
Br 1.21
Mn 1.61
N 0.68
loop_
_atom_site_label
_atom_site_type_symbol
_atom_site_fract_x
_atom_site_fract_y
_atom_site_fract_z
Br1 Br 0.60578(2) 0.77885(2) 0.853520(16)
Br2 Br 0.93156(2) 0.68420(2) 0.627553(17)
Mn1 Mn 0.73835(3) 0.60706(3) 0.73849(2)
N1 N 0.53801(17) 0.61009(17) 0.66751(12)
N2 N 0.54893(18) 0.70923(17) 0.47540(12)
N3 N 0.30765(17) 0.80887(17) 0.54202(12)
N4 N 0.81002(17) 0.37881(17) 0.85804(12)
N5 N 1.07335(17) 0.23931(19) 0.84030(13)
N6 N 0.99888(18) 0.21221(18) 1.02045(12)
C1 C 0.6763(2) 0.3636(2) 0.91760(15)
H1 H 0.63200 0.44310 0.95400
H2 H 0.71550 0.25800 0.97790
C2 C 0.5457(2) 0.3867(2) 0.83535(15)
H3 H 0.59550 0.32070 0.78930
H4 H 0.47350 0.34800 0.88000
C3 C 0.4465(2) 0.5559(2) 0.75515(15)
H5 H 0.35160 0.56290 0.71790
H6 H 0.40950 0.62600 0.79940
C4 C 0.4648(2) 0.70746(19) 0.56555(14)
C5 C 0.6901(2) 0.5704(2) 0.47688(16)
H7 H 0.78490 0.57870 0.49640
H8 H 0.69260 0.56220 0.40180
H9 H 0.68800 0.47650 0.53340
C6 C 0.5248(3) 0.8560(2) 0.38514(17)
H10 H 0.43900 0.94460 0.39940
H11 H 0.49610 0.85420 0.31220
H12 H 0.62310 0.86790 0.38300
C7 C 0.2263(2) 0.8886(2) 0.61865(17)
H13 H 0.14870 0.85070 0.65170
H14 H 0.17130 1.00230 0.57650
H15 H 0.30410 0.86640 0.67930
C8 C 0.2117(2) 0.8547(2) 0.43645(16)
H16 H 0.27580 0.79420 0.39110
H17 H 0.17550 0.96740 0.39370
H18 H 0.11940 0.83350 0.45350
C9 C 0.9561(2) 0.27954(19) 0.90629(14)
C10 C 1.2324(2) 0.2202(3) 0.86649(19)
H19 H 1.24030 0.23260 0.93920
H20 H 1.25230 0.30010 0.80650
H21 H 1.31140 0.11510 0.87140
C11 C 1.0373(2) 0.2493(2) 0.72641(16)
H22 H 0.93230 0.25290 0.71830
H23 H 1.11790 0.15690 0.71320
H24 H 1.03740 0.34500 0.67100
C12 C 0.9235(3) 0.3000(3) 1.09333(17)
H25 H 0.85810 0.41080 1.04670
H26 H 1.00540 0.29210 1.14390
H27 H 0.85620 0.25650 1.13860
C13 C 1.1233(3) 0.0530(2) 1.07612(19)
H28 H 1.16010 0.00220 1.02020
H29 H 1.08120 -0.00730 1.13540
H30 H 1.21240 0.05690 1.11030
#END
