
#######################################################################
#
#                 Cambridge Crystallographic Data Centre
#                                CCDC
#
#######################################################################
#
# If this CIF has been generated from an entry in the Cambridge
# Structural Database, then it will include bibliographic, chemical,
# crystal, experimental, refinement or atomic coordinate data resulting
# from the CCDC's data processing and validation procedures.
#
#######################################################################

data_CSD_CIF_ELITOK
_audit_creation_date 2016-04-27
_audit_creation_method CSD-ConQuest-V1
_database_code_CSD ELITOK
_database_code_depnum_ccdc_archive 'CCDC 1448433'
_chemical_formula_sum 'C18 H35 Fe1 N2 P3'
_chemical_formula_moiety
;
C18 H35 Fe1 N2 P3
;
_journal_coden_Cambridge 580
_journal_volume 116
_journal_year 2016
_journal_page_first 47
_journal_name_full 'Polyhedron '
loop_
_publ_author_name
"B.P.Jacobs"
"R.G.Agarwal"
"P.T.Wolczanski"
"T.R.Cundari"
"S.N.MacMillan"
_chemical_name_systematic
;
(3-((pyridin-2-ylmethylene)amino)prop-2-en-1-ylidene)-tris(trimethylphosphine)
-iron
;
_cell_volume   1109.405
_exptl_crystal_colour 'red'
_exptl_crystal_density_diffrn 1.282
_exptl_crystal_description 'Plate'
_diffrn_ambient_temperature 223
#These two values have been output from a single CSD field.
_refine_ls_R_factor_gt 0.041
_refine_ls_wR_factor_gt 0.041
_symmetry_cell_setting triclinic
_symmetry_space_group_name_H-M 'P -1'
_symmetry_Int_Tables_number 2
loop_
_symmetry_equiv_pos_site_id
_symmetry_equiv_pos_as_xyz
1 x,y,z
2 -x,-y,-z
_cell_length_a 8.8875(7)
_cell_length_b 9.4239(7)
_cell_length_c 14.2393(10)
_cell_angle_alpha 85.191(4)
_cell_angle_beta 81.684(4)
_cell_angle_gamma 70.182(4)
_cell_formula_units_Z 2
loop_
_atom_type_symbol
_atom_type_radius_bond
C 0.68
H 0.23
Fe 1.52
N 0.68
P 1.05
loop_
_atom_site_label
_atom_site_type_symbol
_atom_site_fract_x
_atom_site_fract_y
_atom_site_fract_z
Fe1 Fe 0.78173(2) 0.29663(2) 0.73503(2)
P1 P 0.88543(6) 0.35756(6) 0.85310(3)
P2 P 0.67733(6) 0.14248(5) 0.82706(3)
P3 P 0.70815(5) 0.23668(5) 0.60390(3)
N1 N 0.88138(16) 0.42534(16) 0.65285(9)
N2 N 0.59242(16) 0.49537(15) 0.74444(9)
C1 C 0.9950(2) 0.1485(2) 0.69960(13)
H1 H 1.02330 0.04670 0.72070
C2 C 1.0976(2) 0.2049(2) 0.64235(14)
H2 H 1.20400 0.14590 0.62120
C3 C 1.0320(2) 0.3612(2) 0.61641(12)
H3 H 1.09120 0.41370 0.57680
C4 C 0.7858(2) 0.5723(2) 0.64104(12)
H4 H 0.82270 0.64280 0.60250
C5 C 0.6316(2) 0.61087(18) 0.68933(12)
C6 C 0.5138(2) 0.7566(2) 0.68654(15)
H5 H 0.53840 0.83390 0.64820
C7 C 0.3665(2) 0.7867(2) 0.73810(16)
H6 H 0.29070 0.88450 0.73650
C8 C 0.3284(2) 0.6718(2) 0.79333(15)
H7 H 0.22690 0.68980 0.82940
C9 C 0.4441(2) 0.5310(2) 0.79352(13)
H8 H 0.41750 0.45370 0.83080
C10 C 1.0279(3) 0.4597(3) 0.81952(15)
H9 H 0.97540 0.55410 0.78650
H10 H 1.11950 0.39890 0.77810
H11 H 1.06470 0.48060 0.87610
C11 C 1.0081(3) 0.2084(3) 0.92875(16)
H12 H 1.09750 0.14030 0.88950
H13 H 0.94230 0.15260 0.96310
H14 H 1.04940 0.25340 0.97360
C12 C 0.7448(3) 0.4885(3) 0.93975(14)
H15 H 0.80390 0.50710 0.98690
H16 H 0.66550 0.44450 0.97080
H17 H 0.69080 0.58290 0.90740
C13 C 0.6112(3) 0.1753(3) 0.95488(14)
H18 H 0.57210 0.09530 0.98360
H19 H 0.52550 0.27170 0.96250
H20 H 0.70140 0.17610 0.98560
C14 C 0.8060(3) -0.0558(2) 0.83599(19)
H21 H 0.74830 -0.11250 0.87740
H22 H 0.90320 -0.06210 0.86190
H23 H 0.83450 -0.09770 0.77340
C15 C 0.4907(2) 0.1154(2) 0.80309(15)
H24 H 0.50540 0.07990 0.73930
H25 H 0.40270 0.21060 0.80870
H26 H 0.46580 0.04160 0.84860
C16 C 0.7521(3) 0.0377(2) 0.58034(16)
H27 H 0.71000 0.03040 0.52240
H28 H 0.70180 -0.00950 0.63300
H29 H 0.86770 -0.01320 0.57310
C17 C 0.4958(2) 0.3222(3) 0.58543(14)
H30 H 0.46560 0.43130 0.58520
H31 H 0.42920 0.28840 0.63630
H32 H 0.48010 0.29230 0.52500
C18 C 0.8014(3) 0.2938(2) 0.49076(12)
H33 H 0.91750 0.24700 0.48640
H34 H 0.77400 0.40270 0.48700
H35 H 0.76210 0.26190 0.43890
#END
