
#######################################################################
#
#                 Cambridge Crystallographic Data Centre
#                                CCDC
#
#######################################################################
#
# If this CIF has been generated from an entry in the Cambridge
# Structural Database, then it will include bibliographic, chemical,
# crystal, experimental, refinement or atomic coordinate data resulting
# from the CCDC's data processing and validation procedures.
#
#######################################################################

data_CSD_CIF_EMACOC
_audit_creation_date 1974-09-02
_audit_creation_method CSD-ConQuest-V1
_database_code_CSD EMACOC
_chemical_formula_sum 'C8 H22 Cl1 Co1 N4 O6'
_chemical_formula_moiety
;
C8 H18 Co1 N4 O4 1+,Cl1 1-,2(H2 O1)
;
_journal_coden_Cambridge 189
_journal_volume 3
_journal_year 1974
_journal_page_first 331
_journal_name_full 'Cryst.Struct.Commun. '
loop_
_publ_author_name
"L.P.Battaglia"
"A.B.Corradi"
"M.E.V.Tani"
_chemical_name_systematic
;
trans-bis(Ethylenediamine-monoacetato)-cobalt(iii) chloride dihydrate
;
_cell_volume   1522.263
_diffrn_ambient_temperature ?
_diffrn_special_details
;
The study was carried out at room temperature,in the range 283-303K

;
_refine_special_details
;
THE WATER MOLECULES ARE DISORDERED.

;
#These two values have been output from a single CSD field.
_refine_ls_R_factor_gt 0.035
_refine_ls_wR_factor_gt 0.035
_symmetry_cell_setting monoclinic
_symmetry_space_group_name_H-M 'C 2/c'
_symmetry_Int_Tables_number 15
loop_
_symmetry_equiv_pos_site_id
_symmetry_equiv_pos_as_xyz
1 x,y,z
2 1/2+x,1/2+y,z
3 -x,y,1/2-z
4 1/2-x,1/2+y,1/2-z
5 -x,-y,-z
6 -1/2-x,-1/2-y,-z
7 x,-y,-1/2+z
8 -1/2+x,-1/2-y,-1/2+z
_cell_length_a 11.86(1)
_cell_length_b 11.93(1)
_cell_length_c 11.92(1)
_cell_angle_alpha 90
_cell_angle_beta 115.5(1)
_cell_angle_gamma 90
_cell_formula_units_Z 4
loop_
_atom_type_symbol
_atom_type_radius_bond
C 0.68
H 0.20
Cl 0.99
Co 1.26
N 0.68
O 0.68
loop_
_atom_site_label
_atom_site_type_symbol
_atom_site_fract_x
_atom_site_fract_y
_atom_site_fract_z
Cl1 Cl 0.25000 0.25000 0.00000
Co1 Co 0.00000 0.00000 0.00000
C1 C -0.22770 0.07640 -0.18870
C2 C -0.12810 0.15770 -0.18300
C3 C -0.05650 0.21910 0.03670
C4 C -0.10310 0.13970 0.10740
H1 H -0.15000 -0.07000 -0.19700
H2 H -0.21300 -0.07500 -0.11100
H3 H -0.26900 0.10200 -0.13600
H4 H -0.28700 0.07400 -0.27300
H5 H -0.16200 0.23400 -0.21300
H6 H -0.08800 0.12800 -0.23600
H7 H -0.12500 0.27500 -0.01000
H8 H 0.02300 0.25200 0.10000
H9 H 0.04600 0.17600 -0.04300
N1 N -0.16330 -0.03180 -0.13740
N2 N -0.02640 0.15570 -0.05410
O1 O -0.08260 0.03480 0.09990
O2 O -0.15500 0.17750 0.16900
N1D N 0.16330 0.03180 0.13740
N2D N 0.02640 -0.15570 0.05410
O1D O 0.08260 -0.03480 -0.09990
C1D C 0.22770 -0.07640 0.18870
H1D H 0.15000 0.07000 0.19700
H2D H 0.21300 0.07500 0.11100
C2D C 0.12810 -0.15770 0.18300
C3D C 0.05650 -0.21910 -0.03670
H9D H -0.04600 -0.17600 0.04300
C4D C 0.10310 -0.13970 -0.10740
H3D H 0.26900 -0.10200 0.13600
H4D H 0.28700 -0.07400 0.27300
H5D H 0.16200 -0.23400 0.21300
H6D H 0.08800 -0.12800 0.23600
H7D H 0.12500 -0.27500 0.01000
H8D H -0.02300 -0.25200 -0.10000
O2D O 0.15500 -0.17750 -0.16900
#END
