
#######################################################################
#
#                 Cambridge Crystallographic Data Centre
#                                CCDC
#
#######################################################################
#
# If this CIF has been generated from an entry in the Cambridge
# Structural Database, then it will include bibliographic, chemical,
# crystal, experimental, refinement or atomic coordinate data resulting
# from the CCDC's data processing and validation procedures.
#
#######################################################################

data_CSD_CIF_EMACCR
_audit_creation_date 1972-10-08
_audit_creation_method CSD-ConQuest-V1
_database_code_CSD EMACCR
_database_code_depnum_ccdc_archive 'CCDC 1149421'
_chemical_formula_sum 'C10 H11 Cr1 N1 O6'
_chemical_formula_moiety
;
C10 H11 Cr1 N1 O6
;
_journal_coden_Cambridge 48
_journal_volume 105
_journal_year 1972
_journal_page_first 67
_journal_name_full 'Chem.Ber. '
loop_
_publ_author_name
"G.Huttner"
"B.Krieg"
_chemical_name_systematic
;
Pentacarbonyl-(dimethylamino(ethoxy)carbene)-chromium(0)
;
_cell_volume    667.505
_exptl_crystal_density_diffrn 1.453
_diffrn_ambient_temperature ?
_diffrn_special_details
;
The study was carried out at room temperature,in the range 283-303K

;
#These two values have been output from a single CSD field.
_refine_ls_R_factor_gt 0.054
_refine_ls_wR_factor_gt 0.054
_symmetry_cell_setting triclinic
_symmetry_space_group_name_H-M 'P -1'
_symmetry_Int_Tables_number 2
loop_
_symmetry_equiv_pos_site_id
_symmetry_equiv_pos_as_xyz
1 x,y,z
2 -x,-y,-z
_cell_length_a 11.84(1)
_cell_length_b 9.05(1)
_cell_length_c 6.490(8)
_cell_angle_alpha 95.73(8)
_cell_angle_beta 105.21(8)
_cell_angle_gamma 89.84(8)
_cell_formula_units_Z 2
loop_
_atom_type_symbol
_atom_type_radius_bond
C 0.68
H 0.20
Cr 1.28
N 0.68
O 0.68
loop_
_atom_site_label
_atom_site_type_symbol
_atom_site_fract_x
_atom_site_fract_y
_atom_site_fract_z
Cr1 Cr 0.28080 0.34270 0.10930
C1 C 0.33870 0.51450 0.03840
C2 C 0.22460 0.14130 0.20100
C3 C 0.03460 0.22760 0.23950
C4 C -0.06530 0.15830 0.29450
C5 C 0.13770 0.38090 -0.08190
C6 C 0.24150 -0.11170 0.31700
C7 C 0.39330 -0.01100 0.17470
C8 C 0.24040 0.45790 0.33900
C9 C 0.42990 0.32570 0.30250
C10 C 0.32280 0.24370 -0.12820
H1 H 0.00760 0.25830 0.07580
H2 H 0.06650 0.32630 0.35030
H3 H -0.10570 0.07130 0.16820
H4 H -0.03420 0.11010 0.44610
H5 H -0.12960 0.24230 0.30980
H6 H 0.15200 -0.14280 0.22720
H7 H 0.29820 -0.20560 0.30510
H8 H 0.24430 -0.08090 0.48500
H9 H 0.45680 -0.04840 0.31280
H10 H 0.42570 0.09160 0.13310
H11 H 0.38060 -0.09600 0.03880
N1 N 0.28220 0.01560 0.22740
O1 O 0.37490 0.62090 -0.00960
O2 O 0.12490 0.11970 0.25780
O3 O 0.05350 0.41140 -0.20300
O4 O 0.22030 0.53250 0.47590
O5 O 0.51940 0.32310 0.42310
O6 O 0.34710 0.19040 -0.27620
#END
