
#######################################################################
#
#                 Cambridge Crystallographic Data Centre
#                                CCDC
#
#######################################################################
#
# If this CIF has been generated from an entry in the Cambridge
# Structural Database, then it will include bibliographic, chemical,
# crystal, experimental, refinement or atomic coordinate data resulting
# from the CCDC's data processing and validation procedures.
#
#######################################################################

data_CSD_CIF_EMARIT02
_audit_creation_date 2007-02-15
_audit_creation_method CSD-ConQuest-V1
_database_code_CSD EMARIT02
_database_code_depnum_ccdc_archive 'CCDC 234738'
_chemical_formula_sum 'C14 H28 Co1 N2 O12'
_chemical_formula_moiety
;
(C10 H16 Co1 N2 O4 2+)n,n(C4 H4 O4 2-),4n(H2 O1)
;
_journal_coden_Cambridge 29
_journal_volume 632
_journal_year 2006
_journal_page_first 2350
_journal_name_full 'Z.Anorg.Allg.Chem. '
loop_
_publ_author_name
"Jing Jin"
"Shu Yun Niu"
"Guang Di Yang"
"Ling Ye"
_chemical_name_systematic
;
catena-((\m~2~-4,4'-Bipyridine)-tetra-aqua-cobalt(ii) succinate tetrahydrate)
;
_cell_volume    504.214
_exptl_crystal_density_diffrn 1.545
_diffrn_ambient_temperature 293
#These two values have been output from a single CSD field.
_refine_ls_R_factor_gt 0.042
_refine_ls_wR_factor_gt 0.042
_symmetry_cell_setting triclinic
_symmetry_space_group_name_H-M 'P 1'
_symmetry_Int_Tables_number 1
loop_
_symmetry_equiv_pos_site_id
_symmetry_equiv_pos_as_xyz
1 x,y,z
_cell_length_a 7.1418(13)
_cell_length_b 7.7276(14)
_cell_length_c 9.8084(19)
_cell_angle_alpha 79.323(5)
_cell_angle_beta 88.120(6)
_cell_angle_gamma 71.485(2)
_cell_formula_units_Z 1
loop_
_atom_type_symbol
_atom_type_radius_bond
C 0.68
H 0.23
Co 1.33
N 0.68
O 0.68
loop_
_atom_site_label
_atom_site_type_symbol
_atom_site_fract_x
_atom_site_fract_y
_atom_site_fract_z
Co1 Co -0.6920(3) -0.2325(3) -0.14316(18)
O1 O -0.4219(12) -0.3963(12) -0.2024(8)
O2 O -0.9504(12) -0.0759(12) -0.0805(7)
H1? H -0.995(7) -0.026(6) -0.007(3)
O3 O -0.5313(11) -0.0863(12) -0.0535(8)
H2? H -0.454(6) -0.146(6) 0.022(3)
O4 O -0.8451(13) -0.3806(12) -0.2307(7)
H3? H -0.908(6) -0.430(6) -0.162(4)
O5 O -0.0392(16) -0.8369(13) 0.0854(9)
O6 O -0.0940(15) -1.0264(13) 0.2708(8)
O7 O -0.3447(14) -0.6219(13) 0.6240(9)
O8 O -0.2948(14) -0.4311(12) 0.4428(9)
O9 O -0.2626(17) -0.2459(16) 0.1685(10)
O10 O -0.1093(17) -0.2113(15) -0.458(1)
O11 O -0.0921(12) -0.4825(12) -0.0334(8)
O12 O -0.2774(13) -0.9789(13) -0.2505(8)
N1 N -0.7173(14) -0.0402(14) -0.3321(9)
N2 N -0.6639(14) 0.5793(11) -0.9500(8)
C1 C -0.6507(19) -0.1055(17) -0.4554(11)
H4 H -0.614(7) -0.242(7) -0.447(5)
C2 C -0.639(2) 0.0153(19) -0.5732(12)
H5 H -0.592(7) -0.043(7) -0.660(5)
C3 C -0.6935(14) 0.1959(14) -0.5784(7)
C4 C -0.6812(16) 0.3262(14) -0.7066(12)
C5 C -0.6153(15) 0.2721(17) -0.8336(12)
H6 H -0.547(10) 0.149(10) -0.838(6)
C6 C -0.7292(19) 0.5237(15) -0.7098(12)
H7 H -0.75(3) 0.62(2) -0.636(19)
C7 C -0.7563(18) 0.2653(15) -0.4583(10)
H8 H -0.762(12) 0.420(12) -0.459(9)
C8 C -0.7668(18) 0.1410(18) -0.3405(13)
H9 H -0.801(6) 0.179(6) -0.253(5)
C9 C -0.7205(15) 0.6360(12) -0.8364(10)
C10 C -0.6109(19) 0.3950(17) -0.9501(10)
C11 C -0.095(2) -0.8714(16) 0.2088(12)
C12 C -0.1689(15) -0.7089(12) 0.2837(11)
H10 H -0.310(12) -0.642(12) 0.220(8)
C13 C -0.2169(16) -0.7557(14) 0.4339(10)
H11 H -0.116(8) -0.841(8) 0.482(5)
C14 C -0.2916(17) -0.5862(17) 0.5029(11)
H12 H -0.40(2) -0.41(2) -0.110(4)
H13? H -0.312(5) -0.407(8) -0.157(6)
H14? H -0.913(16) 0.026(9) -0.098(12)
H15? H -0.60(4) -0.08(4) 0.024(17)
H16 H -0.075(7) -0.632(7) 0.267(5)
H17 H -0.379(13) -0.757(13) 0.421(9)
H18 H -0.199(6) -0.170(5) 0.185(4)
H19 H -0.072(6) -0.599(3) 0.014(4)
H20 H -0.271(8) -0.318(6) 0.247(3)
H21 H -0.135(7) -0.423(7) 0.037(4)
H22? H -0.978(4) -0.35(2) -0.23(2)
Co1* Co -0.6920(3) 0.7675(3) -1.14316(18)
N2* N -0.6639(14) -0.4207(11) 0.0500(8)
#END
