
#######################################################################
#
#                 Cambridge Crystallographic Data Centre
#                                CCDC
#
#######################################################################
#
# If this CIF has been generated from an entry in the Cambridge
# Structural Database, then it will include bibliographic, chemical,
# crystal, experimental, refinement or atomic coordinate data resulting
# from the CCDC's data processing and validation procedures.
#
#######################################################################

data_CSD_CIF_EMEYIE
_audit_creation_date 2004-02-24
_audit_creation_method CSD-ConQuest-V1
_database_code_CSD EMEYIE
_database_code_depnum_ccdc_archive 'CCDC 229062'
_chemical_formula_sum 'C15 H9 Br1 Cr1 O3'
_chemical_formula_moiety
;
C15 H9 Br1 Cr1 O3
;
_journal_coeditor_code "IUCr SQ1136"
_journal_coden_Cambridge 591
_journal_volume 59
_journal_year 2003
_journal_page_first m499
_journal_name_full 'Acta Crystallogr.,Sect.C:Cryst.Struct.Commun. '
loop_
_publ_author_name
"C.J.Czerwinski"
"I.A.Guzei"
"T.J.Cordes"
"K.M.Czerwinski"
"N.A.Mlodik"
_chemical_name_systematic
;
(\h^6^-2-Bromo-1,1'-biphenyl)-tricarbonyl-chromium
;
_cell_volume    676.674
_exptl_crystal_colour 'colorless'
_exptl_crystal_density_diffrn 1.812
_exptl_crystal_description 'block'
_exptl_crystal_preparation 'diethyl ether'
_diffrn_ambient_temperature 100
#These two values have been output from a single CSD field.
_refine_ls_R_factor_gt 0.034
_refine_ls_wR_factor_gt 0.034
_symmetry_cell_setting triclinic
_symmetry_space_group_name_H-M 'P -1'
_symmetry_Int_Tables_number 2
loop_
_symmetry_equiv_pos_site_id
_symmetry_equiv_pos_as_xyz
1 x,y,z
2 -x,-y,-z
_cell_length_a 7.3186(8)
_cell_length_b 7.3934(8)
_cell_length_c 14.5131(16)
_cell_angle_alpha 79.330(2)
_cell_angle_beta 78.867(2)
_cell_angle_gamma 62.067(2)
_cell_formula_units_Z 2
loop_
_atom_type_symbol
_atom_type_radius_bond
C 0.68
H 0.23
Br 1.21
Cr 1.35
O 0.68
loop_
_atom_site_label
_atom_site_type_symbol
_atom_site_fract_x
_atom_site_fract_y
_atom_site_fract_z
Cr1 Cr 0.66788(6) 0.28192(6) 0.33284(3)
Br1 Br 1.18734(4) 0.23542(4) 0.019518(18)
O1 O 0.4996(3) 0.0595(3) 0.24723(16)
O2 O 0.7174(4) -0.0141(4) 0.50922(18)
O3 O 0.2291(3) 0.5392(3) 0.41721(15)
C1 C 0.9519(4) 0.1876(4) 0.22605(17)
C2 C 1.0085(4) 0.1847(4) 0.31389(18)
H1 H 1.11640 0.06280 0.34010
C3 C 0.9066(4) 0.3614(4) 0.36395(18)
H2 H 0.94690 0.35790 0.42290
C4 C 0.7457(4) 0.5413(4) 0.3256(2)
H3 H 0.67680 0.65950 0.35900
C5 C 0.6862(4) 0.5472(4) 0.23805(18)
H4 H 0.57790 0.66960 0.21240
C6 C 0.7870(4) 0.3718(4) 0.18814(17)
H5 H 0.74550 0.37600 0.12940
C7 C 1.0612(4) -0.0014(4) 0.17527(17)
C8 C 1.1707(4) -0.0037(4) 0.08503(18)
C9 C 1.2775(4) -0.1824(4) 0.03916(19)
H6 H 1.35060 -0.18010 -0.02240
C10 C 1.2744(4) -0.3638(4) 0.0855(2)
H7 H 1.34570 -0.48640 0.05530
C11 C 1.1683(4) -0.3668(4) 0.1752(2)
H8 H 1.16780 -0.49150 0.20640
C12 C 1.0626(4) -0.1880(4) 0.21950(19)
H9 H 0.98970 -0.19180 0.28100
C13 C 0.5635(4) 0.1446(4) 0.28071(19)
C14 C 0.6985(4) 0.0994(5) 0.4410(2)
C15 C 0.3981(4) 0.4413(4) 0.38505(18)
#END
