
#######################################################################
#
#                 Cambridge Crystallographic Data Centre
#                                CCDC
#
#######################################################################
#
# If this CIF has been generated from an entry in the Cambridge
# Structural Database, then it will include bibliographic, chemical,
# crystal, experimental, refinement or atomic coordinate data resulting
# from the CCDC's data processing and validation procedures.
#
#######################################################################

data_CSD_CIF_ENACCO01
_audit_creation_date 1996-06-30
_audit_creation_method CSD-ConQuest-V1
_database_code_CSD ENACCO01
_database_code_depnum_ccdc_archive 'CCDC 1149630'
_chemical_formula_sum 'C10 H20 Co1 N2 O11'
_chemical_formula_moiety
;
C10 H16 Co1 N2 O9,2(H2 O1)
;
_journal_coden_Cambridge 9
_journal_volume 34
_journal_year 1995
_journal_page_first 6409
_journal_name_full 'Inorg.Chem. '
loop_
_publ_author_name
"J.D.Zubkowski"
"D.L.Perry"
"E.J.Valente"
"S.Lott"
_chemical_name_systematic
;
Aqua-(ethylenediaminetriacetatoacetic acid)-cobalt(ii) dihydrate
;
_cell_volume    771.088
_exptl_crystal_colour 'pale red'
_exptl_crystal_density_diffrn 1.732
_exptl_special_details
;
Correction to formula and valence state of cobalt published in Inorganic 
Chemistry, 35, 6352, 1996
;
_diffrn_ambient_temperature ?
_diffrn_special_details
;
The study was carried out at room temperature,in the range 283-303K

;
_refine_special_details
;
Re-examination of the structure resulted in the location of two 
half-occupancy hydrogen atoms, H2c and H6c.
;
#These two values have been output from a single CSD field.
_refine_ls_R_factor_gt 0.0378
_refine_ls_wR_factor_gt 0.0378
_symmetry_cell_setting triclinic
_symmetry_space_group_name_H-M 'P -1'
_symmetry_Int_Tables_number 2
loop_
_symmetry_equiv_pos_site_id
_symmetry_equiv_pos_as_xyz
1 x,y,z
2 -x,-y,-z
_cell_length_a 7.436(2)
_cell_length_b 7.751(2)
_cell_length_c 13.807(3)
_cell_angle_alpha 79.52(3)
_cell_angle_beta 82.96(3)
_cell_angle_gamma 82.04(3)
_cell_formula_units_Z 2
loop_
_atom_type_symbol
_atom_type_radius_bond
C 0.68
H 0.18
Co 1.40
N 0.68
O 0.68
loop_
_atom_site_label
_atom_site_type_symbol
_atom_site_fract_x
_atom_site_fract_y
_atom_site_fract_z
Co1 Co 0.0934(1) 0.2383(1) 0.2575(1)
O1 O 0.0427(3) 0.1728(3) 0.1213(2)
O2 O 0.1417(3) 0.2909(2) 0.3937(1)
O3 O 0.3180(2) 0.3622(2) 0.1525(1)
N1 N 0.0308(2) 0.5311(2) 0.2418(1)
N2 N -0.2137(2) 0.2705(2) 0.2629(1)
O4 O -0.1386(3) 0.0306(2) 0.0563(1)
O5 O -0.0352(2) -0.0010(2) 0.3773(1)
O6 O -0.2823(2) -0.0373(3) 0.4859(1)
C1 C -0.2615(3) 0.1566(3) 0.1978(2)
C2 C -0.1677(3) 0.5766(3) 0.2673(2)
O7 O 0.2541(4) 0.4787(3) 0.4672(2)
O8 O 0.3558(3) 0.5842(3) 0.0273(2)
C3 C -0.2950(3) 0.2160(3) 0.3650(2)
C4 C -0.2736(3) 0.4586(3) 0.2257(2)
C5 C 0.2682(3) 0.5075(3) 0.1048(2)
C6 C 0.1805(3) 0.4443(3) 0.3993(2)
C7 C -0.1065(3) 0.1209(3) 0.1200(2)
C8 C -0.1896(3) 0.0456(3) 0.4106(2)
C9 C 0.0907(3) 0.6089(3) 0.1391(2)
C10 C 0.1372(3) 0.5880(3) 0.3119(2)
O9 O 0.3005(3) 0.0291(3) 0.2631(2)
H1 H -0.23800 -0.10960 0.51800
H2 H -0.36670 0.21400 0.16580
H3 H -0.29230 0.04680 0.23650
H4 H -0.20340 0.69790 0.24030
H5 H -0.19470 0.56180 0.33790
H6 H -0.42010 0.19850 0.36420
H7 H -0.29170 0.30670 0.40350
H8 H -0.40160 0.48440 0.24490
H9 H -0.25460 0.48070 0.15470
H10 H 0.10620 0.73090 0.13560
H11 H -0.00030 0.60270 0.09660
H12 H 0.06930 0.68860 0.33640
H13 H 0.24950 0.62400 0.27730
H14 H 0.33820 0.01170 0.20460
H15 H 0.32580 -0.04970 0.31220
H16 H 0.45130 0.52350 0.00560
O10 O 0.5116(5) -0.1269(4) 0.1057(2)
H17 H 0.59690 -0.18080 0.07240
H18 H 0.40700 -0.05040 0.08960
O11 O 0.4676(3) -0.2509(3) 0.3877(2)
H19 H 0.39390 -0.32730 0.40830
H20 H 0.53910 -0.22360 0.42170
H21? H 0.00000 0.00000 0.00000
#END
