
#######################################################################
#
#                 Cambridge Crystallographic Data Centre
#                                CCDC
#
#######################################################################
#
# If this CIF has been generated from an entry in the Cambridge
# Structural Database, then it will include bibliographic, chemical,
# crystal, experimental, refinement or atomic coordinate data resulting
# from the CCDC's data processing and validation procedures.
#
#######################################################################

data_CSD_CIF_ENCOCT01
_audit_creation_date 1981-11-16
_audit_creation_method CSD-ConQuest-V1
_database_code_CSD ENCOCT01
_database_code_depnum_ccdc_archive 'CCDC 1149674'
_chemical_formula_sum 'C10 H38 Cl1 Co1 N6 O11'
_chemical_formula_moiety
;
C6 H24 Co1 N6 3+,C4 H4 O6 2-,Cl1 1-,5(H2 O1)
;
_journal_coden_Cambridge 9
_journal_volume 20
_journal_year 1981
_journal_page_first 1187
_journal_name_full 'Inorg.Chem. '
loop_
_publ_author_name
"L.S.Magill"
"J.D.Korp"
"I.Bernal"
_chemical_name_systematic
;
tris(Ethylenediamine)-cobalt(iii) (+)~589~-(R,R)-tartrate chloride 
pentahydrate
;
_cell_volume    542.608
_exptl_crystal_colour 'orange'
_exptl_crystal_density_diffrn 1.57
_exptl_special_details
;
Absolute configuration

;
_diffrn_ambient_temperature ?
_diffrn_special_details
;
The study was carried out at room temperature,in the range 283-303K

;
#These two values have been output from a single CSD field.
_refine_ls_R_factor_gt 0.022
_refine_ls_wR_factor_gt 0.022
loop_
_citation_database_id_CSD
_citation_special_details
RITPOC "is a stereoisomer of this entry"
_symmetry_cell_setting triclinic
_symmetry_space_group_name_H-M 'P 1'
_symmetry_Int_Tables_number 1
loop_
_symmetry_equiv_pos_site_id
_symmetry_equiv_pos_as_xyz
1 x,y,z
_cell_length_a 8.136(5)
_cell_length_b 8.253(7)
_cell_length_c 8.517(6)
_cell_angle_alpha 102.32(6)
_cell_angle_beta 101.32(6)
_cell_angle_gamma 95.18(6)
_cell_formula_units_Z 1
loop_
_atom_type_symbol
_atom_type_radius_bond
C 0.68
H 0.23
Cl 0.99
Co 1.33
N 0.68
O 0.68
loop_
_atom_site_label
_atom_site_type_symbol
_atom_site_fract_x
_atom_site_fract_y
_atom_site_fract_z
Co1 Co 0.45000 0.63000 0.58000
N1 N 0.40930 0.58560 0.33910
C1 C 0.35070 0.40380 0.26830
C2 C 0.45370 0.30920 0.37400
N2 N 0.45740 0.38760 0.55000
N3 N 0.69560 0.66940 0.60710
C3 C 0.75600 0.85230 0.64980
C4 C 0.62290 0.93400 0.55840
N4 N 0.45840 0.87060 0.59310
N5 N 0.47080 0.66340 0.81920
C5 C 0.30200 0.61880 0.85380
C6 C 0.17240 0.67220 0.73210
N6 N 0.20470 0.60500 0.56530
H1 H 0.52900 0.61700 0.30200
H2 H 0.32200 0.64000 0.28500
H3 H 0.36500 0.35500 0.13900
H4 H 0.22900 0.35700 0.26500
H5 H 0.38500 0.16900 0.35000
H6 H 0.58400 0.31100 0.33400
H7 H 0.36000 0.33600 0.59200
H8 H 0.55900 0.35900 0.61100
H9 H 0.72800 0.59400 0.49800
H10 H 0.74900 0.62800 0.69700
H11 H 0.77800 0.90600 0.77600
H12 H 0.87600 0.86500 0.60700
H13 H 0.61400 0.89000 0.42800
H14 H 0.62500 1.05500 0.59200
H15 H 0.44000 0.93400 0.69900
H16 H 0.35400 0.89700 0.50800
H17 H 0.53900 0.59600 0.85100
H18 H 0.48100 0.77900 0.85800
H19 H 0.28400 0.49400 0.83400
H20 H 0.28400 0.65900 0.94900
H21 H 0.18200 0.81100 0.74600
H22 H 0.08000 0.63600 0.75900
H23 H 0.14600 0.49000 0.52000
H24 H 0.14700 0.65600 0.48600
Cl1 Cl 0.14190 0.86160 0.29420
C7 C -0.22290 0.58870 0.19820
C8 C -0.12950 0.53610 0.06020
C9 C -0.21050 0.36280 -0.04610
C10 C -0.11790 0.31750 -0.18700
O1 O -0.19820 0.51470 0.31280
O2 O -0.31970 0.69550 0.18900
O3 O -0.13230 0.65050 -0.04380
O4 O -0.38580 0.36440 -0.10590
O5 O -0.18600 0.33260 -0.32720
O6 O 0.02320 0.27200 -0.14780
H25 H -0.01700 0.52900 0.13000
H26 H -0.19900 0.29100 0.02400
H27 H -0.40700 0.26100 -0.11000
O7 O 0.17130 0.03750 0.00110
H28 H 0.18700 0.01500 0.09700
H29 H 0.12900 0.10100 -0.01300
O8 O 0.48870 0.06070 -0.05660
H30 H 0.56100 0.05200 0.03800
H31 H 0.37500 0.08700 -0.00800
O9 O 0.75800 0.01360 0.15210
H32 H 0.84300 0.08200 0.24800
H33 H 0.79000 -0.05500 0.16400
O10 O 0.96450 0.27720 0.40520
H34 H 0.92400 0.29500 0.50100
H35 H 1.00100 0.21100 0.47600
O11 O 0.22420 0.15060 0.64250
H36 H 0.15000 0.18400 0.69700
H37 H 0.19500 0.08000 0.56900
#END
