
#######################################################################
#
#                 Cambridge Crystallographic Data Centre
#                                CCDC
#
#######################################################################
#
# If this CIF has been generated from an entry in the Cambridge
# Structural Database, then it will include bibliographic, chemical,
# crystal, experimental, refinement or atomic coordinate data resulting
# from the CCDC's data processing and validation procedures.
#
#######################################################################

data_CSD_CIF_ENCOCL01
_audit_creation_date 1976-03-15
_audit_creation_method CSD-ConQuest-V1
_database_code_CSD ENCOCL01
_chemical_formula_sum 'C6 H22 Cl3 Co1 N5 O0.5'
_chemical_formula_moiety
;
C6 H21 Cl1 Co1 N5 2+,2(Cl1 1-),0.5(H2 O1)
;
_journal_coden_Cambridge 186
_journal_year 1975
_journal_page_first 2153
_journal_name_full 'J.Chem.Soc.,Dalton Trans. '
loop_
_publ_author_name
"J.H.Johnston"
"A.G.Freeman"
_chemical_name_systematic
;
Chloro-(diethylenetriamine-N,N',N'')-(ethylenediamine-N,N')-cobalt(iii) 
dichloride hemihydrate
;
_cell_volume   1331.988
_exptl_crystal_density_diffrn 1.68
_diffrn_ambient_temperature ?
_diffrn_special_details
;
The study was carried out at room temperature,in the range 283-303K

;
_refine_special_details
;
THE WATER MOLECULE IS DISORDERED.

;
#These two values have been output from a single CSD field.
_refine_ls_R_factor_gt 0.045
_refine_ls_wR_factor_gt 0.045
loop_
_citation_database_id_CSD
_citation_special_details
ENCOCL02 "is a reinterpretation of this cif"
_symmetry_cell_setting monoclinic
_symmetry_space_group_name_H-M 'C 2'
_symmetry_Int_Tables_number 5
loop_
_symmetry_equiv_pos_site_id
_symmetry_equiv_pos_as_xyz
1 x,y,z
2 1/2+x,1/2+y,z
3 -x,y,-z
4 1/2-x,1/2+y,-z
_cell_length_a 14.323(1)
_cell_length_b 7.720(1)
_cell_length_c 12.229(1)
_cell_angle_alpha 90
_cell_angle_beta 99.92(1)
_cell_angle_gamma 90
_cell_formula_units_Z 4
loop_
_atom_type_symbol
_atom_type_radius_bond
C 0.68
H 0.23
Cl 0.99
Co 1.33
N 0.68
loop_
_atom_site_label
_atom_site_type_symbol
_atom_site_fract_x
_atom_site_fract_y
_atom_site_fract_z
Cl1 Cl 0.36170 -0.00020 -0.36840
Cl2 Cl 0.12940 0.00120 0.41520
Cl3 Cl 0.27450 0.00080 -0.05960
Co1 Co 0.23520 0.00000 0.29780
C1 C 0.40030 0.21400 0.34700
C2 C 0.39260 0.16100 0.23120
C3 C 0.40000 -0.20800 0.35240
C4 C 0.38800 -0.16700 0.22620
C5 C 0.09770 -0.10050 0.11050
C6 C 0.06950 0.07510 0.14820
H1 H 0.27860 -0.00300 0.11500
H2 H 0.42980 0.35680 0.36450
H3 H 0.47600 0.15710 0.40630
H4 H 0.36850 0.27660 0.16440
H5 H 0.46810 0.15880 0.19770
H6 H 0.46270 -0.13450 0.40730
H7 H 0.43530 -0.34290 0.37740
H8 H 0.45890 -0.16820 0.19080
H9 H 0.35700 -0.28120 0.16830
H10 H 0.12860 -0.09840 0.02960
H11 H 0.03480 -0.18790 0.07410
H12 H 0.26210 0.31160 0.39410
H13 H 0.02030 0.15660 0.07750
H14 H 0.00600 0.07120 0.20010
H15 H 0.31460 0.16210 0.48430
H16 H 0.14190 0.29480 0.25410
H17 H 0.19770 0.24850 0.14750
H18 H 0.31230 -0.16650 0.48530
H19 H 0.26420 -0.31530 0.39190
H20 H 0.20620 -0.29810 0.17880
H21 H 0.12010 -0.28040 0.25580
N1 N 0.33480 -0.00600 0.20660
N2 N 0.30760 0.18110 0.38440
N3 N 0.15830 0.17400 0.20650
N4 N 0.30790 -0.18350 0.38680
N5 N 0.15930 -0.17330 0.20320
#END
