
#######################################################################
#
#                 Cambridge Crystallographic Data Centre
#                                CCDC
#
#######################################################################
#
# If this CIF has been generated from an entry in the Cambridge
# Structural Database, then it will include bibliographic, chemical,
# crystal, experimental, refinement or atomic coordinate data resulting
# from the CCDC's data processing and validation procedures.
#
#######################################################################

data_CSD_CIF_ENEZAY
_audit_creation_date 2004-03-25
_audit_creation_method CSD-ConQuest-V1
_database_code_CSD ENEZAY
_database_code_depnum_ccdc_archive 'CCDC 206433'
_chemical_formula_sum 'C19 H22 Fe1 N2 O1'
_chemical_formula_moiety
;
C19 H22 Fe1 N2 O1
;
_journal_coden_Cambridge 36
_journal_volume 684
_journal_year 2003
_journal_page_first 376
_journal_name_full 'J.Organomet.Chem. '
loop_
_publ_author_name
"H.Glas"
"A.-K.Pleier"
"E.Herdtweck"
"W.R.Thiel"
_chemical_name_systematic
;
trans-2-(3-Ferrocenylpyrazolyl)cyclohexanol
;
_chemical_melting_point 419.15
_cell_volume    810.253
_exptl_crystal_colour 'orange'
_exptl_crystal_density_diffrn 1.436
_exptl_crystal_description 'plates'
_exptl_crystal_preparation 'ethyl acetate/hexane'
_diffrn_ambient_temperature 293
#These two values have been output from a single CSD field.
_refine_ls_R_factor_gt 0.0192
_refine_ls_wR_factor_gt 0.0192
_symmetry_cell_setting monoclinic
_symmetry_space_group_name_H-M 'P 21'
_symmetry_Int_Tables_number 4
loop_
_symmetry_equiv_pos_site_id
_symmetry_equiv_pos_as_xyz
1 x,y,z
2 -x,1/2+y,-z
_cell_length_a 8.1967(5)
_cell_length_b 7.6889(3)
_cell_length_c 13.1201(9)
_cell_angle_alpha 90
_cell_angle_beta 101.508(8)
_cell_angle_gamma 90
_cell_formula_units_Z 2
loop_
_atom_type_symbol
_atom_type_radius_bond
C 0.68
H 0.23
Fe 1.34
N 0.68
O 0.68
loop_
_atom_site_label
_atom_site_type_symbol
_atom_site_fract_x
_atom_site_fract_y
_atom_site_fract_z
Fe1 Fe 0.21640(3) 0.21250(4) 0.87814(2)
O1 O 0.47484(14) 0.2192(4) 0.56094(10)
N1 N 0.12251(17) 0.1216(2) 0.50283(12)
N2 N 0.17983(17) 0.0813(2) 0.60400(12)
C1 C 0.0498(2) 0.1073(3) 0.65067(15)
C2 C -0.0899(2) 0.1621(2) 0.57876(15)
C3 C -0.0396(2) 0.1705(3) 0.48607(16)
C4 C 0.2382(2) 0.1112(3) 0.43048(14)
C5 C 0.1450(3) 0.1343(4) 0.31855(17)
C6 C 0.2653(3) 0.1240(4) 0.24366(17)
C7 C 0.4018(3) 0.2578(4) 0.27119(18)
C8 C 0.4947(2) 0.2320(5) 0.38280(15)
C9 C 0.3772(2) 0.2454(3) 0.45875(14)
C10 C 0.0658(2) 0.0765(2) 0.76238(15)
C11 C -0.0302(2) 0.1574(3) 0.82808(17)
C12 C 0.0267(3) 0.0950(3) 0.93122(19)
C13 C 0.1561(3) -0.0240(3) 0.92974(18)
C14 C 0.1819(3) -0.0357(3) 0.82622(18)
C15 C 0.3339(3) 0.3989(4) 0.8099(2)
C16 C 0.2475(3) 0.4760(3) 0.88105(18)
C17 C 0.3118(3) 0.4038(3) 0.97976(17)
C18 C 0.4363(3) 0.2840(3) 0.9704(2)
C19 C 0.4505(3) 0.2808(4) 0.8649(2)
H1 H 0.413(2) 0.180(3) 0.5934(16)
H2 H -0.195(2) 0.184(3) 0.5939(14)
H3 H -0.096(2) 0.190(4) 0.4198(16)
H4 H 0.288(2) 0.000(3) 0.4411(15)
H5 H 0.086(3) 0.242(4) 0.3092(19)
H6 H 0.062(3) 0.044(3) 0.3038(18)
H7 H 0.305(4) 0.005(4) 0.232(2)
H8 H 0.202(3) 0.148(3) 0.1788(19)
H9 H 0.355(3) 0.378(4) 0.2657(19)
H10 H 0.488(3) 0.253(4) 0.2225(17)
H11 H 0.547(3) 0.110(4) 0.392(2)
H12 H 0.582(4) 0.306(4) 0.402(2)
H13 H 0.331(3) 0.349(4) 0.4551(17)
H14 H -0.112(3) 0.237(4) 0.8059(15)
H15 H -0.005(4) 0.132(4) 0.990(2)
H16 H 0.217(3) -0.087(3) 0.986(2)
H17 H 0.253(3) -0.109(3) 0.8028(17)
H18 H 0.312(3) 0.419(3) 0.746(2)
H19 H 0.161(3) 0.551(4) 0.8678(19)
H20 H 0.276(3) 0.433(3) 1.0469(19)
H21 H 0.496(3) 0.208(6) 1.0187(17)
H22 H 0.510(3) 0.215(6) 0.838(2)
#END
