
#######################################################################
#
#                 Cambridge Crystallographic Data Centre
#                                CCDC
#
#######################################################################
#
# If this CIF has been generated from an entry in the Cambridge
# Structural Database, then it will include bibliographic, chemical,
# crystal, experimental, refinement or atomic coordinate data resulting
# from the CCDC's data processing and validation procedures.
#
#######################################################################

data_CSD_CIF_ENOZOY
_audit_creation_date 2016-05-31
_audit_creation_method CSD-ConQuest-V1
_database_code_CSD ENOZOY
_database_code_depnum_ccdc_archive 'CCDC 1449125'
_chemical_formula_sum 'C40 H39 Fe1 N2 O2 P3 Si1'
_chemical_formula_moiety
;
C40 H39 Fe1 N2 O2 P3 Si1
;
_journal_coden_Cambridge 222
_journal_volume 45
_journal_year 2016
_journal_page_first 10271
_journal_name_full 'Dalton Trans. '
loop_
_publ_author_name
"F.Wittkamp"
"C.Nagel"
"P.Lauterjung"
"B.Mallick"
"U.Schatzschneider"
"U.-P.Apfel"
_chemical_name_systematic
;
((methylsilanetriyl)tris(methylene))tris(diphenylphosphine)-dinitrosyl-iron
;
_cell_volume    914.956
_exptl_crystal_colour 'red'
_exptl_crystal_density_diffrn 1.373
_exptl_crystal_description 'prism'
_diffrn_ambient_temperature 112
#These two values have been output from a single CSD field.
_refine_ls_R_factor_gt 0.0233
_refine_ls_wR_factor_gt 0.0233
_symmetry_cell_setting triclinic
_symmetry_space_group_name_H-M 'P 1'
_symmetry_Int_Tables_number 1
loop_
_symmetry_equiv_pos_site_id
_symmetry_equiv_pos_as_xyz
1 x,y,z
_cell_length_a 9.2280(2)
_cell_length_b 9.2901(2)
_cell_length_c 12.6754(3)
_cell_angle_alpha 91.268(2)
_cell_angle_beta 110.400(2)
_cell_angle_gamma 113.798(2)
_cell_formula_units_Z 1
loop_
_atom_type_symbol
_atom_type_radius_bond
C 0.68
H 0.23
Fe 1.52
N 0.68
O 0.68
P 1.05
Si 1.20
loop_
_atom_site_label
_atom_site_type_symbol
_atom_site_fract_x
_atom_site_fract_y
_atom_site_fract_z
Fe1 Fe 0.57807(3) 0.79089(3) 0.64358(2)
P1 P 0.68243(5) 0.96254(5) 0.53788(4)
P2 P 0.74219(6) 0.51094(6) 0.34366(4)
P3 P 0.81174(5) 0.75192(5) 0.73301(4)
Si1 Si 0.93854(6) 0.82189(6) 0.52501(4)
O1 O 0.4864(2) 0.9092(2) 0.80789(15)
O2 O 0.3771(2) 0.53143(19) 0.45243(14)
N1 N 0.5304(2) 0.8661(2) 0.74021(15)
N2 N 0.4557(2) 0.6355(2) 0.53579(15)
C1 C 0.8588(2) 1.1624(2) 0.59977(16)
C2 C 0.9494(3) 1.2482(2) 0.53666(17)
H1 H 0.91380 1.20740 0.45960
C3 C 1.0926(3) 1.3942(2) 0.58770(19)
H2 H 1.15240 1.45080 0.54480
C4 C 1.1468(3) 1.4559(2) 0.70260(19)
H3 H 1.24490 1.55220 0.73740
C5 C 1.0542(3) 1.3735(3) 0.76515(18)
H4 H 1.08850 1.41610 0.84170
C6 C 0.9101(3) 1.2273(2) 0.71415(17)
H5 H 0.84790 1.17290 0.75640
C7 C 0.7530(2) 0.8708(2) 0.44960(16)
H6 H 0.78420 0.94210 0.39820
H7 H 0.65530 0.77240 0.40250
C8 C 0.9494(3) 0.6905(2) 0.41600(17)
H8 H 0.97930 0.75110 0.35930
H9 H 1.03900 0.65750 0.45360
C9 C 0.8891(2) 0.6933(2) 0.63301(16)
H10 H 0.80400 0.58680 0.59050
H11 H 0.99310 0.68410 0.67820
C10 C 1.1494(3) 1.0034(3) 0.58907(18)
H12 H 1.24010 0.97130 0.62020
H13 H 1.14890 1.06780 0.64910
H14 H 1.16780 1.06450 0.53090
C11 C 0.7978(3) 0.3735(2) 0.27793(16)
C12 C 0.6664(3) 0.2172(2) 0.23055(17)
H15 H 0.55810 0.19140 0.23090
C13 C 0.6954(3) 0.1020(3) 0.18374(18)
H16 H 0.60610 -0.00020 0.15120
C14 C 0.8566(3) 0.1366(3) 0.18461(19)
H17 H 0.87580 0.05790 0.15330
C15 C 0.9902(3) 0.2908(3) 0.23293(18)
H18 H 1.09920 0.31430 0.23490
C16 C 0.9602(3) 0.4086(2) 0.27787(17)
H19 H 1.04880 0.51160 0.30820
C17 C 0.9971(2) 0.9160(2) 0.84183(15)
C18 C 1.1661(3) 0.9483(3) 0.85902(17)
H20 H 1.18670 0.88330 0.81490
C19 C 1.3034(3) 1.0768(3) 0.94160(19)
H21 H 1.41550 1.09700 0.95310
C20 C 1.2739(3) 1.1755(3) 1.00729(19)
H22 H 1.36590 1.26340 1.06110
C21 C 1.1080(3) 1.1423(3) 0.99229(18)
H23 H 1.08810 1.20740 1.03690
C22 C 0.9695(3) 1.0123(2) 0.91112(17)
H24 H 0.85800 0.98950 0.90300
C23 C 0.6349(3) 0.5768(2) 0.21492(17)
C24 C 0.4726(3) 0.5647(3) 0.19621(18)
H25 H 0.42230 0.52470 0.24780
C25 C 0.3842(3) 0.6120(3) 0.1009(2)
H26 H 0.27650 0.60520 0.09000
C26 C 0.4569(3) 0.6690(3) 0.02241(19)
H27 H 0.39830 0.70070 -0.04130
C27 C 0.6172(3) 0.6785(3) 0.0397(2)
H28 H 0.66610 0.71520 -0.01320
C28 C 0.7055(3) 0.6333(3) 0.13560(19)
H29 H 0.81370 0.64100 0.14670
C29 C 0.7774(3) 0.5847(2) 0.81005(16)
C30 C 0.6272(3) 0.4422(3) 0.75860(19)
H30 H 0.54360 0.43680 0.68920
C31 C 0.6013(3) 0.3089(3) 0.8095(2)
H31 H 0.50220 0.21390 0.77320
C32 C 0.7226(3) 0.3164(3) 0.9149(2)
H32 H 0.70460 0.22700 0.94950
C33 C 0.8698(3) 0.4576(3) 0.96761(19)
H33 H 0.95060 0.46370 1.03860
C34 C 0.8984(3) 0.5911(3) 0.91564(17)
H34 H 0.99900 0.68510 0.95150
C35 C 0.5119(2) 0.9991(2) 0.43326(16)
C36 C 0.4909(3) 1.1353(2) 0.45473(18)
H35 H 0.56820 1.21200 0.52080
C37 C 0.3544(3) 1.1573(3) 0.3775(2)
H36 H 0.34040 1.24820 0.39250
C38 C 0.2399(3) 1.0444(3) 0.2789(2)
H37 H 0.14960 1.05980 0.22710
C39 C 0.2596(3) 0.9082(3) 0.25701(19)
H38 H 0.18240 0.83220 0.19050
C40 C 0.3942(3) 0.8846(3) 0.33398(18)
H39 H 0.40600 0.79220 0.31940
#END
