
#######################################################################
#
#                 Cambridge Crystallographic Data Centre
#                                CCDC
#
#######################################################################
#
# If this CIF has been generated from an entry in the Cambridge
# Structural Database, then it will include bibliographic, chemical,
# crystal, experimental, refinement or atomic coordinate data resulting
# from the CCDC's data processing and validation procedures.
#
#######################################################################

data_CSD_CIF_EPAXOJ
_audit_creation_date 2011-05-16
_audit_creation_method CSD-ConQuest-V1
_database_code_CSD EPAXOJ
_database_code_depnum_ccdc_archive 'CCDC 713378'
_chemical_formula_sum 'C6 H24 Au2 Br9 Co1 N6'
_chemical_formula_moiety
;
C6 H24 Co1 N6 3+,2(Au1 Br4 1-),Br1 1-
;
_journal_coden_Cambridge 82
_journal_volume 51
_journal_year 2010
_journal_page_first 192
_journal_name_full 'Zh.Strukt.Khim.(Russ.)(J.Struct.Chem.) '
loop_
_publ_author_name
"I.A.Baidina"
"E.V.Makotchenko"
_chemical_name_systematic
;
tris(1,2-Diaminoethane)cobalt(iii) bis(tetrabromo-gold(iii)) bromide
;
_cell_volume   2494.033
_exptl_crystal_colour 'red-brown'
_exptl_crystal_density_diffrn 3.602
_diffrn_ambient_temperature 295
#These two values have been output from a single CSD field.
_refine_ls_R_factor_gt 0.0234
_refine_ls_wR_factor_gt 0.0234
_symmetry_cell_setting monoclinic
_symmetry_space_group_name_H-M 'C 2/c'
_symmetry_Int_Tables_number 15
loop_
_symmetry_equiv_pos_site_id
_symmetry_equiv_pos_as_xyz
1 x,y,z
2 -x,y,1/2-z
3 1/2+x,1/2+y,z
4 1/2-x,1/2+y,1/2-z
5 -x,-y,-z
6 x,-y,-1/2+z
7 -1/2-x,-1/2-y,-z
8 -1/2+x,-1/2-y,-1/2+z
_cell_length_a 21.6479(17)
_cell_length_b 14.9085(12)
_cell_length_c 8.2676(7)
_cell_angle_alpha 90
_cell_angle_beta 110.820(2)
_cell_angle_gamma 90
_cell_formula_units_Z 4
loop_
_atom_type_symbol
_atom_type_radius_bond
C 0.68
H 0.23
Au 1.36
Br 1.21
Co 1.26
N 0.68
loop_
_atom_site_label
_atom_site_type_symbol
_atom_site_fract_x
_atom_site_fract_y
_atom_site_fract_z
Co1 Co 0.00000 0.29289(14) 0.25000
N1 N 0.0525(5) 0.3832(7) 0.1852(11)
H1 H 0.05520 0.36930 0.08210
H2 H 0.03310 0.43740 0.17630
N2 N 0.0700(5) 0.2992(7) 0.4816(11)
H3 H 0.05170 0.30370 0.56340
H4 H 0.09470 0.24890 0.50180
N3 N -0.0460(6) 0.1957(8) 0.3224(14)
H5 H -0.04080 0.20230 0.43470
H6 H -0.08950 0.19750 0.25950
C1 C 0.1194(6) 0.3859(10) 0.3196(16)
H7 H 0.14560 0.33600 0.30410
H8 H 0.14150 0.44120 0.31040
C2 C 0.1131(6) 0.3803(8) 0.4885(14)
H9 H 0.09270 0.43420 0.51210
H10 H 0.15610 0.37310 0.57850
C3 C -0.0187(14) 0.1117(12) 0.297(4)
H11 H 0.00700 0.08760 0.40960
H12 H -0.05500 0.07070 0.24360
Au1 Au 0.20073(2) 0.13033(3) 0.91564(6)
Br1 Br 0.32056(7) 0.12797(10) 1.03234(16)
Br2 Br 0.08067(7) 0.13182(10) 0.80385(18)
Br3 Br 0.20010(7) 0.11156(11) 1.20689(17)
Br4 Br 0.20181(7) 0.14978(11) 0.62372(17)
Br5 Br 0.00000 0.40349(12) 0.75000
N1A N -0.0525(5) 0.3832(7) 0.3148(11)
H1A H -0.05520 0.36930 0.41790
H2A H -0.03310 0.43740 0.32370
N2A N -0.0700(5) 0.2992(7) 0.0184(11)
H3A H -0.05170 0.30370 -0.06340
H4A H -0.09470 0.24890 -0.00180
N3A N 0.0460(6) 0.1957(8) 0.1776(14)
H5A H 0.04080 0.20230 0.06530
H6A H 0.08950 0.19750 0.24050
C1A C -0.1194(6) 0.3859(10) 0.1804(16)
H7A H -0.14560 0.33600 0.19590
H8A H -0.14150 0.44120 0.18960
C2A C -0.1131(6) 0.3803(8) 0.0115(14)
H9A H -0.09270 0.43420 -0.01210
H10A H -0.15610 0.37310 -0.07850
C3A C 0.0187(14) 0.1117(12) 0.203(4)
H11A H -0.00700 0.08760 0.09040
H12A H 0.05500 0.07070 0.25640
#END
