
#######################################################################
#
#                 Cambridge Crystallographic Data Centre
#                                CCDC
#
#######################################################################
#
# If this CIF has been generated from an entry in the Cambridge
# Structural Database, then it will include bibliographic, chemical,
# crystal, experimental, refinement or atomic coordinate data resulting
# from the CCDC's data processing and validation procedures.
#
#######################################################################

data_CSD_CIF_ERAFEJ
_audit_creation_date 2011-08-02
_audit_creation_method CSD-ConQuest-V1
_database_code_CSD ERAFEJ
_database_code_depnum_ccdc_archive 'CCDC 794920'
_chemical_formula_sum 'C16 H18 Cl2 Mn1 N4'
_chemical_formula_moiety
;
C16 H18 Cl2 Mn1 N4
;
_journal_coden_Cambridge 222
_journal_volume 40
_journal_year 2011
_journal_page_first 4048
_journal_name_full 'Dalton Trans. '
loop_
_publ_author_name
"C.M.Coates"
"K.Hagan"
"C.A.Mitchell"
"J.D.Gorden"
"C.R.Goldsmith"
_chemical_name_systematic
;
Dichloro-(N,N'-bis((6-methylpyridin-2-yl)methylene)ethane-1,2-diamine-N,N',N''
,N''')-manganese(ii)
;
_cell_volume   1734.805
_exptl_crystal_colour 'yellow'
_exptl_crystal_density_diffrn 1.502
_exptl_special_details
;
trans conformer

;
_exptl_crystal_description 'prism'
_diffrn_ambient_temperature 293
#These two values have been output from a single CSD field.
_refine_ls_R_factor_gt 0.044
_refine_ls_wR_factor_gt 0.044
_symmetry_cell_setting monoclinic
_symmetry_space_group_name_H-M 'C 2/c'
_symmetry_Int_Tables_number 15
loop_
_symmetry_equiv_pos_site_id
_symmetry_equiv_pos_as_xyz
1 x,y,z
2 -x,y,1/2-z
3 1/2+x,1/2+y,z
4 1/2-x,1/2+y,1/2-z
5 -x,-y,-z
6 x,-y,-1/2+z
7 -1/2-x,-1/2-y,-z
8 -1/2+x,-1/2-y,-1/2+z
_cell_length_a 12.0792(9)
_cell_length_b 9.6386(7)
_cell_length_c 15.2205(11)
_cell_angle_alpha 90
_cell_angle_beta 101.771(1)
_cell_angle_gamma 90
_cell_formula_units_Z 4
loop_
_atom_type_symbol
_atom_type_radius_bond
C 0.68
H 0.23
Cl 0.99
Mn 1.61
N 0.68
loop_
_atom_site_label
_atom_site_type_symbol
_atom_site_fract_x
_atom_site_fract_y
_atom_site_fract_z
Mn1 Mn 0.50000 0.21497(5) 0.75000
Cl1 Cl 0.58361(5) 0.16106(7) 0.62152(4)
N1 N 0.31887(17) 0.1495(2) 0.65223(14)
N2 N 0.3909(2) 0.4039(2) 0.71131(16)
C1 C 0.2505(2) 0.2602(3) 0.62846(18)
C2 C 0.1174(2) 0.1260(4) 0.52712(19)
H1 H 0.05030 0.11750 0.48480
C3 C 0.2869(2) 0.0279(3) 0.61448(18)
C4 C 0.1491(2) 0.2522(3) 0.56699(19)
H2 H 0.10340 0.33010 0.55290
C5 C 0.2920(2) 0.3946(3) 0.66670(19)
H3 H 0.24530 0.47210 0.65790
C6 C 0.1861(2) 0.0131(3) 0.55068(19)
H4 H 0.16590 -0.07280 0.52450
C7 C 0.4373(3) 0.5361(3) 0.7496(2)
H5 H 0.42470 0.54620 0.81020
H6 H 0.40070 0.61270 0.71370
C8 C 0.3630(3) -0.0943(3) 0.6420(2)
H7 H 0.32770 -0.17670 0.61380
H8 H 0.37650 -0.10490 0.70600
H9 H 0.43360 -0.07960 0.62370
Cl1A Cl 0.41639(5) 0.16106(7) 0.87848(4)
N1A N 0.68113(17) 0.1495(2) 0.84777(14)
N2A N 0.6091(2) 0.4039(2) 0.78869(16)
C1A C 0.7495(2) 0.2602(3) 0.87154(18)
C2A C 0.8826(2) 0.1260(4) 0.97288(19)
H1A H 0.94970 0.11750 1.01520
C3A C 0.7131(2) 0.0279(3) 0.88552(18)
C4A C 0.8509(2) 0.2522(3) 0.93301(19)
H2A H 0.89660 0.33010 0.94710
C5A C 0.7080(2) 0.3946(3) 0.83330(19)
H3A H 0.75470 0.47210 0.84210
C6A C 0.8139(2) 0.0131(3) 0.94932(19)
H4A H 0.83410 -0.07280 0.97550
C7A C 0.5627(3) 0.5361(3) 0.7504(2)
H5A H 0.57530 0.54620 0.68980
H6A H 0.59930 0.61270 0.78630
C8A C 0.6370(3) -0.0943(3) 0.8580(2)
H7A H 0.67230 -0.17670 0.88620
H8A H 0.62350 -0.10490 0.79400
H9A H 0.56640 -0.07960 0.87630
#END
