
#######################################################################
#
#                 Cambridge Crystallographic Data Centre
#                                CCDC
#
#######################################################################
#
# If this CIF has been generated from an entry in the Cambridge
# Structural Database, then it will include bibliographic, chemical,
# crystal, experimental, refinement or atomic coordinate data resulting
# from the CCDC's data processing and validation procedures.
#
#######################################################################

data_CSD_CIF_ERINID
_audit_creation_date 2011-07-18
_audit_creation_method CSD-ConQuest-V1
_database_code_CSD ERINID
_database_code_depnum_ccdc_archive 'CCDC 829952'
_chemical_formula_sum 'C8 H26 Cl6 Co1 In1 N6'
_chemical_formula_moiety
;
C8 H26 Co1 N6,Cl6 In1
;
_journal_coeditor_code "IUCr VM2092"
_journal_coden_Cambridge 1370
_journal_volume 67
_journal_year 2011
_journal_page_first m731
_journal_name_full 'Acta Crystallogr.,Sect.E:Struct.Rep.Online '
loop_
_publ_author_name
"Qihui Wu"
"Shangwen Chen"
"Cailing Zhang"
"Xia Zhi"
"Zelin Chen"
_chemical_name_systematic
;
bis(diethylenetriamine)-cobalt(iii) hexachloro-indium(iii)
;
_cell_volume   1960.617
_exptl_crystal_colour 'yellow'
_exptl_crystal_density_diffrn 2.008
_exptl_crystal_description 'block'
_diffrn_ambient_temperature 296
#These two values have been output from a single CSD field.
_refine_ls_R_factor_gt 0.0183
_refine_ls_wR_factor_gt 0.0183
_symmetry_cell_setting orthorhombic
_symmetry_space_group_name_H-M 'C c c m'
_symmetry_Int_Tables_number 66
loop_
_symmetry_equiv_pos_site_id
_symmetry_equiv_pos_as_xyz
1 x,y,z
2 -x,-y,z
3 -x,y,1/2-z
4 x,-y,1/2-z
5 1/2+x,1/2+y,z
6 1/2-x,1/2-y,z
7 1/2-x,1/2+y,1/2-z
8 1/2+x,1/2-y,1/2-z
9 -x,-y,-z
10 x,y,-z
11 x,-y,-1/2+z
12 -x,y,-1/2+z
13 -1/2-x,-1/2-y,-z
14 -1/2+x,-1/2+y,-z
15 -1/2+x,-1/2-y,-1/2+z
16 -1/2-x,-1/2+y,-1/2+z
_cell_length_a 10.8925(5)
_cell_length_b 14.7291(7)
_cell_length_c 12.2205(6)
_cell_angle_alpha 90
_cell_angle_beta 90
_cell_angle_gamma 90
_cell_formula_units_Z 4
loop_
_atom_type_symbol
_atom_type_radius_bond
C 0.68
H 0.23
Cl 0.99
Co 1.26
In 1.42
N 0.68
loop_
_atom_site_label
_atom_site_type_symbol
_atom_site_fract_x
_atom_site_fract_y
_atom_site_fract_z
In1 In -0.25000 -0.25000 0.00000
Co1 Co -0.25000 0.25000 0.00000
Cl1 Cl -0.38483(5) -0.31981(4) 0.14285(4)
Cl2 Cl -0.38713(6) -0.11293(4) 0.00000
N1 N -0.35382(15) 0.19629(10) 0.11486(13)
H1 H -0.34470 0.22820 0.17720
H2 H -0.43310 0.19990 0.09450
N2 N -0.1606(2) 0.13392(14) 0.00000
H3 H -0.07890 0.14660 0.00000
C1 C -0.18921(19) 0.08352(13) 0.10310(16)
H4 H -0.13530 0.10410 0.16120
H5 H -0.17530 0.01910 0.09210
C2 C -0.32142(19) 0.09943(13) 0.13544(17)
H6 H -0.37480 0.06010 0.09310
H7 H -0.33260 0.08530 0.21230
Cl1E Cl -0.11517(5) -0.18019(4) 0.14285(4)
Cl1I Cl -0.38483(5) -0.31981(4) -0.14285(4)
Cl1L Cl -0.11517(5) -0.18019(4) -0.14285(4)
Cl2E Cl -0.11287(6) -0.38707(4) 0.00000
N1I N -0.35382(15) 0.19629(10) -0.11486(13)
N1E N -0.14618(15) 0.30371(10) 0.11486(13)
N1L N -0.14618(15) 0.30371(10) -0.11486(13)
H1I H -0.34470 0.22820 -0.17720
H1E H -0.15530 0.27180 0.17720
H1L H -0.15530 0.27180 -0.17720
H2I H -0.43310 0.19990 -0.09450
H2E H -0.06690 0.30010 0.09450
H2L H -0.06690 0.30010 -0.09450
N2E N -0.3394(2) 0.36608(14) 0.00000
H3E H -0.42110 0.35340 0.00000
C1I C -0.18921(19) 0.08352(13) -0.10310(16)
C1E C -0.31079(19) 0.41648(13) 0.10310(16)
C1L C -0.31079(19) 0.41648(13) -0.10310(16)
H4I H -0.13530 0.10410 -0.16120
H4E H -0.36470 0.39590 0.16120
H4L H -0.36470 0.39590 -0.16120
H5I H -0.17530 0.01910 -0.09210
H5E H -0.32470 0.48090 0.09210
H5L H -0.32470 0.48090 -0.09210
C2I C -0.32142(19) 0.09943(13) -0.13544(17)
C2E C -0.17858(19) 0.40057(13) 0.13544(17)
C2L C -0.17858(19) 0.40057(13) -0.13544(17)
H6I H -0.37480 0.06010 -0.09310
H6E H -0.12520 0.43990 0.09310
H6L H -0.12520 0.43990 -0.09310
H7I H -0.33260 0.08530 -0.21230
H7E H -0.16740 0.41470 0.21230
H7L H -0.16740 0.41470 -0.21230
#END
