
#######################################################################
#
#                 Cambridge Crystallographic Data Centre
#                                CCDC
#
#######################################################################
#
# If this CIF has been generated from an entry in the Cambridge
# Structural Database, then it will include bibliographic, chemical,
# crystal, experimental, refinement or atomic coordinate data resulting
# from the CCDC's data processing and validation procedures.
#
#######################################################################

data_CSD_CIF_ETAQAS
_audit_creation_date 2011-09-23
_audit_creation_method CSD-ConQuest-V1
_database_code_CSD ETAQAS
_database_code_depnum_ccdc_archive 'CCDC 813709'
_chemical_formula_sum 'C32 H48 Co1 N4 O6 P2 Se2'
_chemical_formula_moiety
;
C32 H48 Co1 N4 O6 P2 Se2
;
_journal_coden_Cambridge 211
_journal_volume 64
_journal_year 2011
_journal_page_first 2631
_journal_name_full 'J.Coord.Chem. '
loop_
_publ_author_name
"S.C.Bajia"
"R.J.Butcher"
_chemical_name_systematic
;
bis(O,O-diisopropyl monoselenophosphato)-tetrapyridyl-cobalt(ii)
;
_cell_volume    983.936
_exptl_crystal_colour 'blue'
_exptl_crystal_density_diffrn 1.451
_exptl_crystal_description 'plate'
_diffrn_ambient_temperature 150
#These two values have been output from a single CSD field.
_refine_ls_R_factor_gt 0.0332
_refine_ls_wR_factor_gt 0.0332
_symmetry_cell_setting triclinic
_symmetry_space_group_name_H-M 'P -1'
_symmetry_Int_Tables_number 2
loop_
_symmetry_equiv_pos_site_id
_symmetry_equiv_pos_as_xyz
1 x,y,z
2 -x,-y,-z
_cell_length_a 9.1302(4)
_cell_length_b 10.2168(4)
_cell_length_c 11.9619(5)
_cell_angle_alpha 88.533(2)
_cell_angle_beta 71.534(2)
_cell_angle_gamma 69.103(2)
_cell_formula_units_Z 1
loop_
_atom_type_symbol
_atom_type_radius_bond
C 0.68
H 0.23
Co 1.26
N 0.68
O 0.68
P 1.05
Se 1.22
loop_
_atom_site_label
_atom_site_type_symbol
_atom_site_fract_x
_atom_site_fract_y
_atom_site_fract_z
Co1 Co 0.00000 0.50000 0.50000
Se1 Se -0.49821(3) 0.76238(3) 0.82217(2)
P1 P -0.23870(7) 0.67968(6) 0.78579(5)
O1 O -0.13463(18) 0.58234(15) 0.67538(13)
O2 O -0.1637(2) 0.79944(15) 0.77750(14)
O3 O -0.19151(19) 0.60723(16) 0.89615(14)
N1 N -0.1199(2) 0.69582(18) 0.43443(16)
N2 N -0.1876(2) 0.41623(18) 0.49500(16)
C1 C -0.2368(3) 0.9187(2) 0.8688(2)
C2 C -0.1026(4) 0.9186(4) 0.9156(3)
H1 H -0.05880 0.82810 0.94620
H2 H -0.14830 0.99470 0.97950
H3 H -0.01290 0.93300 0.85170
C3 C -0.3030(5) 1.0503(3) 0.8125(3)
H4 H -0.21180 1.06200 0.74810
H5 H -0.35360 1.13180 0.87200
H6 H -0.38670 1.04300 0.78070
C4 C -0.2766(3) 0.5240(2) 0.9696(2)
C5 C -0.2657(5) 0.5409(4) 1.0909(3)
H7 H -0.14910 0.50210 1.08690
H8 H -0.32730 0.49060 1.14530
H9 H -0.31360 0.64110 1.11970
C6 C -0.1978(5) 0.3729(3) 0.9192(3)
H10 H -0.19560 0.36670 0.83700
H11 H -0.26210 0.31960 0.96610
H12 H -0.08400 0.33350 0.92150
C7 C -0.1571(3) 0.7019(2) 0.3338(2)
H13 H -0.12440 0.61640 0.28660
C8 C -0.2405(3) 0.8262(3) 0.2959(2)
H14 H -0.26470 0.82560 0.22440
C9 C -0.2880(4) 0.9508(3) 0.3621(3)
H15 H -0.34730 1.03770 0.33850
C10 C -0.2473(5) 0.9462(3) 0.4638(3)
H16 H -0.27590 1.03080 0.51090
C11 C -0.1645(3) 0.8178(2) 0.4968(2)
H17 H -0.13800 0.81650 0.56760
C12 C -0.2021(3) 0.3790(2) 0.3936(2)
H18 H -0.12730 0.38940 0.32100
C13 C -0.3200(3) 0.3263(2) 0.3890(2)
H19 H -0.32660 0.30260 0.31490
C14 C -0.4274(3) 0.3084(2) 0.4925(2)
H20 H -0.51000 0.27270 0.49190
C15 C -0.4123(3) 0.3436(2) 0.5979(2)
H21 H -0.48350 0.33090 0.67130
C16 C -0.2924(3) 0.3974(2) 0.5956(2)
H22 H -0.28400 0.42220 0.66870
Se1A Se 0.49821(3) 0.23762(3) 0.17783(2)
P1A P 0.23870(7) 0.32032(6) 0.21421(5)
O1A O 0.13463(18) 0.41766(15) 0.32462(13)
O2A O 0.1637(2) 0.20056(15) 0.22250(14)
O3A O 0.19151(19) 0.39277(16) 0.10385(14)
N1A N 0.1199(2) 0.30418(18) 0.56557(16)
N2A N 0.1876(2) 0.58377(18) 0.50500(16)
C1A C 0.2368(3) 0.0813(2) 0.1312(2)
C2A C 0.1026(4) 0.0814(4) 0.0844(3)
H1A H 0.05880 0.17190 0.05380
H2A H 0.14830 0.00530 0.02050
H3A H 0.01290 0.06700 0.14830
C3A C 0.3030(5) -0.0503(3) 0.1875(3)
H4A H 0.21180 -0.06200 0.25190
H5A H 0.35360 -0.13180 0.12800
H6A H 0.38670 -0.04300 0.21930
C4A C 0.2766(3) 0.4760(2) 0.0304(2)
C5A C 0.2657(5) 0.4591(4) -0.0909(3)
H7A H 0.14910 0.49790 -0.08690
H8A H 0.32730 0.50940 -0.14530
H9A H 0.31360 0.35890 -0.11970
C6A C 0.1978(5) 0.6271(3) 0.0808(3)
H10A H 0.19560 0.63330 0.16300
H11A H 0.26210 0.68040 0.03390
H12A H 0.08400 0.66650 0.07850
C7A C 0.1571(3) 0.2981(2) 0.6662(2)
H13A H 0.12440 0.38360 0.71340
C8A C 0.2405(3) 0.1738(3) 0.7041(2)
H14A H 0.26470 0.17440 0.77560
C9A C 0.2880(4) 0.0492(3) 0.6379(3)
H15A H 0.34730 -0.03770 0.66150
C10A C 0.2473(5) 0.0538(3) 0.5362(3)
H16A H 0.27590 -0.03080 0.48910
C11A C 0.1645(3) 0.1822(2) 0.5032(2)
H17A H 0.13800 0.18350 0.43240
C12A C 0.2021(3) 0.6210(2) 0.6064(2)
H18A H 0.12730 0.61060 0.67900
C13A C 0.3200(3) 0.6737(2) 0.6110(2)
H19A H 0.32660 0.69740 0.68510
C14A C 0.4274(3) 0.6916(2) 0.5075(2)
H20A H 0.51000 0.72730 0.50810
C15A C 0.4123(3) 0.6564(2) 0.4021(2)
H21A H 0.48350 0.66910 0.32870
C16A C 0.2924(3) 0.6026(2) 0.4044(2)
H22A H 0.28400 0.57780 0.33130
#END
