
#######################################################################
#
#                 Cambridge Crystallographic Data Centre
#                                CCDC
#
#######################################################################
#
# If this CIF has been generated from an entry in the Cambridge
# Structural Database, then it will include bibliographic, chemical,
# crystal, experimental, refinement or atomic coordinate data resulting
# from the CCDC's data processing and validation procedures.
#
#######################################################################

data_CSD_CIF_ETECAI
_audit_creation_date 2011-08-30
_audit_creation_method CSD-ConQuest-V1
_database_code_CSD ETECAI
_database_code_depnum_ccdc_archive 'CCDC 818775'
_chemical_formula_sum 'C24 H24 Fe1 N6 O2 S2'
_chemical_formula_moiety
;
C24 H24 Fe1 N6 O2 S2
;
_journal_coden_Cambridge 1350
_journal_volume 13
_journal_year 2011
_journal_page_first 4909
_journal_name_full 'CrystEngComm '
loop_
_publ_author_name
"C.J.Adams"
"M.F.Haddow"
"D.J.Harding"
"T.J.Podesta"
"R.E.Waddington"
_chemical_name_systematic
;
bis(3,3'-Bipyridine)-di-isothiocyanato-bis(methanol)-iron(ii)
;
_cell_volume    618.181
_exptl_crystal_colour 'yellow'
_exptl_crystal_density_diffrn 1.473
_exptl_crystal_description 'plate'
_diffrn_ambient_temperature 200
#These two values have been output from a single CSD field.
_refine_ls_R_factor_gt 0.0255
_refine_ls_wR_factor_gt 0.0255
_symmetry_cell_setting triclinic
_symmetry_space_group_name_H-M 'P -1'
_symmetry_Int_Tables_number 2
loop_
_symmetry_equiv_pos_site_id
_symmetry_equiv_pos_as_xyz
1 x,y,z
2 -x,-y,-z
_cell_length_a 8.2933(3)
_cell_length_b 9.0510(3)
_cell_length_c 9.0781(3)
_cell_angle_alpha 97.574(2)
_cell_angle_beta 96.833(2)
_cell_angle_gamma 111.473(2)
_cell_formula_units_Z 1
loop_
_atom_type_symbol
_atom_type_radius_bond
C 0.68
H 0.23
Fe 1.52
N 0.68
O 0.68
S 1.02
loop_
_atom_site_label
_atom_site_type_symbol
_atom_site_fract_x
_atom_site_fract_y
_atom_site_fract_z
Fe1 Fe 0.00000 0.00000 0.00000
N1 N -0.17670(15) -0.23167(13) -0.16297(12)
N2 N -0.07285(17) -0.37885(15) -0.76038(14)
N3 N -0.18328(16) -0.04871(15) 0.14979(14)
O1 O -0.12052(14) 0.14040(13) -0.10220(12)
S1 S -0.30106(5) -0.03965(4) 0.42569(4)
C1 C -0.3010(2) -0.34413(18) -0.11028(17)
H1 H -0.32080 -0.31790 -0.01100
C2 C -0.4010(2) -0.4959(2) -0.19439(18)
H2 H -0.48900 -0.57160 -0.15390
C3 C -0.3724(2) -0.53730(17) -0.33792(17)
H3 H -0.43990 -0.64190 -0.39670
C4 C -0.24359(16) -0.42419(15) -0.39556(14)
C5 C -0.15124(17) -0.27286(15) -0.30307(14)
H4 H -0.06460 -0.19380 -0.34180
C6 C -0.10905(18) -0.34645(16) -0.62261(15)
H5 H -0.06660 -0.23660 -0.57300
C7 C -0.20585(16) -0.46543(15) -0.54800(14)
C8 C -0.2645(2) -0.62550(17) -0.62251(17)
H6 H -0.32860 -0.71090 -0.57550
C9 C -0.2290(2) -0.65964(18) -0.76504(18)
H7 H -0.26950 -0.76830 -0.81740
C10 C -0.1339(2) -0.53358(19) -0.83012(18)
H8 H -0.11090 -0.55760 -0.92860
C11 C -0.3019(2) 0.0889(2) -0.16525(19)
H9 H -0.32240 0.17690 -0.20570
H10 H -0.37280 0.05920 -0.08670
H11 H -0.33570 -0.00510 -0.24680
C12 C -0.23444(17) -0.04761(15) 0.26411(15)
H12 H -0.064(3) 0.205(3) -0.147(2)
N1A N 0.17670(15) 0.23167(13) 0.16297(12)
N2A N 0.07285(17) 0.37885(15) 0.76038(14)
N3A N 0.18328(16) 0.04871(15) -0.14979(14)
O1A O 0.12052(14) -0.14040(13) 0.10220(12)
S1A S 0.30106(5) 0.03965(4) -0.42569(4)
C1A C 0.3010(2) 0.34413(18) 0.11028(17)
H1A H 0.32080 0.31790 0.01100
C2A C 0.4010(2) 0.4959(2) 0.19439(18)
H2A H 0.48900 0.57160 0.15390
C3A C 0.3724(2) 0.53730(17) 0.33792(17)
H3A H 0.43990 0.64190 0.39670
C4A C 0.24359(16) 0.42419(15) 0.39556(14)
C5A C 0.15124(17) 0.27286(15) 0.30307(14)
H4A H 0.06460 0.19380 0.34180
C6A C 0.10905(18) 0.34645(16) 0.62261(15)
H5A H 0.06660 0.23660 0.57300
C7A C 0.20585(16) 0.46543(15) 0.54800(14)
C8A C 0.2645(2) 0.62550(17) 0.62251(17)
H6A H 0.32860 0.71090 0.57550
C9A C 0.2290(2) 0.65964(18) 0.76504(18)
H7A H 0.26950 0.76830 0.81740
C10A C 0.1339(2) 0.53358(19) 0.83012(18)
H8A H 0.11090 0.55760 0.92860
C11A C 0.3019(2) -0.0889(2) 0.16525(19)
H9A H 0.32240 -0.17690 0.20570
H10A H 0.37280 -0.05920 0.08670
H11A H 0.33570 0.00510 0.24680
C12A C 0.23444(17) 0.04761(15) -0.26411(15)
H12A H 0.064(3) -0.205(3) 0.147(2)
#END
