
#######################################################################
#
#                 Cambridge Crystallographic Data Centre
#                                CCDC
#
#######################################################################
#
# If this CIF has been generated from an entry in the Cambridge
# Structural Database, then it will include bibliographic, chemical,
# crystal, experimental, refinement or atomic coordinate data resulting
# from the CCDC's data processing and validation procedures.
#
#######################################################################

data_CSD_CIF_ETECEM
_audit_creation_date 2011-08-30
_audit_creation_method CSD-ConQuest-V1
_database_code_CSD ETECEM
_database_code_depnum_ccdc_archive 'CCDC 818776'
_chemical_formula_sum 'C24 H24 Fe1 N6 O2 Se2'
_chemical_formula_moiety
;
C24 H24 Fe1 N6 O2 Se2
;
_journal_coden_Cambridge 1350
_journal_volume 13
_journal_year 2011
_journal_page_first 4909
_journal_name_full 'CrystEngComm '
loop_
_publ_author_name
"C.J.Adams"
"M.F.Haddow"
"D.J.Harding"
"T.J.Podesta"
"R.E.Waddington"
_chemical_name_systematic
;
bis(3,3'-Bipyridine)-bis(isoselenocyanato)-bis(methanol)-iron(ii)
;
_cell_volume    642.689
_exptl_crystal_colour 'yellow'
_exptl_crystal_density_diffrn 1.659
_exptl_crystal_description 'prism'
_diffrn_ambient_temperature 200
#These two values have been output from a single CSD field.
_refine_ls_R_factor_gt 0.0175
_refine_ls_wR_factor_gt 0.0175
_symmetry_cell_setting triclinic
_symmetry_space_group_name_H-M 'P -1'
_symmetry_Int_Tables_number 2
loop_
_symmetry_equiv_pos_site_id
_symmetry_equiv_pos_as_xyz
1 x,y,z
2 -x,-y,-z
_cell_length_a 8.6187(4)
_cell_length_b 8.9469(4)
_cell_length_c 9.1211(4)
_cell_angle_alpha 94.987(2)
_cell_angle_beta 111.423(2)
_cell_angle_gamma 97.270(2)
_cell_formula_units_Z 1
loop_
_atom_type_symbol
_atom_type_radius_bond
C 0.68
H 0.23
Fe 1.52
N 0.68
O 0.68
Se 1.22
loop_
_atom_site_label
_atom_site_type_symbol
_atom_site_fract_x
_atom_site_fract_y
_atom_site_fract_z
Fe1 Fe 0.00000 0.50000 0.00000
Se1 Se 0.320363(19) 0.064462(15) 0.046023(16)
O1 O 0.11314(14) 0.59509(13) -0.14836(14)
C1 C 0.23145(16) 0.23360(15) 0.05107(15)
C2 C 0.19974(17) 1.03305(15) 0.45578(15)
N1 N 0.16949(16) 0.34171(14) 0.04814(14)
N2 N 0.17940(15) 0.65836(13) 0.22177(13)
N3 N 0.06651(17) 1.24947(14) 0.37486(15)
C3 C 0.24303(17) 0.88468(14) 0.41220(15)
C4 C 0.14750(17) 0.79387(15) 0.26646(15)
H1 H 0.05420 0.83050 0.19460
C5 C 0.10596(18) 1.11419(16) 0.34071(16)
H2 H 0.06790 1.07110 0.23200
C6 C 0.1220(2) 1.31016(18) 0.52841(19)
H3 H 0.09650 1.40690 0.55400
C7 C 0.2534(2) 1.09814(17) 0.61436(16)
H4 H 0.31630 1.04650 0.69710
C8 C 0.3810(2) 0.83071(17) 0.51491(17)
H5 H 0.44970 0.88840 0.61560
C9 C 0.2144(2) 1.23824(19) 0.65045(18)
H6 H 0.25100 1.28430 0.75800
C10 C 0.3138(2) 0.60948(17) 0.32321(19)
H7 H 0.33890 0.51380 0.29340
C11 C 0.2891(2) 0.6468(2) -0.1076(2)
H8 H 0.32850 0.73480 -0.02350
H9 H 0.30770 0.67640 -0.20170
H10 H 0.35210 0.56480 -0.06970
C12 C 0.4169(2) 0.69228(18) 0.4688(2)
H11 H 0.51170 0.65450 0.53670
H12 H 0.061(3) 0.647(3) -0.211(3)
Se1A Se -0.320363(19) 0.935538(15) -0.046023(16)
O1A O -0.11314(14) 0.40491(13) 0.14836(14)
C1A C -0.23145(16) 0.76640(15) -0.05107(15)
C2A C -0.19974(17) -0.03305(15) -0.45578(15)
N1A N -0.16949(16) 0.65829(14) -0.04814(14)
N2A N -0.17940(15) 0.34164(13) -0.22177(13)
N3A N -0.06651(17) -0.24947(14) -0.37486(15)
C3A C -0.24303(17) 0.11532(14) -0.41220(15)
C4A C -0.14750(17) 0.20613(15) -0.26646(15)
H1A H -0.05420 0.16950 -0.19460
C5A C -0.10596(18) -0.11419(16) -0.34071(16)
H2A H -0.06790 -0.07110 -0.23200
C6A C -0.1220(2) -0.31016(18) -0.52841(19)
H3A H -0.09650 -0.40690 -0.55400
C7A C -0.2534(2) -0.09814(17) -0.61436(16)
H4A H -0.31630 -0.04650 -0.69710
C8A C -0.3810(2) 0.16929(17) -0.51491(17)
H5A H -0.44970 0.11160 -0.61560
C9A C -0.2144(2) -0.23824(19) -0.65045(18)
H6A H -0.25100 -0.28430 -0.75800
C10A C -0.3138(2) 0.39052(17) -0.32321(19)
H7A H -0.33890 0.48620 -0.29340
C11A C -0.2891(2) 0.3532(2) 0.1076(2)
H8A H -0.32850 0.26520 0.02350
H9A H -0.30770 0.32360 0.20170
H10A H -0.35210 0.43520 0.06970
C12A C -0.4169(2) 0.30772(18) -0.4688(2)
H11A H -0.51170 0.34550 -0.53670
H12A H -0.061(3) 0.353(3) 0.211(3)
#END
