
#######################################################################
#
#                 Cambridge Crystallographic Data Centre
#                                CCDC
#
#######################################################################
#
# If this CIF has been generated from an entry in the Cambridge
# Structural Database, then it will include bibliographic, chemical,
# crystal, experimental, refinement or atomic coordinate data resulting
# from the CCDC's data processing and validation procedures.
#
#######################################################################

data_CSD_CIF_ETOROV
_audit_creation_date 2011-08-04
_audit_creation_method CSD-ConQuest-V1
_database_code_CSD ETOROV
_database_code_depnum_ccdc_archive 'CCDC 834139'
_chemical_formula_sum 'C20 H32 Mn1 N6 O12'
_chemical_formula_moiety
;
C14 H18 Mn1 N4 O10,2(C3 H7 N1 O1)
;
_journal_coeditor_code "IUCr GK2378"
_journal_coden_Cambridge 1370
_journal_volume 67
_journal_year 2011
_journal_page_first m828
_journal_name_full 'Acta Crystallogr.,Sect.E:Struct.Rep.Online '
loop_
_publ_author_name
"Gang Zhang"
"Yong Wang"
_chemical_name_systematic
;
bis(4-carboxy-2-ethyl-1H-imidazole-5-carboxylato)-diaqua-manganese(ii) 
N,N-dimethylformamide solvate
;
_cell_volume    693.885
_exptl_crystal_colour 'colorless'
_exptl_crystal_density_diffrn 1.444
_exptl_crystal_description 'block'
_diffrn_ambient_temperature 296
#These two values have been output from a single CSD field.
_refine_ls_R_factor_gt 0.0342
_refine_ls_wR_factor_gt 0.0342
_symmetry_cell_setting triclinic
_symmetry_space_group_name_H-M 'P -1'
_symmetry_Int_Tables_number 2
loop_
_symmetry_equiv_pos_site_id
_symmetry_equiv_pos_as_xyz
1 x,y,z
2 -x,-y,-z
_cell_length_a 7.3246(2)
_cell_length_b 9.0070(2)
_cell_length_c 12.0541(3)
_cell_angle_alpha 68.841(1)
_cell_angle_beta 77.780(1)
_cell_angle_gamma 70.132(1)
_cell_formula_units_Z 1
loop_
_atom_type_symbol
_atom_type_radius_bond
C 0.68
H 0.23
Mn 1.61
N 0.68
O 0.68
loop_
_atom_site_label
_atom_site_type_symbol
_atom_site_fract_x
_atom_site_fract_y
_atom_site_fract_z
Mn1 Mn 1.00000 0.00000 0.00000
O1 O 0.5096(2) 0.68752(18) 0.13763(14)
O2 O 0.6923(2) 0.70548(17) -0.03711(13)
O3 O 0.8948(3) 0.52116(18) -0.15377(14)
H1 H 0.82840 0.58340 -0.11540
O4 O 0.9962(2) 0.25098(18) -0.12795(13)
O5 O 0.3937(3) 0.3980(3) 0.39973(17)
N1 N 0.8058(2) 0.17558(19) 0.09645(15)
N2 N 0.6175(3) 0.3399(2) 0.19823(15)
H2 H 0.54130 0.37180 0.25540
N3 N 0.2062(3) 0.5787(3) 0.49596(18)
C1 C 0.6958(3) 0.1811(3) 0.19781(18)
C2 C 0.6797(3) 0.4415(2) 0.09255(17)
C3 C 0.7965(3) 0.3374(2) 0.02988(17)
C4 C 0.6210(3) 0.6249(2) 0.06428(18)
C5 C 0.9031(3) 0.3697(2) -0.09070(17)
C6 C 0.6624(4) 0.0344(3) 0.2986(2)
H3 H 0.74100 -0.06560 0.27920
H4 H 0.70800 0.03220 0.36930
C7 C 0.4567(6) 0.0304(5) 0.3278(4)
H5 H 0.37570 0.13200 0.34230
H6 H 0.44660 -0.06200 0.39800
H7 H 0.41450 0.01870 0.26200
C8 C 0.2127(5) 0.4520(5) 0.6120(2)
H8 H 0.28520 0.34540 0.60290
H9 H 0.08220 0.45080 0.64640
H10 H 0.27480 0.47610 0.66340
C9 C 0.1012(6) 0.7462(5) 0.4934(4)
H11 H 0.09530 0.81740 0.41200
H12 H 0.16680 0.78290 0.53500
H13 H -0.02880 0.75050 0.53150
C10 C 0.2976(4) 0.5403(4) 0.3999(2)
H14 H 0.28970 0.62540 0.32720
O6 O 0.7541(2) 0.0082(2) -0.07777(18)
H15 H 0.74070 -0.08520 -0.05600
H16 H 0.66110 0.08950 -0.08980
O1A O 1.4904(2) -0.68752(18) -0.13763(14)
O2A O 1.3077(2) -0.70548(17) 0.03711(13)
O3A O 1.1052(3) -0.52116(18) 0.15377(14)
H1A H 1.17160 -0.58340 0.11540
O4A O 1.0038(2) -0.25098(18) 0.12795(13)
N1A N 1.1942(2) -0.17558(19) -0.09645(15)
N2A N 1.3825(3) -0.3399(2) -0.19823(15)
H2A H 1.45870 -0.37180 -0.25540
C1A C 1.3042(3) -0.1811(3) -0.19781(18)
C2A C 1.3203(3) -0.4415(2) -0.09255(17)
C3A C 1.2035(3) -0.3374(2) -0.02988(17)
C4A C 1.3790(3) -0.6249(2) -0.06428(18)
C5A C 1.0969(3) -0.3697(2) 0.09070(17)
C6A C 1.3376(4) -0.0344(3) -0.2986(2)
H3A H 1.25900 0.06560 -0.27920
H4A H 1.29200 -0.03220 -0.36930
C7A C 1.5433(6) -0.0304(5) -0.3278(4)
H5A H 1.62430 -0.13200 -0.34230
H6A H 1.55340 0.06200 -0.39800
H7A H 1.58550 -0.01870 -0.26200
O6A O 1.2459(2) -0.0082(2) 0.07777(18)
H15A H 1.25930 0.08520 0.05600
H16A H 1.33890 -0.08950 0.08980
#END
