
#######################################################################
#
#                 Cambridge Crystallographic Data Centre
#                                CCDC
#
#######################################################################
#
# If this CIF has been generated from an entry in the Cambridge
# Structural Database, then it will include bibliographic, chemical,
# crystal, experimental, refinement or atomic coordinate data resulting
# from the CCDC's data processing and validation procedures.
#
#######################################################################

data_CSD_CIF_ETUSOC01
_audit_creation_date 2012-09-03
_audit_creation_method CSD-ConQuest-V1
_database_code_CSD ETUSOC01
_database_code_depnum_ccdc_archive 'CCDC 896544'
_chemical_formula_sum 'C10 H10 Fe1 N4 O10'
_chemical_formula_moiety
;
C10 H10 Fe1 N4 O10
;
_journal_coeditor_code "IUCr FJ2571"
_journal_coden_Cambridge 1370
_journal_volume 68
_journal_year 2012
_journal_page_first m1093
_journal_name_full 'Acta Crystallogr.,Sect.E:Struct.Rep.Online '
loop_
_publ_author_name
"E.Ohshima"
"K.Yoshida"
"K.Sugiyama"
"H.Uekusa"
_chemical_name_systematic
;
Diaqua-bis(5-carboxy-1H-imidazole-4-carboxylato-N^3^,O^4^)-iron(ii)
;
_cell_volume    363.519
_exptl_crystal_colour 'yellow'
_exptl_crystal_density_diffrn 1.837
_exptl_special_details
;
triclinic polymorph

;
_exptl_crystal_description 'block'
_diffrn_ambient_temperature 298
#These two values have been output from a single CSD field.
_refine_ls_R_factor_gt 0.0414
_refine_ls_wR_factor_gt 0.0414
_symmetry_cell_setting triclinic
_symmetry_space_group_name_H-M 'P -1'
_symmetry_Int_Tables_number 2
loop_
_symmetry_equiv_pos_site_id
_symmetry_equiv_pos_as_xyz
1 x,y,z
2 -x,-y,-z
_cell_length_a 4.9290(5)
_cell_length_b 6.4258(6)
_cell_length_c 12.2812(10)
_cell_angle_alpha 78.161(3)
_cell_angle_beta 85.175(3)
_cell_angle_gamma 72.776(4)
_cell_formula_units_Z 1
loop_
_atom_type_symbol
_atom_type_radius_bond
C 0.68
H 0.23
Fe 1.52
N 0.68
O 0.68
loop_
_atom_site_label
_atom_site_type_symbol
_atom_site_fract_x
_atom_site_fract_y
_atom_site_fract_z
Fe1 Fe 0.00000 0.00000 0.00000
O1 O 0.3576(5) -0.2580(4) 0.06771(17)
H1 H 0.297(7) -0.370(6) 0.097(2)
H2 H 0.489(7) -0.278(6) 0.026(3)
N1 N 0.1698(5) -0.0023(4) -0.16828(18)
C1 C 0.3247(6) 0.0920(5) -0.2439(2)
H3 H 0.40990 0.19670 -0.23230
N2 N 0.3439(5) 0.0184(4) -0.33916(18)
H4 H 0.43460 0.05980 -0.39860
C2 C 0.1936(6) -0.1351(5) -0.3258(2)
C3 C 0.0869(6) -0.1468(4) -0.2178(2)
C4 C 0.1805(6) -0.2443(5) -0.4200(2)
O2 O 0.3050(5) -0.2040(4) -0.50906(15)
O3 O 0.0250(6) -0.3870(4) -0.40319(18)
H5 H -0.04790 -0.39170 -0.34050
C5 C -0.0966(6) -0.2761(5) -0.1514(2)
O4 O -0.1770(4) -0.4089(3) -0.19419(15)
O5 O -0.1626(4) -0.2417(3) -0.05321(14)
O1A O -0.3576(5) 0.2580(4) -0.06771(17)
H1A H -0.297(7) 0.370(6) -0.097(2)
H2A H -0.489(7) 0.278(6) -0.026(3)
N1A N -0.1698(5) 0.0023(4) 0.16828(18)
C1A C -0.3247(6) -0.0920(5) 0.2439(2)
H3A H -0.40990 -0.19670 0.23230
N2A N -0.3439(5) -0.0184(4) 0.33916(18)
H4A H -0.43460 -0.05980 0.39860
C2A C -0.1936(6) 0.1351(5) 0.3258(2)
C3A C -0.0869(6) 0.1468(4) 0.2178(2)
C4A C -0.1805(6) 0.2443(5) 0.4200(2)
O2A O -0.3050(5) 0.2040(4) 0.50906(15)
O3A O -0.0250(6) 0.3870(4) 0.40319(18)
H5A H 0.04790 0.39170 0.34050
C5A C 0.0966(6) 0.2761(5) 0.1514(2)
O4A O 0.1770(4) 0.4089(3) 0.19419(15)
O5A O 0.1626(4) 0.2417(3) 0.05321(14)
#END
