
#######################################################################
#
#                 Cambridge Crystallographic Data Centre
#                                CCDC
#
#######################################################################
#
# If this CIF has been generated from an entry in the Cambridge
# Structural Database, then it will include bibliographic, chemical,
# crystal, experimental, refinement or atomic coordinate data resulting
# from the CCDC's data processing and validation procedures.
#
#######################################################################

data_CSD_CIF_EVABAE
_audit_creation_date 2004-07-16
_audit_creation_method CSD-ConQuest-V1
_database_code_CSD EVABAE
_database_code_depnum_ccdc_archive 'CCDC 208367'
_chemical_formula_sum 'C7 H20 Cl3 Co1 N4 O5'
_chemical_formula_moiety
;
C7 H20 Cl2 Co1 N4 O1 1+,Cl1 O4 1-
;
_journal_coden_Cambridge 9
_journal_volume 43
_journal_year 2004
_journal_page_first 1689
_journal_name_full 'Inorg.Chem. '
loop_
_publ_author_name
"J.M.Harrowfield"
"Yang Kim"
"G.A.Koutsantonis"
"Young Hoon Lee"
"P.Thuery"
_chemical_name_systematic
;
trans-Dichloro-(1,3-bis(2-aminoethylamino)propan-2-ol)-cobalt(iii) perchlorate
;
_cell_volume    723.487
_exptl_crystal_colour 'light green'
_exptl_crystal_density_diffrn 1.862
_exptl_crystal_description 'parallelepiped'
_diffrn_ambient_temperature 100
#These two values have been output from a single CSD field.
_refine_ls_R_factor_gt 0.0314
_refine_ls_wR_factor_gt 0.0314
_symmetry_cell_setting monoclinic
_symmetry_space_group_name_H-M 'P n'
_symmetry_Int_Tables_number 7
loop_
_symmetry_equiv_pos_site_id
_symmetry_equiv_pos_as_xyz
1 x,y,z
2 1/2+x,-y,1/2+z
_cell_length_a 6.4187(4)
_cell_length_b 11.2814(12)
_cell_length_c 10.2144(9)
_cell_angle_alpha 90
_cell_angle_beta 101.998(6)
_cell_angle_gamma 90
_cell_formula_units_Z 2
loop_
_atom_type_symbol
_atom_type_radius_bond
C 0.68
H 0.23
Cl 0.99
Co 1.33
N 0.68
O 0.68
loop_
_atom_site_label
_atom_site_type_symbol
_atom_site_fract_x
_atom_site_fract_y
_atom_site_fract_z
Co1 Co 0.37817(9) 0.70736(5) 0.64697(6)
Cl1 Cl 0.08937(15) 0.82388(9) 0.57723(10)
Cl2 Cl 0.66297(15) 0.58631(9) 0.70855(10)
Cl3 Cl 0.3688(2) 0.28036(8) 0.65340(13)
N1 N 0.2090(5) 0.6001(3) 0.7356(3)
H1 H 0.06550 0.61340 0.70540
H2 H 0.22760 0.52200 0.71700
N2 N 0.4563(6) 0.7893(3) 0.8207(3)
H3 H 0.59850 0.77150 0.86530
N3 N 0.5557(6) 0.8109(3) 0.5601(3)
H4 H 0.69910 0.78730 0.58810
N4 N 0.3068(6) 0.6217(3) 0.4757(3)
H5 H 0.17460 0.63830 0.42850
H6 H 0.30910 0.54130 0.48830
O1 O 0.8334(5) 0.9109(3) 0.7984(3)
H7 H 0.89510 0.90430 0.73300
O2 O 0.2730(5) 0.3562(3) 0.5434(3)
O3 O 0.3651(5) 0.3418(3) 0.7773(3)
O4 O 0.5849(5) 0.2530(3) 0.6469(3)
O5 O 0.2465(5) 0.1724(3) 0.6474(3)
C1 C 0.2660(7) 0.6205(4) 0.8830(4)
H8 H 0.39230 0.57540 0.92200
H9 H 0.15040 0.59490 0.92410
C2 C 0.3068(7) 0.7508(5) 0.9072(4)
H10 H 0.17440 0.79470 0.88430
H11 H 0.36980 0.76500 1.00070
C3 C 0.4758(7) 0.9212(3) 0.8221(4)
H12 H 0.52200 0.94820 0.91370
H13 H 0.33740 0.95600 0.78640
C4 C 0.6331(7) 0.9630(4) 0.7402(4)
H14 H 0.64810 1.04900 0.75210
C5 C 0.5655(7) 0.9393(4) 0.5911(4)
H15 H 0.42650 0.97420 0.55800
H16 H 0.66570 0.97700 0.54510
C6 C 0.4967(8) 0.7897(4) 0.4127(4)
H17 H 0.61030 0.81610 0.37010
H18 H 0.36810 0.83310 0.37400
C7 C 0.4607(8) 0.6582(4) 0.3922(4)
H19 H 0.40320 0.64110 0.29860
H20 H 0.59390 0.61550 0.41960
#END
