
#######################################################################
#
#                 Cambridge Crystallographic Data Centre
#                                CCDC
#
#######################################################################
#
# If this CIF has been generated from an entry in the Cambridge
# Structural Database, then it will include bibliographic, chemical,
# crystal, experimental, refinement or atomic coordinate data resulting
# from the CCDC's data processing and validation procedures.
#
#######################################################################

data_CSD_CIF_EVILEC
_audit_creation_date 2016-09-05
_audit_creation_method CSD-ConQuest-V1
_database_code_CSD EVILEC
_database_code_depnum_ccdc_archive 'CCDC 1442013'
_chemical_formula_sum 'C16 H18 Cl2 Fe1 N3 O1 S1'
_chemical_formula_moiety
;
C16 H18 Cl2 Fe1 N3 O1 S1
;
_journal_coden_Cambridge 151
_journal_volume 59
_journal_year 2016
_journal_page_first 7497
_journal_name_full 'J.Med.Chem. '
loop_
_publ_author_name
"Jinxu Qi"
"Yi Gou"
"Yao Zhang"
"Kun Yang"
"Shifang Chen"
"Li Liu"
"Xiaoyang Wu"
"Tao Wang"
"Wei Zhang"
"Feng Yang"
_chemical_name_systematic
;
dichloro-(N,N-diethyl-2-((2-oxy-1-naphthyl)methylene)hydrazinecarbothioamidato
)-iron(iii)
;
_cell_volume    908.391
_exptl_crystal_colour 'metallic dark black'
_exptl_crystal_density_diffrn 1.562
_exptl_special_details
;
antitumour activity

;
_exptl_crystal_description 'block'
_diffrn_ambient_temperature 296.1
#These two values have been output from a single CSD field.
_refine_ls_R_factor_gt 0.0378
_refine_ls_wR_factor_gt 0.0378
_symmetry_cell_setting triclinic
_symmetry_space_group_name_H-M 'P -1'
_symmetry_Int_Tables_number 2
loop_
_symmetry_equiv_pos_site_id
_symmetry_equiv_pos_as_xyz
1 x,y,z
2 -x,-y,-z
_cell_length_a 8.5100(12)
_cell_length_b 10.2701(15)
_cell_length_c 11.6726(17)
_cell_angle_alpha 80.147(2)
_cell_angle_beta 77.559(2)
_cell_angle_gamma 66.342(2)
_cell_formula_units_Z 2
loop_
_atom_type_symbol
_atom_type_radius_bond
C 0.68
H 0.23
Cl 0.99
Fe 1.52
N 0.68
O 0.68
S 1.02
loop_
_atom_site_label
_atom_site_type_symbol
_atom_site_fract_x
_atom_site_fract_y
_atom_site_fract_z
Fe1 Fe 0.28301(4) 0.79793(4) 0.29162(3)
S1 S 0.13716(10) 0.98234(7) 0.15332(6)
Cl1 Cl 0.08088(8) 0.71582(7) 0.40108(6)
Cl2 Cl 0.42881(10) 0.65878(8) 0.14358(6)
O1 O 0.4656(2) 0.72474(18) 0.38012(15)
N1 N 0.2090(2) 0.98278(19) 0.38330(16)
C1 C 0.3912(3) 0.8748(2) 0.53444(19)
C2 C 0.4854(3) 0.7460(3) 0.4830(2)
N2 N -0.0970(3) 1.2395(2) 0.20870(18)
C3 C 0.2656(3) 0.9903(2) 0.47667(19)
H1 H 0.22020 1.07810 0.50770
N3 N 0.0795(3) 1.1086(2) 0.34587(18)
C4 C 0.5462(3) 0.7722(3) 0.7052(2)
C5 C 0.4228(3) 0.8906(2) 0.64817(19)
C6 C 0.5760(4) 0.7821(3) 0.8170(2)
H2 H 0.65550 0.70370 0.85430
C7 C 0.6360(3) 0.6438(3) 0.6498(2)
H3 H 0.71580 0.56630 0.68770
C8 C 0.0305(3) 1.1204(3) 0.2409(2)
C9 C 0.3368(3) 1.0157(3) 0.7066(2)
H4 H 0.25520 1.09480 0.67170
C10 C 0.6081(3) 0.6314(3) 0.5429(2)
H5 H 0.67030 0.54630 0.50820
C11 C -0.1835(3) 1.3606(3) 0.2817(2)
H6 H -0.19900 1.32360 0.36380
H7 H -0.29800 1.41620 0.26110
C12 C 0.3717(4) 1.0226(3) 0.8150(2)
H8 H 0.31550 1.10700 0.85120
C13 C 0.4906(4) 0.9043(3) 0.8711(2)
H9 H 0.51110 0.90930 0.94500
C14 C -0.1547(4) 1.2572(3) 0.0946(2)
H10 H -0.27880 1.31280 0.10310
H11 H -0.13480 1.16390 0.07320
C15 C -0.0631(5) 1.3293(4) -0.0028(3)
H12 H -0.09290 1.32540 -0.07650
H13 H 0.06030 1.28150 -0.00550
H14 H -0.09780 1.42710 0.01130
C16 C -0.0874(5) 1.4567(4) 0.2686(3)
H15 H -0.06510 1.48960 0.18690
H16 H 0.02100 1.40560 0.29720
H17 H -0.15580 1.53710 0.31310
H18 H 0.032(3) 1.165(3) 0.396(2)
#END
