
#######################################################################
#
#                 Cambridge Crystallographic Data Centre
#                                CCDC
#
#######################################################################
#
# If this CIF has been generated from an entry in the Cambridge
# Structural Database, then it will include bibliographic, chemical,
# crystal, experimental, refinement or atomic coordinate data resulting
# from the CCDC's data processing and validation procedures.
#
#######################################################################

data_CSD_CIF_EVILOM
_audit_creation_date 2016-09-05
_audit_creation_method CSD-ConQuest-V1
_database_code_CSD EVILOM
_database_code_depnum_ccdc_archive 'CCDC 1442009'
_chemical_formula_sum 'C13 H14 Cl2 Fe1 N3 O2 S1'
_chemical_formula_moiety
;
C12 H10 Cl2 Fe1 N3 O1 S1,C1 H4 O1
;
_journal_coden_Cambridge 151
_journal_volume 59
_journal_year 2016
_journal_page_first 7497
_journal_name_full 'J.Med.Chem. '
loop_
_publ_author_name
"Jinxu Qi"
"Yi Gou"
"Yao Zhang"
"Kun Yang"
"Shifang Chen"
"Li Liu"
"Xiaoyang Wu"
"Tao Wang"
"Wei Zhang"
"Feng Yang"
_chemical_name_systematic
;
dichloro-(2-((2-oxy-1-naphthyl)methylene)hydrazinecarbothioamidato)-iron(iii) 
methanol solvate
;
_cell_volume    812.269
_exptl_crystal_colour 'metallic dark black'
_exptl_crystal_density_diffrn 1.648
_exptl_special_details
;
antitumour activity

;
_exptl_crystal_description 'block'
_diffrn_ambient_temperature 296.1
#These two values have been output from a single CSD field.
_refine_ls_R_factor_gt 0.0305
_refine_ls_wR_factor_gt 0.0305
_symmetry_cell_setting triclinic
_symmetry_space_group_name_H-M 'P -1'
_symmetry_Int_Tables_number 2
loop_
_symmetry_equiv_pos_site_id
_symmetry_equiv_pos_as_xyz
1 x,y,z
2 -x,-y,-z
_cell_length_a 7.1837(11)
_cell_length_b 8.5745(13)
_cell_length_c 13.634(2)
_cell_angle_alpha 76.671(2)
_cell_angle_beta 83.712(2)
_cell_angle_gamma 88.604(2)
_cell_formula_units_Z 2
loop_
_atom_type_symbol
_atom_type_radius_bond
C 0.68
H 0.23
Cl 0.99
Fe 1.52
N 0.68
O 0.68
S 1.02
loop_
_atom_site_label
_atom_site_type_symbol
_atom_site_fract_x
_atom_site_fract_y
_atom_site_fract_z
Fe1 Fe 0.26884(4) 0.27114(4) 0.82780(2)
S1 S 0.24256(9) 0.09227(7) 0.99100(4)
Cl1 Cl 0.01406(9) 0.23873(8) 0.75396(5)
Cl2 Cl 0.18352(10) 0.47904(7) 0.90033(5)
O1 O 0.4663(2) 0.38465(18) 0.73655(13)
N1 N 0.3613(3) -0.0787(2) 0.85725(15)
H1 H 0.38040 -0.16590 0.83670
N2 N 0.4095(3) 0.0685(2) 0.79361(14)
N3 N 0.2434(3) -0.2218(2) 1.01306(16)
H2 H 0.26620 -0.30850 0.99240
H3 H 0.19390 -0.22660 1.07400
C1 C 0.6951(3) 0.1786(3) 0.54531(17)
C2 C 0.7622(3) 0.4665(3) 0.50063(19)
H4 H 0.82210 0.55430 0.45640
C3 C 0.5184(3) 0.0640(3) 0.71165(17)
C4 C 0.2845(3) -0.0816(3) 0.95128(17)
C5 C 0.7161(3) 0.0291(3) 0.51904(19)
H5 H 0.66490 -0.06190 0.56400
C6 C 0.5688(3) 0.3557(3) 0.65593(17)
C7 C 0.5900(3) 0.2008(3) 0.63810(16)
C8 C 0.6626(3) 0.4870(3) 0.58697(19)
H6 H 0.65560 0.58810 0.60120
C9 C 0.7776(3) 0.3141(3) 0.47584(18)
C10 C 0.8108(4) 0.0149(4) 0.4283(2)
H7 H 0.82350 -0.08520 0.41280
C11 C 0.8728(4) 0.2965(4) 0.3825(2)
H8 H 0.92560 0.38590 0.33640
C12 C 0.8879(4) 0.1498(4) 0.3594(2)
H9 H 0.94980 0.13970 0.29760
H10 H 0.558(3) -0.051(3) 0.7084(17)
O2 O 0.5503(3) -0.3132(2) 0.77666(16)
H11 H 0.49140 -0.38850 0.76770
C13 C 0.7052(5) -0.3718(4) 0.8290(3)
H12 H 0.66220 -0.42740 0.89690
H13 H 0.78390 -0.28400 0.83090
H14 H 0.77510 -0.44420 0.79480
#END
