
#######################################################################
#
#                 Cambridge Crystallographic Data Centre
#                                CCDC
#
#######################################################################
#
# If this CIF has been generated from an entry in the Cambridge
# Structural Database, then it will include bibliographic, chemical,
# crystal, experimental, refinement or atomic coordinate data resulting
# from the CCDC's data processing and validation procedures.
#
#######################################################################

data_CSD_CIF_EVOJAA
_audit_creation_date 2004-07-16
_audit_creation_method CSD-ConQuest-V1
_database_code_CSD EVOJAA
_database_code_depnum_ccdc_archive 'CCDC 230410'
_chemical_formula_sum 'C10 H24 Cr1 N7 O6'
_chemical_formula_moiety
;
C10 H24 Cr1 N6 O4 1+,N1 O2 1-
;
_journal_coeditor_code "IUCr AV1172"
_journal_coden_Cambridge 591
_journal_volume 60
_journal_year 2004
_journal_page_first m238
_journal_name_full 'Acta Crystallogr.,Sect.C:Cryst.Struct.Commun. '
loop_
_publ_author_name
"Jong-Ha Choi"
"In-Gyung Oh"
"Woo-Taik Lim"
"Ki-Min Park"
_chemical_name_systematic
;
cis-Dinitrito-(1,4,8,11-tetraazacyclotetradecane-\k^4^N)-chromium(iii) nitrite
;
_cell_volume   1674.719
_exptl_crystal_colour 'orange'
_exptl_crystal_density_diffrn 1.548
_exptl_crystal_description 'block'
_exptl_crystal_preparation 'ethanol/water'
_diffrn_ambient_temperature 293
#These two values have been output from a single CSD field.
_refine_ls_R_factor_gt 0.0376
_refine_ls_wR_factor_gt 0.0376
_symmetry_cell_setting monoclinic
_symmetry_space_group_name_H-M 'C 2/c'
_symmetry_Int_Tables_number 15
loop_
_symmetry_equiv_pos_site_id
_symmetry_equiv_pos_as_xyz
1 x,y,z
2 1/2+x,1/2+y,z
3 x,-y,1/2+z
4 1/2+x,1/2-y,1/2+z
5 -x,-y,-z
6 -1/2-x,-1/2-y,-z
7 -x,y,-1/2-z
8 -1/2-x,-1/2+y,-1/2-z
_cell_length_a 9.878(2)
_cell_length_b 11.813(2)
_cell_length_c 14.837(3)
_cell_angle_alpha 90
_cell_angle_beta 104.69(3)
_cell_angle_gamma 90
_cell_formula_units_Z 4
loop_
_atom_type_symbol
_atom_type_radius_bond
C 0.68
H 0.23
Cr 1.35
N 0.68
O 0.68
loop_
_atom_site_label
_atom_site_type_symbol
_atom_site_fract_x
_atom_site_fract_y
_atom_site_fract_z
Cr1 Cr 0.50000 0.26397(3) 0.25000
O1 O 0.39988(13) 0.37765(12) 0.16046(9)
O2 O 0.40060(16) 0.52732(14) 0.08126(11)
N1 N 0.67670(15) 0.24817(13) 0.19758(11)
H1 H 0.72680 0.31280 0.21470
N2 N 0.39478(14) 0.14469(14) 0.1536(1)
H2 H 0.42500 0.07460 0.17500
N3 N 0.47079(18) 0.46261(16) 0.13757(12)
C1 C 0.6582(2) 0.23830(18) 0.09495(14)
H3 H 0.74910 0.22720 0.08250
H4 H 0.61980 0.30870 0.06550
C2 C 0.5620(2) 0.1410(2) 0.05152(13)
H5 H 0.56350 0.13370 -0.01330
H6 H 0.59840 0.07120 0.08290
C3 C 0.4113(2) 0.1561(2) 0.05677(12)
H7 H 0.37860 0.23030 0.03290
H8 H 0.35320 0.10000 0.01730
C4 C 0.24362(18) 0.15440(18) 0.15242(13)
H9 H 0.19170 0.09100 0.11900
H10 H 0.20480 0.22380 0.12150
C5 C 0.76695(17) 0.15471(17) 0.24798(13)
H11 H 0.86330 0.16660 0.24600
H12 H 0.73570 0.08260 0.21870
N4 N 0.50000 -0.1376(2) 0.25000
O3 O 0.39362(18) -0.08144(16) 0.2376(2)
O1F O 0.60012(13) 0.37765(12) 0.33954(9)
N3F N 0.52921(18) 0.46261(16) 0.36243(12)
O2F O 0.59940(16) 0.52732(14) 0.41874(11)
N1F N 0.32330(15) 0.24817(13) 0.30242(11)
H1F H 0.27320 0.31280 0.28530
C1F C 0.3418(2) 0.23830(18) 0.40505(14)
H3F H 0.25090 0.22720 0.41750
H4F H 0.38020 0.30870 0.43450
C2F C 0.4380(2) 0.1410(2) 0.44848(13)
H5F H 0.43650 0.13370 0.51330
H6F H 0.40160 0.07120 0.41710
C3F C 0.5887(2) 0.1561(2) 0.44323(12)
N2F N 0.60522(14) 0.14469(14) 0.3464(1)
H2F H 0.57500 0.07460 0.32500
C4F C 0.75638(18) 0.15440(18) 0.34758(13)
H9F H 0.80830 0.09100 0.38100
H10F H 0.79520 0.22380 0.37850
H7F H 0.62140 0.23030 0.46710
H8F H 0.64680 0.10000 0.48270
C5F C 0.23305(17) 0.15471(17) 0.25202(13)
H11F H 0.13670 0.16660 0.25400
H12F H 0.26430 0.08260 0.28130
O3F O 0.60638(18) -0.08144(16) 0.2624(2)
#END
