
#######################################################################
#
#                 Cambridge Crystallographic Data Centre
#                                CCDC
#
#######################################################################
#
# If this CIF has been generated from an entry in the Cambridge
# Structural Database, then it will include bibliographic, chemical,
# crystal, experimental, refinement or atomic coordinate data resulting
# from the CCDC's data processing and validation procedures.
#
#######################################################################

data_CSD_CIF_EXIJUQ
_audit_creation_date 2004-09-21
_audit_creation_method CSD-ConQuest-V1
_database_code_CSD EXIJUQ
_database_code_depnum_ccdc_archive 'CCDC 228014'
_chemical_formula_sum 'C14 H16 Cr1 N2 O6 S1'
_chemical_formula_moiety
;
C10 H4 Cr1 N1 O6 S1 1-,C4 H12 N1 1+
;
_journal_coden_Cambridge 222
_journal_year 2004
_journal_page_first 1173
_journal_name_full 'Dalton Trans. '
loop_
_publ_author_name
"H.G.Raubenheimer"
"A.du Toit"
"M.du Toit"
"Jin An"
"L.van Niekerk"
"S.Cronje"
"C.Esterhuysen"
"A.M.Crouch"
_chemical_name_systematic
;
Tetramethylammonium 
((4-methylthiazol-2-yl)(oxy)methylene)-pentacarbonyl-chromium(iii)
;
_chemical_melting_point 379.15
_cell_volume    906.831
_exptl_crystal_colour 'red'
_exptl_crystal_density_diffrn 1.437
_exptl_special_details
;
Melting point range 379.15-380.15K
air-sensitive

;
_exptl_crystal_description 'prism'
_diffrn_ambient_temperature 293
#These two values have been output from a single CSD field.
_refine_ls_R_factor_gt 0.0315
_refine_ls_wR_factor_gt 0.0315
_symmetry_cell_setting triclinic
_symmetry_space_group_name_H-M 'P -1'
_symmetry_Int_Tables_number 2
loop_
_symmetry_equiv_pos_site_id
_symmetry_equiv_pos_as_xyz
1 x,y,z
2 -x,-y,-z
_cell_length_a 8.4678(1)
_cell_length_b 10.0587(2)
_cell_length_c 11.1857(2)
_cell_angle_alpha 96.489(1)
_cell_angle_beta 94.082(1)
_cell_angle_gamma 105.554(1)
_cell_formula_units_Z 2
loop_
_atom_type_symbol
_atom_type_radius_bond
C 0.68
H 0.23
Cr 1.35
N 0.68
O 0.68
S 1.02
loop_
_atom_site_label
_atom_site_type_symbol
_atom_site_fract_x
_atom_site_fract_y
_atom_site_fract_z
C1 C 0.4750(2) 0.7646(2) 0.11900(18)
C2 C 0.3037(2) 0.82508(19) 0.41742(18)
C3 C 0.4453(2) 0.9861(2) 0.25985(17)
C4 C 0.3510(2) 0.6009(2) 0.28063(16)
C5 C 0.6015(2) 0.81760(18) 0.35776(16)
C6 C 0.1680(2) 0.76051(18) 0.17034(16)
C7 C 0.0115(2) 0.66295(18) 0.20317(16)
C8 C -0.2651(2) 0.5120(2) 0.19807(18)
H1 H -0.37270 0.45490 0.18230
C9 C -0.1758(2) 0.54173(19) 0.30809(17)
C10 C -0.2358(3) 0.4938(2) 0.42241(19)
H2 H -0.24980 0.57130 0.47490
H3 H -0.15680 0.45580 0.46190
H4 H -0.33940 0.42350 0.40400
C11 C 0.8677(2) 0.8448(2) 0.86551(17)
H5 H 0.83220 0.92780 0.87780
H6 H 0.91250 0.82720 0.94150
H7 H 0.77540 0.76730 0.83240
C12 C 1.1378(2) 0.9860(2) 0.83067(19)
H8 H 1.22140 0.99850 0.77610
H9 H 1.18270 0.97050 0.90740
H10 H 1.09990 1.06800 0.84130
C13 C 1.0591(2) 0.7378(2) 0.76435(19)
H11 H 0.97110 0.65850 0.72800
H12 H 1.09940 0.72100 0.84200
H13 H 1.14680 0.75310 0.71320
C14 C 0.9250(3) 0.8873(3) 0.66109(17)
H14 H 1.00730 0.89870 0.60540
H15 H 0.88820 0.96970 0.67210
H16 H 0.83330 0.80870 0.62930
N1 N -0.01730(18) 0.62612(15) 0.30981(14)
N2 N 0.99680(17) 0.86339(15) 0.77971(12)
S1 S -0.15370(6) 0.59322(5) 0.09214(4)
Cr1 Cr 0.39731(3) 0.79319(3) 0.27152(2)
O1 O 0.5204(2) 0.7499(2) 0.02614(13)
O2 O 0.25574(19) 0.84974(15) 0.50792(13)
O3 O 0.47844(19) 1.10255(16) 0.25272(17)
O4 O 0.33074(18) 0.48467(15) 0.28705(15)
O5 O 0.72857(17) 0.83209(16) 0.41121(13)
O6 O 0.14380(15) 0.81220(15) 0.07748(12)
#END
