
#######################################################################
#
#                 Cambridge Crystallographic Data Centre
#                                CCDC
#
#######################################################################
#
# If this CIF has been generated from an entry in the Cambridge
# Structural Database, then it will include bibliographic, chemical,
# crystal, experimental, refinement or atomic coordinate data resulting
# from the CCDC's data processing and validation procedures.
#
#######################################################################

data_CSD_CIF_EXONIO
_audit_creation_date 2004-09-21
_audit_creation_method CSD-ConQuest-V1
_database_code_CSD EXONIO
_database_code_depnum_ccdc_archive 'CCDC 166205'
_chemical_formula_sum 'C16 H28 Cl2 Mn1 N2 O10'
_chemical_formula_moiety
;
(C16 H24 Mn1 N2 O8 2+)n,2n(Cl1 1-),2n(H2 O1)
;
_journal_coden_Cambridge 702
_journal_volume 19
_journal_year 2003
_journal_page_first 1059
_journal_name_full 'Wuji Huaxue Xuebao(Chin.)(Chin.J.Inorg.Chem.) '
loop_
_publ_author_name
"Song-Lin Li"
"Jian-Hui Shao"
"Yun-Zhong Zhao"
"Yu-Xin Wang"
_chemical_name_systematic
;
catena-[(\m~2~-1,4-bis(4-Carboxypyridinium)butane)-tetra-aqua-manganese(ii) 
dichloride dihydrate]
;
_cell_volume    567.973
_exptl_crystal_colour 'pale yellow'
_exptl_crystal_density_diffrn 1.562
_exptl_crystal_description 'prism'
_diffrn_ambient_temperature 298
#These two values have been output from a single CSD field.
_refine_ls_R_factor_gt 0.0341
_refine_ls_wR_factor_gt 0.0341
_symmetry_cell_setting triclinic
_symmetry_space_group_name_H-M 'P -1'
_symmetry_Int_Tables_number 2
loop_
_symmetry_equiv_pos_site_id
_symmetry_equiv_pos_as_xyz
1 x,y,z
2 -x,-y,-z
_cell_length_a 7.7354(15)
_cell_length_b 8.3185(17)
_cell_length_c 9.1375(18)
_cell_angle_alpha 78.40(3)
_cell_angle_beta 84.66(3)
_cell_angle_gamma 81.18(3)
_cell_formula_units_Z 1
loop_
_atom_type_symbol
_atom_type_radius_bond
C 0.68
H 0.23
Cl 0.99
Mn 1.35
N 0.68
O 0.68
loop_
_atom_site_label
_atom_site_type_symbol
_atom_site_fract_x
_atom_site_fract_y
_atom_site_fract_z
Mn1 Mn 0.50000 0.50000 0.00000
O1 O 0.27505(19) 0.6020(2) -0.14096(17)
H1 H 0.29150 0.67260 -0.22870
H2 H 0.18140 0.59830 -0.12680
O2 O 0.4671(2) 0.24910(18) -0.02385(17)
H3 H 0.51320 0.19780 -0.08980
H4 H 0.44040 0.19290 0.04600
O3 O 0.34944(18) 0.46195(19) 0.20595(14)
O4 O 0.10006(19) 0.3916(2) 0.14963(15)
C1 C 0.2079(2) 0.4015(2) 0.23699(19)
C2 C 0.1671(2) 0.3395(2) 0.40375(18)
C3 C 0.0265(3) 0.2545(3) 0.4506(2)
H5 H -0.03860 0.22750 0.38070
C4 C -0.0175(3) 0.2098(3) 0.6005(2)
H6 H -0.11280 0.15270 0.63170
N1 N 0.0755(2) 0.24771(19) 0.70255(15)
C5 C 0.2176(3) 0.3232(3) 0.6606(2)
H7 H 0.28450 0.34370 0.73250
C6 C 0.2651(3) 0.3706(3) 0.5107(2)
H8 H 0.36360 0.42370 0.48170
C7 C 0.0168(3) 0.2046(2) 0.8639(2)
H9 H -0.10600 0.24830 0.87770
H10 H 0.08320 0.25600 0.92220
C8 C 0.0412(3) 0.0187(2) 0.92045(19)
H11 H 0.16510 -0.02390 0.91920
H12 H -0.01390 -0.03490 0.85580
O5 O 0.3243(2) 0.8685(3) 0.62238(19)
H13 H 0.39920 0.90480 0.65510
H14 H 0.34950 0.87260 0.53850
Cl1 Cl 0.39121(7) 0.96884(7) 0.25710(6)
C8A C -0.0412(3) -0.0187(2) 1.07955(19)
C7A C -0.0168(3) -0.2046(2) 1.1361(2)
N1A N -0.0755(2) -0.24771(19) 1.29745(15)
C4A C 0.0175(3) -0.2098(3) 1.3995(2)
C3A C -0.0265(3) -0.2545(3) 1.5494(2)
C2A C -0.1671(2) -0.3395(2) 1.59625(18)
C1A C -0.2079(2) -0.4015(2) 1.76301(19)
O3A O -0.34944(18) -0.46195(19) 1.79405(14)
O4A O -0.10006(19) -0.3916(2) 1.85037(15)
C6A C -0.2651(3) -0.3706(3) 1.4893(2)
C5A C -0.2176(3) -0.3232(3) 1.3394(2)
H7A H -0.28450 -0.34370 1.26750
H8A H -0.36360 -0.42370 1.51830
H5A H 0.03860 -0.22750 1.61930
H6A H 0.11280 -0.15270 1.36830
H9A H 0.10600 -0.24830 1.12230
H10A H -0.08320 -0.25600 1.07780
H11A H -0.16510 0.02390 1.08080
H12A H 0.01390 0.03490 1.14420
O1A O 0.72495(19) 0.3980(2) 0.14096(17)
H1A H 0.70850 0.32740 0.22870
H2A H 0.81860 0.40170 0.12680
O2A O 0.5329(2) 0.75090(18) 0.02385(17)
H3A H 0.48680 0.80220 0.08980
H4A H 0.55960 0.80710 -0.04600
O3A* O 0.65056(18) 0.53805(19) -0.20595(14)
Mn1* Mn -0.50000 -0.50000 2.00000
#END
