
#######################################################################
#
#                 Cambridge Crystallographic Data Centre
#                                CCDC
#
#######################################################################
#
# If this CIF has been generated from an entry in the Cambridge
# Structural Database, then it will include bibliographic, chemical,
# crystal, experimental, refinement or atomic coordinate data resulting
# from the CCDC's data processing and validation procedures.
#
#######################################################################

data_CSD_CIF_EYAPUP
_audit_creation_date 2004-10-07
_audit_creation_method CSD-ConQuest-V1
_database_code_CSD EYAPUP
_database_code_depnum_ccdc_archive 'CCDC 228105'
_chemical_formula_sum 'C26 H20 Fe1 N10 O4 S2'
_chemical_formula_moiety
;
C26 H20 Fe1 N10 O4 S2
;
_journal_coden_Cambridge 119
_journal_volume 694
_journal_year 2004
_journal_page_first 235
_journal_name_full 'J.Mol.Struct. '
loop_
_publ_author_name
"Miao Du"
"Xiao-Jun Zhao"
_chemical_name_systematic
;
Diaqua-diisothiocyanato-bis(2,5-bis(4-pyridyl)-1,3,4-oxadiazole)-iron(ii)
;
_cell_volume    729.878
_exptl_crystal_colour 'yellow'
_exptl_crystal_density_diffrn 1.493
_exptl_crystal_description 'block'
_diffrn_ambient_temperature 293
#These two values have been output from a single CSD field.
_refine_ls_R_factor_gt 0.0438
_refine_ls_wR_factor_gt 0.0438
_symmetry_cell_setting triclinic
_symmetry_space_group_name_H-M 'P -1'
_symmetry_Int_Tables_number 2
loop_
_symmetry_equiv_pos_site_id
_symmetry_equiv_pos_as_xyz
1 x,y,z
2 -x,-y,-z
_cell_length_a 7.985(3)
_cell_length_b 8.657(3)
_cell_length_c 11.334(4)
_cell_angle_alpha 94.243(6)
_cell_angle_beta 109.989(7)
_cell_angle_gamma 94.413(7)
_cell_formula_units_Z 1
loop_
_atom_type_symbol
_atom_type_radius_bond
C 0.68
H 0.23
Fe 1.34
N 0.68
O 0.68
S 1.02
loop_
_atom_site_label
_atom_site_type_symbol
_atom_site_fract_x
_atom_site_fract_y
_atom_site_fract_z
Fe1 Fe 0.00000 1.00000 0.00000
S1 S 0.13259(17) 0.77362(13) -0.3591(1)
O1 O 0.2785(3) 0.4539(2) 0.48197(18)
O2 O 0.2624(3) 1.1417(2) 0.0857(2)
N1 N 0.1024(3) 0.8069(3) 0.1350(2)
N2 N 0.3259(4) 0.3094(3) 0.3305(2)
N3 N 0.3672(4) 0.2285(3) 0.4372(2)
N4 N 0.3886(4) 0.2434(4) 0.8994(3)
N5 N 0.0887(4) 0.8866(3) -0.1387(3)
C1 C 0.1438(4) 0.6758(4) 0.0888(3)
H1 H 0.13520 0.66590 0.00460
C2 C 0.1983(5) 0.5545(4) 0.1579(3)
H2 H 0.22550 0.46490 0.12080
C3 C 0.2128(4) 0.5659(4) 0.2832(3)
C4 C 0.1732(5) 0.7028(4) 0.3330(3)
H3 H 0.18280 0.71650 0.41740
C5 C 0.1190(5) 0.8187(4) 0.2559(3)
H4 H 0.09260 0.91040 0.29050
C6 C 0.2731(4) 0.4390(4) 0.3603(3)
C7 C 0.3357(4) 0.3164(4) 0.5229(3)
C8 C 0.3528(4) 0.2895(4) 0.6514(3)
C9 C 0.3166(5) 0.4032(4) 0.7295(3)
H5 H 0.28020 0.49730 0.70070
C10 C 0.3361(5) 0.3727(5) 0.8512(3)
H6 H 0.31040 0.44900 0.90270
C11 C 0.4240(5) 0.1374(4) 0.8240(3)
H7 H 0.46230 0.04550 0.85630
C12 C 0.4084(4) 0.1532(4) 0.6998(3)
H8 H 0.43460 0.07430 0.65080
C13 C 0.1089(4) 0.8392(3) -0.2298(3)
H9 H 0.312(4) 1.199(4) 0.1598(16)
H10 H 0.319(4) 1.182(4) 0.038(2)
O2A O -0.2624(3) 0.8583(2) -0.0857(2)
H9A H -0.312(4) 0.801(4) -0.1598(16)
H10A H -0.319(4) 0.818(4) -0.038(2)
N1A N -0.1024(3) 1.1931(3) -0.1350(2)
C1A C -0.1438(4) 1.3242(4) -0.0888(3)
H1A H -0.13520 1.33410 -0.00460
C2A C -0.1983(5) 1.4455(4) -0.1579(3)
H2A H -0.22550 1.53510 -0.12080
C3A C -0.2128(4) 1.4341(4) -0.2832(3)
C4A C -0.1732(5) 1.2972(4) -0.3330(3)
H3A H -0.18280 1.28350 -0.41740
C5A C -0.1190(5) 1.1813(4) -0.2559(3)
H4A H -0.09260 1.08960 -0.29050
C6A C -0.2731(4) 1.5610(4) -0.3603(3)
O1A O -0.2785(3) 1.5461(2) -0.48197(18)
C7A C -0.3357(4) 1.6836(4) -0.5229(3)
N3A N -0.3672(4) 1.7715(3) -0.4372(2)
N2A N -0.3259(4) 1.6906(3) -0.3305(2)
C8A C -0.3528(4) 1.7105(4) -0.6514(3)
C9A C -0.3166(5) 1.5968(4) -0.7295(3)
H5A H -0.28020 1.50270 -0.70070
C10A C -0.3361(5) 1.6273(5) -0.8512(3)
N4A N -0.3886(4) 1.7566(4) -0.8994(3)
C11A C -0.4240(5) 1.8626(4) -0.8240(3)
H7A H -0.46230 1.95450 -0.85630
C12A C -0.4084(4) 1.8468(4) -0.6998(3)
H8A H -0.43460 1.92570 -0.65080
H6A H -0.31040 1.55100 -0.90270
N5A N -0.0887(4) 1.1134(3) 0.1387(3)
C13A C -0.1089(4) 1.1608(3) 0.2298(3)
S1A S -0.13259(17) 1.22638(13) 0.3591(1)
#END
