
#######################################################################
#
#                 Cambridge Crystallographic Data Centre
#                                CCDC
#
#######################################################################
#
# If this CIF has been generated from an entry in the Cambridge
# Structural Database, then it will include bibliographic, chemical,
# crystal, experimental, refinement or atomic coordinate data resulting
# from the CCDC's data processing and validation procedures.
#
#######################################################################

data_CSD_CIF_EYEMIG
_audit_creation_date 2016-10-30
_audit_creation_method CSD-ConQuest-V1
_database_code_CSD EYEMIG
_database_code_depnum_ccdc_archive 'CCDC 1501170'
_chemical_formula_sum 'C20 H36 Co2 N6 O18'
_chemical_formula_moiety
;
2(C8 H10 Co1 N2 O8 1-),C4 H12 N2 2+,2(H2 O1)
;
_journal_coden_Cambridge 1147
_journal_volume 16
_journal_year 2016
_journal_page_first 7058
_journal_name_full 'Cryst.Growth Des. '
loop_
_publ_author_name
"A.S.Jayasinghe"
"S.Salzman"
"T.Z.Forbes"
_chemical_name_systematic
;
piperazinediium bis(bis(2,2'-(imino)diacetato)-cobalt(iii)) dihydrate
;
_cell_volume    697.967
_exptl_crystal_colour 'black'
_exptl_crystal_density_diffrn 1.814
_exptl_special_details
;
Th oxidation of the cobalt atom appears to be +3 and not +2 as stated in the 
paper
;
_exptl_crystal_description 'blocky'
_diffrn_ambient_temperature 100
#These two values have been output from a single CSD field.
_refine_ls_R_factor_gt 0.0381
_refine_ls_wR_factor_gt 0.0381
_symmetry_cell_setting triclinic
_symmetry_space_group_name_H-M 'P -1'
_symmetry_Int_Tables_number 2
loop_
_symmetry_equiv_pos_site_id
_symmetry_equiv_pos_as_xyz
1 x,y,z
2 -x,-y,-z
_cell_length_a 7.7038(7)
_cell_length_b 9.8266(8)
_cell_length_c 10.4393(9)
_cell_angle_alpha 78.846(3)
_cell_angle_beta 69.616(3)
_cell_angle_gamma 71.105(3)
_cell_formula_units_Z 1
loop_
_atom_type_symbol
_atom_type_radius_bond
C 0.68
H 0.23
Co 1.26
N 0.68
O 0.68
loop_
_atom_site_label
_atom_site_type_symbol
_atom_site_fract_x
_atom_site_fract_y
_atom_site_fract_z
Co1 Co 0.50000 1.00000 0.00000
O1 O 0.6046(3) 0.9361(2) 0.1464(2)
O2 O 0.6655(4) 0.7511(3) 0.2980(2)
O3 O -0.0414(3) 1.0848(3) 0.2014(3)
O4 O 0.2616(3) 1.0940(2) 0.1199(2)
N1 N 0.4128(4) 0.8274(3) 0.0462(3)
H1 H 0.44830 0.78000 -0.03950
C1 C 0.1317(4) 1.0290(3) 0.1469(3)
C2 C 0.1997(4) 0.8776(3) 0.1023(3)
H2 H 0.15460 0.81050 0.18180
H3 H 0.14210 0.87610 0.03140
C3 C 0.5153(5) 0.7285(3) 0.1396(3)
H4 H 0.61920 0.65040 0.08820
H5 H 0.42420 0.68370 0.21420
C4 C 0.6016(4) 0.8083(3) 0.2011(3)
Co2 Co 1.00000 0.50000 0.50000
O5 O 1.2546(3) 0.4317(2) 0.3822(2)
O6 O 1.4196(3) 0.3733(3) 0.1691(2)
O7 O 0.8521(4) 0.1451(3) 0.5605(3)
O8 O 0.9886(3) 0.3091(2) 0.5693(2)
N2 N 0.9088(4) 0.4765(3) 0.3567(3)
H6 H 0.81650 0.56940 0.33550
C5 C 1.2653(4) 0.4129(3) 0.2606(3)
C6 C 1.0770(5) 0.4398(4) 0.2322(3)
H7 H 1.06560 0.52010 0.15920
H8 H 1.07660 0.35240 0.19860
C7 C 0.8057(5) 0.3645(3) 0.4135(3)
H9 H 0.82040 0.30910 0.33880
H10 H 0.66660 0.41090 0.45470
C8 C 0.8851(4) 0.2626(3) 0.5220(3)
O9 O 1.8066(4) 0.3736(3) 0.0785(3)
H11 H 1.864(8) 0.283(6) 0.115(6)
H12 H 1.670(9) 0.378(6) 0.118(6)
N3 N -0.2972(4) 0.9705(3) 0.4254(3)
H13 H -0.28060 0.89840 0.37550
H14 H -0.18150 0.98870 0.40480
C9 C -0.4400(4) 1.1032(3) 0.3888(3)
H15 H -0.39460 1.13180 0.28910
H16 H -0.45180 1.18350 0.43860
C10 C -0.6342(4) 1.0759(3) 0.4256(3)
H17 H -0.72840 1.16520 0.40280
H18 H -0.62410 0.99990 0.37130
O1A O 0.3954(3) 1.0639(2) -0.1464(2)
O2A O 0.3345(4) 1.2489(3) -0.2980(2)
O3A O 1.0414(3) 0.9152(3) -0.2014(3)
O4A O 0.7384(3) 0.9060(2) -0.1199(2)
N1A N 0.5872(4) 1.1726(3) -0.0462(3)
H1A H 0.55170 1.22000 0.03950
C1A C 0.8683(4) 0.9710(3) -0.1469(3)
C2A C 0.8003(4) 1.1224(3) -0.1023(3)
H2A H 0.84540 1.18950 -0.18180
H3A H 0.85790 1.12390 -0.03140
C3A C 0.4847(5) 1.2715(3) -0.1396(3)
H4A H 0.38080 1.34960 -0.08820
H5A H 0.57580 1.31630 -0.21420
C4A C 0.3984(4) 1.1917(3) -0.2011(3)
O5A O 0.7454(3) 0.5683(2) 0.6178(2)
O6A O 0.5804(3) 0.6267(3) 0.8309(2)
O7A O 1.1479(4) 0.8549(3) 0.4395(3)
O8A O 1.0114(3) 0.6909(2) 0.4307(2)
N2A N 1.0912(4) 0.5235(3) 0.6433(3)
H6A H 1.18350 0.43060 0.66450
C5A C 0.7347(4) 0.5871(3) 0.7394(3)
C6A C 0.9230(5) 0.5602(4) 0.7678(3)
H7A H 0.93440 0.47990 0.84080
H8A H 0.92340 0.64760 0.80140
C7A C 1.1943(5) 0.6355(3) 0.5865(3)
H9A H 1.17960 0.69090 0.66120
H10A H 1.33340 0.58910 0.54530
C8A C 1.1149(4) 0.7374(3) 0.4780(3)
N3A N -0.7028(4) 1.0295(3) 0.5746(3)
H13A H -0.71940 1.10160 0.62450
H14A H -0.81850 1.01130 0.59520
C9A C -0.5600(4) 0.8968(3) 0.6112(3)
H15A H -0.60540 0.86820 0.71090
H16A H -0.54820 0.81650 0.56140
C10A C -0.3658(4) 0.9241(3) 0.5744(3)
H17A H -0.27160 0.83480 0.59720
H18A H -0.37590 1.00010 0.62870
#END
