
#######################################################################
#
#                 Cambridge Crystallographic Data Centre
#                                CCDC
#
#######################################################################
#
# If this CIF has been generated from an entry in the Cambridge
# Structural Database, then it will include bibliographic, chemical,
# crystal, experimental, refinement or atomic coordinate data resulting
# from the CCDC's data processing and validation procedures.
#
#######################################################################

data_CSD_CIF_EYETUY
_audit_creation_date 2011-11-07
_audit_creation_method CSD-ConQuest-V1
_database_code_CSD EYETUY
_database_code_depnum_ccdc_archive 'CCDC 816000'
_chemical_formula_sum 'C10 H15 Cr1 N2 O10'
_chemical_formula_moiety
;
C4 H4 Cr1 O10 1-,C6 H11 N2 1+
;
_journal_coden_Cambridge 29
_journal_volume 637
_journal_year 2011
_journal_page_first 1371
_journal_name_full 'Z.Anorg.Allg.Chem. '
loop_
_publ_author_name
"V.Kahlenberg"
"W.Wertl"
"D.M.Tobbens"
"H.Schottenberger"
_chemical_name_systematic
;
3-Ethyl-1-methyl-1H-imidazol-3-ium diaqua-bis(ethanedioato)-chromium(iii)
;
_cell_volume    720.745
_exptl_crystal_colour 'violet'
_exptl_crystal_density_diffrn 1.729
_exptl_crystal_description 'plate'
_diffrn_ambient_temperature 173
#These two values have been output from a single CSD field.
_refine_ls_R_factor_gt 0.0415
_refine_ls_wR_factor_gt 0.0415
_symmetry_cell_setting triclinic
_symmetry_space_group_name_H-M 'P -1'
_symmetry_Int_Tables_number 2
loop_
_symmetry_equiv_pos_site_id
_symmetry_equiv_pos_as_xyz
1 x,y,z
2 -x,-y,-z
_cell_length_a 7.6202(8)
_cell_length_b 9.7668(9)
_cell_length_c 10.7171(11)
_cell_angle_alpha 109.257(9)
_cell_angle_beta 90.494(8)
_cell_angle_gamma 105.685(8)
_cell_formula_units_Z 2
loop_
_atom_type_symbol
_atom_type_radius_bond
C 0.68
H 0.23
Cr 1.39
N 0.68
O 0.68
loop_
_atom_site_label
_atom_site_type_symbol
_atom_site_fract_x
_atom_site_fract_y
_atom_site_fract_z
Cr1 Cr 0.50000 0.00000 0.50000
O1 O 0.2382(3) -0.1265(2) 0.4520(2)
H1 H 0.168(4) -0.085(3) 0.427(3)
H2 H 0.197(4) -0.146(3) 0.517(2)
O2 O 0.4390(3) 0.1659(2) 0.46229(19)
O3 O 0.3824(3) 0.2351(2) 0.2901(2)
O4 O 0.5385(3) -0.0625(2) 0.31055(19)
O5 O 0.5268(3) 0.0118(2) 0.13487(19)
C1 C 0.4345(4) 0.1537(3) 0.3387(3)
C2 C 0.5049(4) 0.0235(3) 0.2515(3)
Cr2 Cr 0.00000 0.00000 0.00000
O6 O 0.2625(3) 0.1278(2) 0.0284(2)
H3 H 0.306(4) 0.147(3) 0.1069(17)
H4 H 0.328(4) 0.082(3) -0.021(2)
O7 O 0.0245(3) 0.0114(2) 0.3717(2)
O8 O -0.1217(3) 0.2338(2) 0.3473(2)
O9 O 0.0422(3) -0.0606(2) 0.15236(19)
O10 O -0.0608(3) 0.1662(2) 0.13563(19)
C3 C -0.0655(4) 0.1540(3) 0.2518(3)
C4 C 0.0059(4) 0.0247(3) 0.2632(3)
N1 N 0.7310(4) 0.4651(3) 0.0750(3)
N2 N 0.7393(4) 0.5376(3) 0.2873(3)
C5 C 0.7451(6) 0.5383(5) 0.4234(4)
H5 H 0.84700 0.62340 0.47830
H6 H 0.76270 0.44300 0.42470
H7 H 0.62950 0.54900 0.45890
C6 C 0.7224(5) 0.3617(5) -0.0642(4)
H8 H 0.59910 0.28760 -0.09110
H9 H 0.81320 0.30490 -0.06880
C7 C 0.7623(6) 0.4507(5) -0.1621(5)
H10 H 0.66750 0.50140 -0.16240
H11 H 0.76200 0.38030 -0.25190
H12 H 0.88250 0.52660 -0.13400
C8 C 0.7475(6) 0.6141(4) 0.1154(5)
H13 H 0.75500 0.67540 0.06160
C9 C 0.7256(5) 0.4173(4) 0.1758(4)
H14 H 0.71410 0.31640 0.17140
C10 C 0.7512(6) 0.6596(4) 0.2544(4)
H15 H 0.76050 0.75870 0.31370
O1A O 0.7618(3) 0.1265(2) 0.5480(2)
H1A H 0.832(4) 0.085(3) 0.573(3)
H2A H 0.803(4) 0.146(3) 0.483(2)
O2A O 0.5610(3) -0.1659(2) 0.53771(19)
O3A O 0.6176(3) -0.2351(2) 0.7099(2)
O4A O 0.4615(3) 0.0625(2) 0.68945(19)
O5A O 0.4732(3) -0.0118(2) 0.86513(19)
C1A C 0.5655(4) -0.1537(3) 0.6613(3)
C2A C 0.4951(4) -0.0235(3) 0.7485(3)
O6A O -0.2625(3) -0.1278(2) -0.0284(2)
H3A H -0.306(4) -0.147(3) -0.1069(17)
H4A H -0.328(4) -0.082(3) 0.021(2)
O7A O -0.0245(3) -0.0114(2) -0.3717(2)
O8A O 0.1217(3) -0.2338(2) -0.3473(2)
O9A O -0.0422(3) 0.0606(2) -0.15236(19)
O10A O 0.0608(3) -0.1662(2) -0.13563(19)
C3A C 0.0655(4) -0.1540(3) -0.2518(3)
C4A C -0.0059(4) -0.0247(3) -0.2632(3)
#END
