
#######################################################################
#
#                 Cambridge Crystallographic Data Centre
#                                CCDC
#
#######################################################################
#
# If this CIF has been generated from an entry in the Cambridge
# Structural Database, then it will include bibliographic, chemical,
# crystal, experimental, refinement or atomic coordinate data resulting
# from the CCDC's data processing and validation procedures.
#
#######################################################################

data_CSD_CIF_EYETUY01
_audit_creation_date 2011-11-07
_audit_creation_method CSD-ConQuest-V1
_database_code_CSD EYETUY01
_database_code_depnum_ccdc_archive 'CCDC 816001'
_chemical_formula_sum 'C10 H15 Cr1 N2 O10'
_chemical_formula_moiety
;
C4 H4 Cr1 O10 1-,C6 H11 N2 1+
;
_journal_coden_Cambridge 29
_journal_volume 637
_journal_year 2011
_journal_page_first 1371
_journal_name_full 'Z.Anorg.Allg.Chem. '
loop_
_publ_author_name
"V.Kahlenberg"
"W.Wertl"
"D.M.Tobbens"
"H.Schottenberger"
_chemical_name_systematic
;
3-Ethyl-1-methyl-1H-imidazol-3-ium diaqua-bis(ethanedioato)-chromium(iii)
;
_cell_volume    735.866
_exptl_crystal_colour 'violet'
_exptl_crystal_density_diffrn 1.694
_exptl_crystal_description 'plate'
_diffrn_ambient_temperature 298
#These two values have been output from a single CSD field.
_refine_ls_R_factor_gt 0.0391
_refine_ls_wR_factor_gt 0.0391
_symmetry_cell_setting triclinic
_symmetry_space_group_name_H-M 'P -1'
_symmetry_Int_Tables_number 2
loop_
_symmetry_equiv_pos_site_id
_symmetry_equiv_pos_as_xyz
1 x,y,z
2 -x,-y,-z
_cell_length_a 7.6940(8)
_cell_length_b 9.8192(11)
_cell_length_c 10.7380(8)
_cell_angle_alpha 109.136(8)
_cell_angle_beta 90.500(7)
_cell_angle_gamma 105.135(9)
_cell_formula_units_Z 2
loop_
_atom_type_symbol
_atom_type_radius_bond
C 0.68
H 0.23
Cr 1.39
N 0.68
O 0.68
loop_
_atom_site_label
_atom_site_type_symbol
_atom_site_fract_x
_atom_site_fract_y
_atom_site_fract_z
Cr1 Cr 0.50000 0.00000 0.50000
O1 O 0.2408(3) -0.1238(2) 0.45382(19)
H1 H 0.173(4) -0.079(3) 0.430(3)
H2 H 0.196(4) -0.149(3) 0.516(2)
O2 O 0.4389(3) 0.1645(2) 0.46119(18)
O3 O 0.3816(3) 0.2332(2) 0.28929(19)
O4 O 0.5380(3) -0.0629(2) 0.31084(18)
O5 O 0.5260(3) 0.0105(3) 0.13558(18)
C1 C 0.4342(4) 0.1528(3) 0.3384(3)
C2 C 0.5046(4) 0.0224(3) 0.2512(3)
Cr2 Cr 0.00000 0.00000 0.00000
O6 O 0.2595(3) 0.1252(2) 0.02823(19)
H3 H 0.306(4) 0.153(3) 0.1062(17)
H4 H 0.317(4) 0.074(3) -0.022(2)
O7 O 0.0241(3) 0.0099(3) 0.37017(19)
O8 O -0.1217(3) 0.2320(2) 0.34609(19)
O9 O 0.0410(3) -0.0609(2) 0.15190(18)
O10 O -0.0604(3) 0.1657(2) 0.13580(18)
C3 C -0.0656(4) 0.1530(3) 0.2513(3)
C4 C 0.0056(4) 0.0234(3) 0.2625(3)
N1 N 0.7331(4) 0.4651(4) 0.0749(4)
N2 N 0.7416(4) 0.5386(4) 0.2879(4)
C5 C 0.7466(7) 0.5379(5) 0.4225(4)
H5 H 0.83790 0.62460 0.47800
H6 H 0.77430 0.44870 0.42430
H7 H 0.63080 0.53980 0.45450
C6 C 0.7238(7) 0.3642(6) -0.0614(4)
H8 H 0.60480 0.29250 -0.08610
H9 H 0.81230 0.30870 -0.06640
C7 C 0.7599(8) 0.4501(6) -0.1610(6)
H10 H 0.66530 0.49690 -0.16310
H11 H 0.76240 0.38100 -0.24780
H12 H 0.87420 0.52560 -0.13390
C8 C 0.7505(7) 0.6136(5) 0.1159(6)
H13 H 0.75830 0.67350 0.06350
C9 C 0.7272(5) 0.4188(5) 0.1760(5)
H14 H 0.71520 0.32070 0.17220
C10 C 0.7542(7) 0.6590(5) 0.2549(5)
H15 H 0.76360 0.75550 0.31250
O1A O 0.7592(3) 0.1238(2) 0.54618(19)
H1A H 0.827(4) 0.079(3) 0.570(3)
H2A H 0.804(4) 0.149(3) 0.484(2)
O2A O 0.5611(3) -0.1645(2) 0.53881(18)
O3A O 0.6184(3) -0.2332(2) 0.71071(19)
O4A O 0.4620(3) 0.0629(2) 0.68916(18)
O5A O 0.4740(3) -0.0105(3) 0.86442(18)
C1A C 0.5658(4) -0.1528(3) 0.6616(3)
C2A C 0.4954(4) -0.0224(3) 0.7488(3)
O6A O -0.2595(3) -0.1252(2) -0.02823(19)
H3A H -0.306(4) -0.153(3) -0.1062(17)
H4A H -0.317(4) -0.074(3) 0.022(2)
O7A O -0.0241(3) -0.0099(3) -0.37017(19)
O8A O 0.1217(3) -0.2320(2) -0.34609(19)
O9A O -0.0410(3) 0.0609(2) -0.15190(18)
O10A O 0.0604(3) -0.1657(2) -0.13580(18)
C3A C 0.0656(4) -0.1530(3) -0.2513(3)
C4A C -0.0056(4) -0.0234(3) -0.2625(3)
#END
