
#######################################################################
#
#                 Cambridge Crystallographic Data Centre
#                                CCDC
#
#######################################################################
#
# If this CIF has been generated from an entry in the Cambridge
# Structural Database, then it will include bibliographic, chemical,
# crystal, experimental, refinement or atomic coordinate data resulting
# from the CCDC's data processing and validation procedures.
#
#######################################################################

data_CSD_CIF_EYORIV
_audit_creation_date 2016-11-01
_audit_creation_method CSD-ConQuest-V1
_database_code_CSD EYORIV
_database_code_depnum_ccdc_archive 'CCDC 1051513'
_chemical_formula_sum 'C16 H15 Cr1 N1 O6'
_chemical_formula_moiety
;
C16 H15 Cr1 N1 O6
;
_journal_coden_Cambridge 211
_journal_volume 68
_journal_year 2015
_journal_page_first 2388
_journal_name_full 'J.Coord.Chem. '
loop_
_publ_author_name
"M.Landman"
"R.Fraser"
"L.Twigge"
"J.Conradie"
_chemical_name_systematic
;
pentacarbonyl-((cyclohexylamino)(2-furyl)methylene)-chromium
;
_cell_volume    833.646
_exptl_crystal_colour 'yellow'
_exptl_crystal_density_diffrn 1.471
_exptl_crystal_description 'needle'
_diffrn_ambient_temperature 150
#These two values have been output from a single CSD field.
_refine_ls_R_factor_gt 0.0261
_refine_ls_wR_factor_gt 0.0261
_symmetry_cell_setting triclinic
_symmetry_space_group_name_H-M 'P -1'
_symmetry_Int_Tables_number 2
loop_
_symmetry_equiv_pos_site_id
_symmetry_equiv_pos_as_xyz
1 x,y,z
2 -x,-y,-z
_cell_length_a 6.5929(4)
_cell_length_b 9.2293(6)
_cell_length_c 15.1287(10)
_cell_angle_alpha 101.865(2)
_cell_angle_beta 93.651(3)
_cell_angle_gamma 110.647(2)
_cell_formula_units_Z 2
loop_
_atom_type_symbol
_atom_type_radius_bond
C 0.68
H 0.23
Cr 1.39
N 0.68
O 0.68
loop_
_atom_site_label
_atom_site_type_symbol
_atom_site_fract_x
_atom_site_fract_y
_atom_site_fract_z
Cr1 Cr 0.87353(3) 0.80971(2) 0.28048(2)
C1 C 0.8462(3) 0.99783(18) 0.26605(11)
O1 O 0.8276(2) 1.11367(14) 0.25714(10)
C2 C 1.1791(3) 0.92921(17) 0.31787(10)
O2 O 1.36116(19) 1.00720(14) 0.33746(8)
C3 C 0.8116(2) 0.84669(16) 0.40173(10)
O3 O 0.77057(19) 0.86855(14) 0.47451(8)
C4 C 0.5656(3) 0.71194(17) 0.24105(10)
O4 O 0.38055(18) 0.66342(14) 0.21763(8)
C5 C 0.9412(2) 0.75731(17) 0.16066(10)
O5 O 0.9874(2) 0.72496(16) 0.08993(8)
C6 C 0.9147(2) 0.59897(16) 0.29760(9)
N1 N 0.8187(2) 0.45383(14) 0.24541(8)
H1 H 0.847(3) 0.388(2) 0.2586(12)
C7 C 0.6456(2) 0.39573(16) 0.16633(9)
H2 H 0.62290 0.48980 0.15100
C8 C 0.7125(2) 0.30740(18) 0.08365(10)
H3 H 0.74500 0.21770 0.09880
H4 H 0.84670 0.38090 0.06710
C9 C 0.5270(3) 0.24348(19) 0.00292(10)
H5 H 0.50250 0.33410 -0.01490
H6 H 0.56950 0.18350 -0.04990
C10 C 0.3163(3) 0.13467(19) 0.02739(11)
H7 H 0.33780 0.04030 0.04110
H8 H 0.19800 0.09680 -0.02530
C11 C 0.2494(3) 0.2227(2) 0.10983(11)
H9 H 0.11560 0.14850 0.12620
H10 H 0.21500 0.31120 0.09410
C12 C 0.4326(2) 0.28963(18) 0.19173(10)
H11 H 0.38930 0.35260 0.24300
H12 H 0.45560 0.20050 0.21200
O6 O 1.10529(17) 0.46440(12) 0.37270(7)
C13 C 1.0693(2) 0.60379(16) 0.37312(9)
C14 C 1.1844(2) 0.71494(18) 0.45069(10)
H13 H 1.19030 0.82150 0.46820
C15 C 1.2942(2) 0.64257(19) 0.50078(10)
H14 H 1.38670 0.69090 0.55800
C16 C 1.2412(2) 0.49266(19) 0.45116(11)
H15 H 1.29160 0.41650 0.46840
#END
