
#######################################################################
#
#                 Cambridge Crystallographic Data Centre
#                                CCDC
#
#######################################################################
#
# If this CIF has been generated from an entry in the Cambridge
# Structural Database, then it will include bibliographic, chemical,
# crystal, experimental, refinement or atomic coordinate data resulting
# from the CCDC's data processing and validation procedures.
#
#######################################################################

data_CSD_CIF_EYOTOB
_audit_creation_date 2004-10-07
_audit_creation_method CSD-ConQuest-V1
_database_code_CSD EYOTOB
_database_code_depnum_ccdc_archive 'CCDC 248401'
_chemical_formula_sum 'C6 H12 Mn1 N2 O8'
_chemical_formula_moiety
;
C6 H12 Mn1 N2 O8
;
_journal_coden_Cambridge 82
_journal_volume 44
_journal_year 2003
_journal_page_first 1161
_journal_name_full 'Zh.Strukt.Khim.(Russ.)(J.Struct.Chem.) '
loop_
_publ_author_name
"I.V.Raspertova"
"M.V.Zhigalko"
"O.V.Shishkin"
"R.D.Lampeka"
_chemical_name_systematic
;
Diaqua-bis((carboxy-O)-N-(hydroxy-O)-N-methylmethaniminiumato)-manganese (ii)
;
_cell_volume    518.830
_exptl_crystal_density_diffrn 1.889
_exptl_special_details
;
Isostructural with the Co and Zn analogues

;
_diffrn_ambient_temperature 295
#These two values have been output from a single CSD field.
_refine_ls_R_factor_gt 0.0237
_refine_ls_wR_factor_gt 0.0237
_symmetry_cell_setting monoclinic
_symmetry_space_group_name_H-M 'P 21/n'
_symmetry_Int_Tables_number 14
loop_
_symmetry_equiv_pos_site_id
_symmetry_equiv_pos_as_xyz
1 x,y,z
2 1/2+x,1/2-y,1/2+z
3 -x,-y,-z
4 -1/2-x,-1/2+y,-1/2-z
_cell_length_a 7.3828(2)
_cell_length_b 7.3628(2)
_cell_length_c 9.618(2)
_cell_angle_alpha 90
_cell_angle_beta 97.08(2)
_cell_angle_gamma 90
_cell_formula_units_Z 2
loop_
_atom_type_symbol
_atom_type_radius_bond
C 0.68
H 0.23
Mn 1.35
N 0.68
O 0.68
loop_
_atom_site_label
_atom_site_type_symbol
_atom_site_fract_x
_atom_site_fract_y
_atom_site_fract_z
Mn1 Mn 0.00000 0.00000 0.00000
O1 O -0.25316(16) 0.07309(19) -0.11629(14)
O2 O -0.54872(17) 0.04042(18) -0.18886(15)
O3 O -0.13480(16) -0.24325(18) 0.04095(13)
O4 O -0.10644(17) 0.11127(18) 0.19311(15)
H1 H -0.08650 0.21990 0.23540
H2 H -0.22400 0.07140 0.19520
N1 N -0.26640(18) -0.3130(2) -0.04565(15)
C1 C -0.3955(2) -0.0207(2) -0.14317(16)
C2 C -0.3865(2) -0.2227(2) -0.12693(17)
H3 H -0.47620 -0.28990 -0.18060
C3 C -0.2688(3) -0.5126(2) -0.0408(2)
H4 H -0.28370 -0.55190 0.05230
H5 H -0.15590 -0.55900 -0.06630
H6 H -0.36850 -0.55730 -0.10530
O1B O 0.25316(16) -0.07309(19) 0.11629(14)
C1B C 0.3955(2) 0.0207(2) 0.14317(16)
O2B O 0.54872(17) -0.04042(18) 0.18886(15)
C2B C 0.3865(2) 0.2227(2) 0.12693(17)
N1B N 0.26640(18) 0.3130(2) 0.04565(15)
O3B O 0.13480(16) 0.24325(18) -0.04095(13)
O4B O 0.10644(17) -0.11127(18) -0.19311(15)
H1B H 0.08650 -0.21990 -0.23540
H2B H 0.22400 -0.07140 -0.19520
C3B C 0.2688(3) 0.5126(2) 0.0408(2)
H4B H 0.28370 0.55190 -0.05230
H5B H 0.15590 0.55900 0.06630
H6B H 0.36850 0.55730 0.10530
H3B H 0.47620 0.28990 0.18060
#END
