
#######################################################################
#
#                 Cambridge Crystallographic Data Centre
#                                CCDC
#
#######################################################################
#
# If this CIF has been generated from an entry in the Cambridge
# Structural Database, then it will include bibliographic, chemical,
# crystal, experimental, refinement or atomic coordinate data resulting
# from the CCDC's data processing and validation procedures.
#
#######################################################################

data_CSD_CIF_FAGNAD
_audit_creation_date 2002-06-14
_audit_creation_method CSD-ConQuest-V1
_database_code_CSD FAGNAD
_database_code_depnum_ccdc_archive 'CCDC 184536'
_chemical_formula_sum 'C32 H36 Fe1 N4'
_chemical_formula_moiety
;
C32 H36 Fe1 N4
;
_journal_coden_Cambridge 9
_journal_volume 41
_journal_year 2002
_journal_page_first 1979
_journal_name_full 'Inorg.Chem. '
loop_
_publ_author_name
"K.Rachlewicz"
"L.Latos-Grazynski"
"E.Vogel"
"Z.Ciunik"
"L.B.Jerzykiewicz"
_chemical_name_systematic
;
(2,7,12,17-tetrakis(n-Propyl)porphycene)-iron(ii)
;
_cell_volume    630.372
_exptl_crystal_density_diffrn 1.403
_exptl_crystal_description 'rhombic'
_diffrn_ambient_temperature 100.0
#These two values have been output from a single CSD field.
_refine_ls_R_factor_gt 0.0875
_refine_ls_wR_factor_gt 0.0875
_symmetry_cell_setting triclinic
_symmetry_space_group_name_H-M 'P -1'
_symmetry_Int_Tables_number 2
loop_
_symmetry_equiv_pos_site_id
_symmetry_equiv_pos_as_xyz
1 x,y,z
2 -x,-y,-z
_cell_length_a 5.196(1)
_cell_length_b 9.857(2)
_cell_length_c 12.506(3)
_cell_angle_alpha 81.17(3)
_cell_angle_beta 84.85(3)
_cell_angle_gamma 89.29(3)
_cell_formula_units_Z 1
loop_
_atom_type_symbol
_atom_type_radius_bond
C 0.68
H 0.23
Fe 1.34
N 0.68
loop_
_atom_site_label
_atom_site_type_symbol
_atom_site_fract_x
_atom_site_fract_y
_atom_site_fract_z
Fe1 Fe 0.00000 0.00000 0.00000
N1 N 0.2232(10) 0.1179(5) 0.0603(6)
N2 N 0.1492(10) 0.0383(5) -0.1456(5)
C1 C 0.1756(12) 0.1166(6) 0.1689(7)
C2 C 0.3428(13) 0.2084(6) 0.2061(6)
H1 H 0.34380 0.22670 0.27850
C3 C 0.4992(11) 0.2646(6) 0.1201(6)
C4 C 0.4303(12) 0.2072(6) 0.0260(7)
C5 C 0.5636(12) 0.2361(6) -0.0762(7)
H2 H 0.71110 0.29290 -0.07850
C6 C 0.5225(11) 0.1979(6) -0.1757(7)
H3 H 0.64220 0.23920 -0.23300
C7 C 0.3450(12) 0.1125(6) -0.2109(7)
C8 C 0.3412(13) 0.0918(6) -0.3229(7)
C9 C 0.1473(13) 0.0001(6) -0.3268(7)
H4 H 0.10240 -0.03580 -0.38900
C10 C 0.0273(12) -0.0303(6) -0.2196(7)
C11 C 0.7052(11) 0.3717(6) 0.1165(6)
H5 H 0.65910 0.45470 0.06670
H6 H 0.87060 0.33650 0.08600
C12 C 0.7449(11) 0.4127(6) 0.2260(6)
H7 H 0.79250 0.33020 0.27600
H8 H 0.57990 0.44810 0.25680
C13 C 0.9557(12) 0.5226(6) 0.2197(7)
H9 H 1.12220 0.48620 0.19370
H10 H 0.96760 0.54760 0.29200
H11 H 0.91160 0.60410 0.16930
C14 C 0.5184(16) 0.1567(7) -0.4160(8)
H12 H 0.51120 0.10340 -0.47660
H13 H 0.69710 0.15040 -0.39410
C15 C 0.4614(15) 0.3048(8) -0.4570(6)
H14 H 0.59190 0.33920 -0.51740
H15 H 0.47720 0.35970 -0.39790
C16 C 0.189(2) 0.3265(11) -0.4973(7)
H16 H 0.18410 0.29020 -0.56580
H17 H 0.14880 0.42480 -0.50890
H18 H 0.06090 0.27830 -0.44280
N1A N -0.2232(10) -0.1179(5) -0.0603(6)
C1A C -0.1756(12) -0.1166(6) -0.1689(7)
C2A C -0.3428(13) -0.2084(6) -0.2061(6)
H1A H -0.34380 -0.22670 -0.27850
C3A C -0.4992(11) -0.2646(6) -0.1201(6)
C4A C -0.4303(12) -0.2072(6) -0.0260(7)
C5A C -0.5636(12) -0.2361(6) 0.0762(7)
H2A H -0.71110 -0.29290 0.07850
C6A C -0.5225(11) -0.1979(6) 0.1757(7)
H3A H -0.64220 -0.23920 0.23300
C7A C -0.3450(12) -0.1125(6) 0.2109(7)
N2A N -0.1492(10) -0.0383(5) 0.1456(5)
C10A C -0.0273(12) 0.0303(6) 0.2196(7)
C9A C -0.1473(13) -0.0001(6) 0.3268(7)
C8A C -0.3412(13) -0.0918(6) 0.3229(7)
C14A C -0.5184(16) -0.1567(7) 0.4160(8)
H12A H -0.51120 -0.10340 0.47660
H13A H -0.69710 -0.15040 0.39410
C15A C -0.4614(15) -0.3048(8) 0.4570(6)
H14A H -0.59190 -0.33920 0.51740
H15A H -0.47720 -0.35970 0.39790
C16A C -0.189(2) -0.3265(11) 0.4973(7)
H16A H -0.18410 -0.29020 0.56580
H17A H -0.14880 -0.42480 0.50890
H18A H -0.06090 -0.27830 0.44280
H4A H -0.10240 0.03580 0.38900
C11A C -0.7052(11) -0.3717(6) -0.1165(6)
H5A H -0.65910 -0.45470 -0.06670
H6A H -0.87060 -0.33650 -0.08600
C12A C -0.7449(11) -0.4127(6) -0.2260(6)
H7A H -0.79250 -0.33020 -0.27600
H8A H -0.57990 -0.44810 -0.25680
C13A C -0.9557(12) -0.5226(6) -0.2197(7)
H9A H -1.12220 -0.48620 -0.19370
H10A H -0.96760 -0.54760 -0.29200
H11A H -0.91160 -0.60410 -0.16930
#END
