
#######################################################################
#
#                 Cambridge Crystallographic Data Centre
#                                CCDC
#
#######################################################################
#
# If this CIF has been generated from an entry in the Cambridge
# Structural Database, then it will include bibliographic, chemical,
# crystal, experimental, refinement or atomic coordinate data resulting
# from the CCDC's data processing and validation procedures.
#
#######################################################################

data_CSD_CIF_FAJFUS
_audit_creation_date 2005-04-12
_audit_creation_method CSD-ConQuest-V1
_database_code_CSD FAJFUS
_database_code_depnum_ccdc_archive 'CCDC 231325'
_chemical_formula_sum 'C15 H26 Cl2 Fe1 N6'
_chemical_formula_moiety
;
C15 H26 Cl2 Fe1 N6
;
_journal_coden_Cambridge 9
_journal_volume 43
_journal_year 2004
_journal_page_first 7564
_journal_name_full 'Inorg.Chem. '
loop_
_publ_author_name
"S.H.Oakley"
"M.P.Coles"
"P.B.Hitchcock"
_chemical_name_systematic
;
Dichloro-(methylenebis(1,3,4,6,7,8-hexahydro-2H-pyrimido(1,2-a)pyrimidine)-N,N
')-iron(ii)
;
_cell_volume    901.102
_exptl_crystal_colour 'colorless'
_exptl_crystal_density_diffrn 1.538
_exptl_crystal_description 'prism'
_diffrn_ambient_temperature 173
#These two values have been output from a single CSD field.
_refine_ls_R_factor_gt 0.0238
_refine_ls_wR_factor_gt 0.0238
_symmetry_cell_setting monoclinic
_symmetry_space_group_name_H-M 'P 21'
_symmetry_Int_Tables_number 4
loop_
_symmetry_equiv_pos_site_id
_symmetry_equiv_pos_as_xyz
1 x,y,z
2 -x,1/2+y,-z
_cell_length_a 9.4021(3)
_cell_length_b 8.2761(3)
_cell_length_c 12.2393(4)
_cell_angle_alpha 90
_cell_angle_beta 108.886(2)
_cell_angle_gamma 90
_cell_formula_units_Z 2
loop_
_atom_type_symbol
_atom_type_radius_bond
C 0.68
H 0.23
Cl 0.99
Fe 1.34
N 0.68
loop_
_atom_site_label
_atom_site_type_symbol
_atom_site_fract_x
_atom_site_fract_y
_atom_site_fract_z
Fe1 Fe 0.27415(3) 0.35152(3) 0.72959(2)
Cl1 Cl 0.31297(6) 0.09079(6) 0.67908(6)
Cl2 Cl 0.09344(6) 0.41464(8) 0.81512(4)
N1 N 0.19404(19) 0.4750(2) 0.58018(15)
N2 N 0.38581(19) 0.6578(2) 0.58744(15)
N3 N 0.2091(2) 0.5886(2) 0.40897(15)
N4 N 0.57130(19) 0.6094(2) 0.77817(14)
N5 N 0.46999(18) 0.3994(2) 0.85581(14)
N6 N 0.72389(19) 0.4661(2) 0.93651(16)
C1 C 0.2606(2) 0.5708(2) 0.52572(17)
C2 C 0.0471(2) 0.4079(3) 0.51202(18)
H1 H -0.03090 0.49270 0.49860
H2 H 0.01990 0.31870 0.55530
C3 C 0.0529(3) 0.3455(3) 0.39725(18)
H3 H 0.13220 0.26230 0.40950
H4 H -0.04480 0.29710 0.35230
C4 C 0.0874(3) 0.4885(3) 0.33423(18)
H5 H 0.11630 0.44970 0.26780
H6 H -0.00430 0.55530 0.30360
C5 C 0.2669(3) 0.7070(3) 0.34512(19)
H7 H 0.18200 0.75450 0.28270
H8 H 0.33390 0.65210 0.30900
C6 C 0.3514(3) 0.8381(4) 0.42196(19)
H9 H 0.28100 0.90850 0.44520
H10 H 0.40490 0.90510 0.38060
C7 C 0.4628(3) 0.7632(3) 0.5273(2)
H11 H 0.53720 0.69930 0.50400
H12 H 0.51740 0.84960 0.58040
C8 C 0.4274(2) 0.6815(2) 0.71189(16)
H13 H 0.34780 0.63480 0.73890
H14 H 0.43160 0.79890 0.72800
C9 C 0.5859(2) 0.4891(2) 0.85770(16)
C10 C 0.7076(3) 0.6945(4) 0.77746(19)
H15 H 0.68000 0.79380 0.73010
H16 H 0.76710 0.62460 0.74290
C11 C 0.8007(3) 0.7386(3) 0.90002(19)
H17 H 0.89080 0.80050 0.90010
H18 H 0.74080 0.80600 0.93580
C12 C 0.8464(2) 0.5848(3) 0.96623(19)
H19 H 0.93420 0.53850 0.94950
H20 H 0.87700 0.60830 1.05000
C13 C 0.7663(3) 0.3127(3) 0.9986(2)
H21 H 0.79790 0.33350 1.08270
H22 H 0.85320 0.26610 0.98060
C14 C 0.6398(3) 0.1923(3) 0.9673(2)
H23 H 0.65590 0.11040 1.02910
H24 H 0.63410 0.13640 0.89450
C15 C 0.4963(2) 0.2852(3) 0.95294(18)
H25 H 0.41060 0.20930 0.93750
H26 H 0.50470 0.34520 1.02480
#END
