
#######################################################################
#
#                 Cambridge Crystallographic Data Centre
#                                CCDC
#
#######################################################################
#
# If this CIF has been generated from an entry in the Cambridge
# Structural Database, then it will include bibliographic, chemical,
# crystal, experimental, refinement or atomic coordinate data resulting
# from the CCDC's data processing and validation procedures.
#
#######################################################################

data_CSD_CIF_FANJEJ
_audit_creation_date 1987-07-17
_audit_creation_method CSD-ConQuest-V1
_database_code_CSD FANJEJ
_chemical_formula_sum 'C14 H14 Cr1 O5'
_chemical_formula_moiety
;
C14 H14 Cr1 O5
;
_journal_coden_Cambridge 179
_journal_volume 25
_journal_year 1986
_journal_page_first 812
_journal_name_full 'Angew.Chem.,Int.Ed. '
loop_
_publ_author_name
"K.H.Dotz"
"W.Kuhn"
"G.Muller"
"B.Huber"
"H.G.Alt"
_chemical_name_systematic
;
Tetracarbonyl-(\h^2^-5-methoxycarbene-5-methyl-bicyclo(2.2.1)hept-2-ene)-chrom
ium
;
_cell_volume    700.669
_exptl_crystal_colour 'orange-red'
_exptl_crystal_density_diffrn 1.489
_diffrn_ambient_temperature 233.15
#These two values have been output from a single CSD field.
_refine_ls_R_factor_gt 0.042
_refine_ls_wR_factor_gt 0.042
_symmetry_cell_setting triclinic
_symmetry_space_group_name_H-M 'P -1'
_symmetry_Int_Tables_number 2
loop_
_symmetry_equiv_pos_site_id
_symmetry_equiv_pos_as_xyz
1 x,y,z
2 -x,-y,-z
_cell_length_a 6.848(1)
_cell_length_b 8.412(1)
_cell_length_c 13.353(2)
_cell_angle_alpha 92.74(1)
_cell_angle_beta 100.14(1)
_cell_angle_gamma 111.21(1)
_cell_formula_units_Z 2
loop_
_atom_type_symbol
_atom_type_radius_bond
C 0.68
H 0.23
Cr 1.35
O 0.68
loop_
_atom_site_label
_atom_site_type_symbol
_atom_site_fract_x
_atom_site_fract_y
_atom_site_fract_z
Cr1 Cr 0.3740(1) 0.6605(1) 0.23650
O1 O -0.0460(4) 0.7038(3) 0.1570(2)
O2 O 0.5749(4) 0.8693(3) 0.0762(2)
O3 O 0.7897(4) 0.6560(4) 0.3580(2)
O4 O 0.5074(4) 0.9985(3) 0.3659(2)
O5 O 0.2050(4) 0.4933(3) 0.4200(2)
C1 C 0.1123(5) 0.6850(4) 0.1862(2)
C2 C 0.5012(5) 0.7887(4) 0.1355(2)
C3 C 0.6362(5) 0.6571(4) 0.3093(2)
C4 C 0.4512(5) 0.8649(4) 0.3184(2)
C5 C 0.2352(5) 0.4844(4) 0.3259(2)
C6 C 0.2703(6) 0.6584(4) 0.4801(3)
C7 C 0.1413(5) 0.2959(4) 0.2813(2)
C8 C -0.0607(5) 0.2801(5) 0.2038(3)
C9 C 0.0120(5) 0.2751(4) 0.1055(3)
C10 C 0.2078(5) 0.4371(4) 0.0987(2)
C11 C 0.3839(5) 0.4180(4) 0.1564(3)
C12 C 0.2904(6) 0.2578(4) 0.2134(3)
C13 C 0.1177(6) 0.1442(4) 0.1174(3)
C14 C 0.0919(6) 0.1633(5) 0.3608(3)
H1 H 0.20200 0.74160 0.44520
H2 H 0.41740 0.71740 0.48600
H3 H 0.21810 0.62780 0.54190
H4 H -0.18620 0.16740 0.21550
H5 H -0.10400 0.38350 0.22010
H6 H -0.11310 0.25930 0.04040
H7 H 0.22140 0.49950 0.04070
H8 H 0.53370 0.45250 0.13880
H9 H 0.40190 0.22660 0.25150
H10 H 0.01340 0.02760 0.13300
H11 H 0.16930 0.12460 0.06100
H12 H -0.02580 0.18120 0.39250
H13 H 0.03570 0.03200 0.32330
H14 H 0.23930 0.17350 0.42210
#END
