
#######################################################################
#
#                 Cambridge Crystallographic Data Centre
#                                CCDC
#
#######################################################################
#
# If this CIF has been generated from an entry in the Cambridge
# Structural Database, then it will include bibliographic, chemical,
# crystal, experimental, refinement or atomic coordinate data resulting
# from the CCDC's data processing and validation procedures.
#
#######################################################################

data_CSD_CIF_FEYMIG
_audit_creation_date 2005-05-31
_audit_creation_method CSD-ConQuest-V1
_database_code_CSD FEYMIG
_database_code_depnum_ccdc_archive 'CCDC 255788'
_chemical_formula_sum 'C26 H34 Co1 N4'
_chemical_formula_moiety
;
C26 H34 Co1 N4
;
_journal_coden_Cambridge 1039
_journal_volume 26
_journal_year 2003
_journal_page_first 324
_journal_name_full 'Shanxi Daxue Xuebao,Ziran Kex.(Chin.)(J.Shanxi Univ.(Nat.Sci.)) '
loop_
_publ_author_name
"Lin-qing Zhang"
"Shu-ping Huang"
"Dian-sheng Liu"
_chemical_name_systematic
;
bis(4,4-Dimethyl-1-phenylpentane-1,3-diiminato)-cobalt(ii)
;
_cell_volume    596.421
_exptl_crystal_colour 'red'
_exptl_crystal_density_diffrn 1.285
_exptl_crystal_description 'Block'
_diffrn_ambient_temperature 293
#These two values have been output from a single CSD field.
_refine_ls_R_factor_gt 0.0385
_refine_ls_wR_factor_gt 0.0385
_symmetry_cell_setting triclinic
_symmetry_space_group_name_H-M 'P -1'
_symmetry_Int_Tables_number 2
loop_
_symmetry_equiv_pos_site_id
_symmetry_equiv_pos_as_xyz
1 x,y,z
2 -x,-y,-z
_cell_length_a 5.9043(12)
_cell_length_b 8.3890(17)
_cell_length_c 12.724(3)
_cell_angle_alpha 75.75(3)
_cell_angle_beta 83.42(3)
_cell_angle_gamma 78.13(3)
_cell_formula_units_Z 1
loop_
_atom_type_symbol
_atom_type_radius_bond
C 0.68
H 0.23
Co 1.33
N 0.68
loop_
_atom_site_label
_atom_site_type_symbol
_atom_site_fract_x
_atom_site_fract_y
_atom_site_fract_z
Co1 Co 0.00000 1.00000 1.00000
N1 N 0.2045(4) 1.0769(3) 0.88836(17)
N2 N 0.0506(4) 1.1544(3) 1.07357(16)
C1 C 0.2707(4) 1.0329(3) 0.79376(18)
C2 C 0.1913(4) 0.9060(3) 0.76644(19)
H1 H 0.24630 0.87950 0.70020
C3 C -0.0348(4) 1.1850(3) 1.16865(19)
C4 C 0.0365(4) 1.3259(3) 1.20847(18)
C5 C -0.1806(4) 1.4596(3) 1.2173(2)
H2 H -0.24330 1.50290 1.14740
H3 H -0.29430 1.41080 1.26820
H4 H -0.14000 1.54900 1.24180
C6 C 0.1321(4) 1.2542(3) 1.32151(19)
H5 H 0.16690 1.34310 1.34850
H6 H 0.01820 1.20200 1.37040
H7 H 0.27080 1.17290 1.31610
C7 C 0.2200(4) 1.4079(3) 1.13288(19)
H8 H 0.16140 1.45620 1.06250
H9 H 0.25750 1.49390 1.16190
H10 H 0.35680 1.32530 1.12660
C8 C 0.4315(4) 1.1270(3) 0.71576(19)
C9 C 0.4024(4) 1.1697(3) 0.60473(19)
H11 H 0.28300 1.13680 0.57840
C10 C 0.5481(5) 1.2598(3) 0.5336(2)
H12 H 0.52590 1.28790 0.45960
C11 C 0.7258(5) 1.3086(3) 0.5706(2)
H13 H 0.82360 1.36990 0.52190
C12 C 0.7590(4) 1.2669(3) 0.6795(2)
H14 H 0.88020 1.29920 0.70490
C13 C 0.6126(4) 1.1770(3) 0.75164(19)
H15 H 0.63590 1.14960 0.82550
H16 H 0.267(4) 1.151(3) 0.8936(17)
H17 H 0.151(4) 1.216(3) 1.0422(18)
N1A N -0.2045(4) 0.9231(3) 1.11164(17)
N2A N -0.0506(4) 0.8456(3) 0.92643(16)
C1A C -0.2707(4) 0.9671(3) 1.20624(18)
C2A C -0.1913(4) 1.0940(3) 1.23356(19)
H1A H -0.24630 1.12050 1.29980
C3A C 0.0348(4) 0.8150(3) 0.83135(19)
C4A C -0.0365(4) 0.6741(3) 0.79153(18)
C5A C 0.1806(4) 0.5404(3) 0.7827(2)
H2A H 0.24330 0.49710 0.85260
H3A H 0.29430 0.58920 0.73180
H4A H 0.14000 0.45100 0.75820
C6A C -0.1321(4) 0.7458(3) 0.67849(19)
H5A H -0.16690 0.65690 0.65150
H6A H -0.01820 0.79800 0.62960
H7A H -0.27080 0.82710 0.68390
C7A C -0.2200(4) 0.5921(3) 0.86712(19)
H8A H -0.16140 0.54380 0.93750
H9A H -0.25750 0.50610 0.83810
H10A H -0.35680 0.67470 0.87340
C8A C -0.4315(4) 0.8730(3) 1.28424(19)
C9A C -0.4024(4) 0.8303(3) 1.39527(19)
H11A H -0.28300 0.86320 1.42160
C10A C -0.5481(5) 0.7402(3) 1.4664(2)
H12A H -0.52590 0.71210 1.54040
C11A C -0.7258(5) 0.6914(3) 1.4294(2)
H13A H -0.82360 0.63010 1.47810
C12A C -0.7590(4) 0.7331(3) 1.3205(2)
H14A H -0.88020 0.70080 1.29510
C13A C -0.6126(4) 0.8230(3) 1.24836(19)
H15A H -0.63590 0.85040 1.17450
H16A H -0.267(4) 0.849(3) 1.1064(17)
H17A H -0.151(4) 0.784(3) 0.9578(18)
#END
