
#######################################################################
#
#                 Cambridge Crystallographic Data Centre
#                                CCDC
#
#######################################################################
#
# If this CIF has been generated from an entry in the Cambridge
# Structural Database, then it will include bibliographic, chemical,
# crystal, experimental, refinement or atomic coordinate data resulting
# from the CCDC's data processing and validation procedures.
#
#######################################################################

data_CSD_CIF_FEYTIN
_audit_creation_date 2005-05-31
_audit_creation_method CSD-ConQuest-V1
_database_code_CSD FEYTIN
_database_code_depnum_ccdc_archive 'CCDC 263572'
_chemical_formula_sum 'C8 H16 Mn1 N8 O6'
_chemical_formula_moiety
;
H12 Mn1 O6 2+,C8 H4 N8 2-
;
_journal_coeditor_code "IUCr BV6009"
_journal_coden_Cambridge 1370
_journal_volume 61
_journal_year 2005
_journal_page_first m361
_journal_name_full 'Acta Crystallogr.,Sect.E:Struct.Rep.Online '
loop_
_publ_author_name
"Zhi-Jie Ma"
"Jun Tao"
"Rong-Bin Huang"
"Lan-Sun Zheng"
_chemical_name_systematic
;
Hexaaqua-manganese(ii) 5,5'-(1,4-phenylene)ditetrazolate
;
_cell_volume    776.970
_exptl_crystal_colour 'colorless'
_exptl_crystal_density_diffrn 1.604
_exptl_crystal_description 'block'
_diffrn_ambient_temperature 296
#These two values have been output from a single CSD field.
_refine_ls_R_factor_gt 0.029
_refine_ls_wR_factor_gt 0.029
_symmetry_cell_setting monoclinic
_symmetry_space_group_name_H-M 'P 21/n'
_symmetry_Int_Tables_number 14
loop_
_symmetry_equiv_pos_site_id
_symmetry_equiv_pos_as_xyz
1 x,y,z
2 1/2-x,1/2+y,1/2-z
3 -x,-y,-z
4 -1/2+x,-1/2-y,-1/2+z
_cell_length_a 5.0587(3)
_cell_length_b 13.4343(7)
_cell_length_c 11.4989(6)
_cell_angle_alpha 90
_cell_angle_beta 96.149(1)
_cell_angle_gamma 90
_cell_formula_units_Z 2
loop_
_atom_type_symbol
_atom_type_radius_bond
C 0.68
H 0.23
Mn 1.35
N 0.68
O 0.68
loop_
_atom_site_label
_atom_site_type_symbol
_atom_site_fract_x
_atom_site_fract_y
_atom_site_fract_z
Mn1 Mn 0.50000 0.00000 0.50000
O1 O 0.2304(2) -0.05949(8) 0.35326(9)
H1 H 0.188(5) -0.019(1) 0.298(1)
H2 H 0.262(4) -0.1166(8) 0.327(1)
O2 O 0.1917(2) 0.10825(8) 0.52315(11)
H3 H 0.256(4) 0.165(1) 0.544(1)
H4 H 0.078(4) 0.0938(1) 0.569(1)
O3 O 0.3422(2) -0.1110(1) 0.6091(1)
H5 H 0.446(3) -0.141(1) 0.659(1)
H6 H 0.183(2) -0.126(2) 0.613(2)
N1 N 0.9034(3) -0.0891(1) 0.8008(1)
N2 N 0.7609(3) -0.1697(1) 0.7660(1)
N3 N 0.8643(3) -0.2472(1) 0.8203(1)
N4 N 1.0771(3) -0.2196(1) 0.8929(1)
C1 C 1.0958(3) -0.1221(1) 0.8789(1)
C2 C 1.3018(3) -0.0595(1) 0.9411(1)
C3 C 1.3321(4) 0.0393(1) 0.9091(1)
H7 H 1.21940 0.06620 0.84790
C4 C 1.4719(4) -0.0977(1) 1.0326(1)
H8 H 1.45390 -0.16360 1.05510
O1B O 0.7696(2) 0.05949(8) 0.64674(9)
H1B H 0.812(5) 0.019(1) 0.702(1)
H2B H 0.738(4) 0.1166(8) 0.673(1)
O2B O 0.8083(2) -0.10825(8) 0.47685(11)
H3B H 0.744(4) -0.165(1) 0.456(1)
H4B H 0.922(4) -0.0938(1) 0.431(1)
O3B O 0.6578(2) 0.1110(1) 0.3909(1)
H5B H 0.554(3) 0.141(1) 0.341(1)
H6B H 0.817(2) 0.126(2) 0.387(2)
N1B N 2.0966(3) 0.0891(1) 1.1992(1)
N2B N 2.2391(3) 0.1697(1) 1.2340(1)
N3B N 2.1357(3) 0.2472(1) 1.1797(1)
N4B N 1.9229(3) 0.2196(1) 1.1071(1)
C1B C 1.9042(3) 0.1221(1) 1.1211(1)
C2B C 1.6982(3) 0.0595(1) 1.0589(1)
C3B C 1.6679(4) -0.0393(1) 1.0909(1)
H7B H 1.78060 -0.06620 1.15210
C4B C 1.5281(4) 0.0977(1) 0.9674(1)
H8B H 1.54610 0.16360 0.94490
#END
