
#######################################################################
#
#                 Cambridge Crystallographic Data Centre
#                                CCDC
#
#######################################################################
#
# If this CIF has been generated from an entry in the Cambridge
# Structural Database, then it will include bibliographic, chemical,
# crystal, experimental, refinement or atomic coordinate data resulting
# from the CCDC's data processing and validation procedures.
#
#######################################################################

data_CSD_CIF_FIBGUS
_audit_creation_date 1999-07-29
_audit_creation_method CSD-ConQuest-V1
_database_code_CSD FIBGUS
_database_code_depnum_ccdc_archive 'CCDC 125703'
_database_code_depnum_ccdc_journal 182/1238
_chemical_formula_sum 'C18 H12 Cr1 F6'
_chemical_formula_moiety
;
C12 H12 Cr1,C6 F6
;
_journal_coden_Cambridge 182
_journal_year 1999
_journal_page_first 1027
_journal_name_full 'Chem.Commun. '
loop_
_publ_author_name
"C.J.Aspley"
"C.Boxwell"
"M.L.Buil"
"C.L.Higgitt"
"C.Long"
"R.N.Perutz"
_chemical_name_systematic
;
bis(\h^6^-Benzene)-chromium hexafluorobenzene
;
_cell_volume    398.870
_exptl_crystal_colour 'red'
_exptl_crystal_density_diffrn 1.641
_exptl_crystal_description 'block'
_diffrn_ambient_temperature ?
_diffrn_special_details
;
The study was carried out at room temperature,in the range 283-303K

;
#These two values have been output from a single CSD field.
_refine_ls_R_factor_gt 0.0392
_refine_ls_wR_factor_gt 0.0392
_symmetry_cell_setting triclinic
_symmetry_space_group_name_H-M 'P -1'
_symmetry_Int_Tables_number 2
loop_
_symmetry_equiv_pos_site_id
_symmetry_equiv_pos_as_xyz
1 x,y,z
2 -x,-y,-z
_cell_length_a 7.3254(8)
_cell_length_b 9.2627(9)
_cell_length_c 6.6102(8)
_cell_angle_alpha 100.026(9)
_cell_angle_beta 112.327(8)
_cell_angle_gamma 97.532(9)
_cell_formula_units_Z 1
loop_
_atom_type_symbol
_atom_type_radius_bond
C 0.68
H 0.23
Cr 1.35
F 0.64
loop_
_atom_site_label
_atom_site_type_symbol
_atom_site_fract_x
_atom_site_fract_y
_atom_site_fract_z
Cr1 Cr 0.00000 0.00000 0.00000
F1 F 0.7042(4) 0.5293(3) 0.2389(4)
F2 F 0.4135(4) 0.6861(3) 0.2187(4)
F3 F 0.7904(4) 0.3431(3) 0.5200(5)
C1 C 0.3209(5) 0.0579(4) 0.1800(6)
H1 H 0.41870 0.00290 0.18120
C2 C 0.2323(5) 0.0523(4) 0.3323(5)
H2 H 0.27090 -0.00690 0.43490
C3 C 0.0860(6) 0.1349(4) 0.3319(5)
H3 H 0.02770 0.13110 0.43420
C4 C 0.0273(5) 0.2235(3) 0.1766(6)
H4 H -0.07030 0.27860 0.17570
C5 C 0.1151(5) 0.2293(3) 0.0233(6)
H5 H 0.07600 0.28810 -0.07980
C6 C 0.2616(5) 0.1468(4) 0.0251(6)
H6 H 0.32020 0.15070 -0.07700
C7 C 0.6014(5) 0.5143(4) 0.3658(5)
C8 C 0.4559(5) 0.5931(3) 0.3578(5)
C9 C 0.6467(5) 0.4214(3) 0.5096(6)
C1A C -0.3209(5) -0.0579(4) -0.1800(6)
H1A H -0.41870 -0.00290 -0.18120
C2A C -0.2323(5) -0.0523(4) -0.3323(5)
C3A C -0.0860(6) -0.1349(4) -0.3319(5)
H2A H -0.27090 0.00690 -0.43490
H3A H -0.02770 -0.13110 -0.43420
C4A C -0.0273(5) -0.2235(3) -0.1766(6)
C5A C -0.1151(5) -0.2293(3) -0.0233(6)
H4A H 0.07030 -0.27860 -0.17570
H5A H -0.07600 -0.28810 0.07980
C6A C -0.2616(5) -0.1468(4) -0.0251(6)
H6A H -0.32020 -0.15070 0.07700
C9A C 0.3533(5) 0.5786(3) 0.4904(6)
F3A F 0.2096(4) 0.6569(3) 0.4800(5)
C7A C 0.3986(5) 0.4857(4) 0.6342(5)
F1A F 0.2958(4) 0.4707(3) 0.7611(4)
C8A C 0.5441(5) 0.4069(3) 0.6422(5)
F2A F 0.5865(4) 0.3139(3) 0.7813(4)
#END
