
#######################################################################
#
#                 Cambridge Crystallographic Data Centre
#                                CCDC
#
#######################################################################
#
# If this CIF has been generated from an entry in the Cambridge
# Structural Database, then it will include bibliographic, chemical,
# crystal, experimental, refinement or atomic coordinate data resulting
# from the CCDC's data processing and validation procedures.
#
#######################################################################

data_CSD_CIF_FICZOG
_audit_creation_date 1988-04-19
_audit_creation_method CSD-ConQuest-V1
_database_code_CSD FICZOG
_database_code_depnum_ccdc_archive 'CCDC 1155843'
_chemical_formula_sum 'C11 H12 Cr1 N4 O5'
_chemical_formula_moiety
;
C11 H12 Cr1 N4 O5
;
_journal_coden_Cambridge 36
_journal_volume 320
_journal_year 1987
_journal_page_first 185
_journal_name_full 'J.Organomet.Chem. '
loop_
_publ_author_name
"H.Fischer"
"F.Seitz"
"G.Muller"
_chemical_name_systematic
;
Pentacarbonyl-(N,N,N',N'-tetramethylcyanoguanidine-N'')-chromium(0)
;
_chemical_melting_point 378.15
_cell_volume    767.301
_exptl_crystal_colour 'yellow'
_exptl_crystal_density_diffrn 1.438
_exptl_special_details
;
Melts with decomposition.

;
_diffrn_ambient_temperature ?
_diffrn_special_details
;
The study was carried out at room temperature,in the range 283-303K

;
#These two values have been output from a single CSD field.
_refine_ls_R_factor_gt 0.034
_refine_ls_wR_factor_gt 0.034
_symmetry_cell_setting triclinic
_symmetry_space_group_name_H-M 'P -1'
_symmetry_Int_Tables_number 2
loop_
_symmetry_equiv_pos_site_id
_symmetry_equiv_pos_as_xyz
1 x,y,z
2 -x,-y,-z
_cell_length_a 9.581(1)
_cell_length_b 9.775(1)
_cell_length_c 9.786(1)
_cell_angle_alpha 109.22(1)
_cell_angle_beta 114.72(1)
_cell_angle_gamma 92.80(1)
_cell_formula_units_Z 2
loop_
_atom_type_symbol
_atom_type_radius_bond
C 0.68
H 0.23
Cr 1.35
N 0.68
O 0.68
loop_
_atom_site_label
_atom_site_type_symbol
_atom_site_fract_x
_atom_site_fract_y
_atom_site_fract_z
Cr1 Cr 0.12847(3) 0.32862(3) 0.22923(3)
O1 O 0.3554(2) 0.4627(2) 0.5902(2)
O2 O -0.0586(2) 0.5545(2) 0.2957(3)
O3 O 0.3092(2) 0.5557(2) 0.1793(2)
O4 O -0.0977(3) 0.2036(2) -0.1335(2)
O5 O -0.0677(2) 0.1262(2) 0.2921(2)
N1 N 0.2604(2) 0.1726(2) 0.1857(2)
N2 N 0.3990(2) -0.0154(2) 0.1005(2)
N3 N 0.5455(2) -0.1906(2) 0.1278(2)
N4 N 0.6143(2) 0.0236(2) 0.3553(2)
C1 C 0.3317(2) 0.0861(2) 0.1560(2)
C2 C 0.5196(2) -0.0567(2) 0.1974(2)
C3 C 0.2723(2) 0.4103(2) 0.4548(2)
C4 C 0.0119(2) 0.4669(2) 0.2680(3)
C5 C 0.2443(2) 0.4672(2) 0.1966(2)
C6 C -0.0145(3) 0.2469(2) 0.0006(3)
C7 C 0.0062(3) 0.1974(3) 0.2662(3)
C8 C 0.7030(3) -0.2212(3) 0.1784(3)
C9 C 0.4257(3) -0.2952(3) -0.0294(3)
C10 C 0.6474(3) 0.1849(3) 0.4228(3)
C11 C 0.6801(3) -0.0432(3) 0.4760(3)
H1 H 0.72260 -0.25000 0.08390
H2 H 0.77920 -0.13860 0.25000
H3 H 0.69530 -0.30460 0.22260
H4 H 0.41600 -0.39060 -0.02920
H5 H 0.33200 -0.27920 -0.02920
H6 H 0.41600 -0.27920 -0.14060
H7 H 0.61130 0.22060 0.33390
H8 H 0.75000 0.22600 0.50000
H9 H 0.58390 0.22260 0.47260
H10 H 0.64060 0.00000 0.58390
H11 H 0.64060 -0.16600 0.41790
H12 H 0.77920 -0.05460 0.50000
#END
