
#######################################################################
#
#                 Cambridge Crystallographic Data Centre
#                                CCDC
#
#######################################################################
#
# If this CIF has been generated from an entry in the Cambridge
# Structural Database, then it will include bibliographic, chemical,
# crystal, experimental, refinement or atomic coordinate data resulting
# from the CCDC's data processing and validation procedures.
#
#######################################################################

data_CSD_CIF_FIDVIY
_audit_creation_date 2005-06-02
_audit_creation_method CSD-ConQuest-V1
_database_code_CSD FIDVIY
_database_code_depnum_ccdc_archive 'CCDC 242564'
_chemical_formula_sum 'C16 H16 Cl1 Mn1 N2 O4'
_chemical_formula_moiety
;
C16 H16 Cl1 Mn1 N2 O4
;
_journal_coden_Cambridge 155
_journal_volume 358
_journal_year 2005
_journal_page_first 233
_journal_name_full 'Inorg.Chim.Acta '
loop_
_publ_author_name
"M.D.Godbole"
"E.Grigiotti"
"P.Zanello"
"A.M.Mills"
"A.L.Spek"
"E.Bouwman"
_chemical_name_systematic
;
Chloro-bis(methyl salicylimidato-N,O)-manganese(ii)
;
_cell_volume    791.466
_exptl_crystal_colour 'dark green'
_exptl_crystal_density_diffrn 1.639
_exptl_crystal_description 'needle'
_exptl_crystal_preparation 'methanol/ether'
_diffrn_ambient_temperature 150
_diffrn_special_details
;
refined as a twin with component contributions of 0.738

;
#These two values have been output from a single CSD field.
_refine_ls_R_factor_gt 0.0516
_refine_ls_wR_factor_gt 0.0516
_symmetry_cell_setting triclinic
_symmetry_space_group_name_H-M 'P -1'
_symmetry_Int_Tables_number 2
loop_
_symmetry_equiv_pos_site_id
_symmetry_equiv_pos_as_xyz
1 x,y,z
2 -x,-y,-z
_cell_length_a 7.289(2)
_cell_length_b 9.675(2)
_cell_length_c 12.146(4)
_cell_angle_alpha 84.552(10)
_cell_angle_beta 77.741(10)
_cell_angle_gamma 71.077(10)
_cell_formula_units_Z 2
loop_
_atom_type_symbol
_atom_type_radius_bond
C 0.68
H 0.23
Cl 0.99
Mn 1.35
N 0.68
O 0.68
loop_
_atom_site_label
_atom_site_type_symbol
_atom_site_fract_x
_atom_site_fract_y
_atom_site_fract_z
Mn1 Mn 0.15321(10) 0.21080(8) 0.04493(6)
Cl1 Cl -0.13843(17) 0.28253(14) -0.03892(10)
C1 C -0.0141(7) 0.3682(5) 0.2530(3)
C2 C -0.0651(6) 0.2520(5) 0.3165(4)
C3 C -0.1727(7) 0.2763(5) 0.4275(4)
H1 H -0.20830 0.19840 0.47030
C4 C -0.2277(8) 0.4112(6) 0.4754(4)
H2 H -0.29930 0.42580 0.55070
C5 C -0.1765(7) 0.5253(5) 0.4118(4)
H3 H -0.21570 0.61870 0.44370
C6 C -0.0698(7) 0.5046(5) 0.3030(4)
H4 H -0.03360 0.58330 0.26160
O1 O 0.0846(5) 0.3582(3) 0.1477(3)
C7 C -0.0099(6) 0.1069(5) 0.2709(4)
N1 N 0.0722(5) 0.0780(4) 0.1666(3)
H5 H 0.09520 -0.01230 0.14710
O2 O -0.0562(5) 0.0081(3) 0.3474(2)
C8 C -0.0199(7) -0.1381(5) 0.3117(4)
H6 H -0.09810 -0.13450 0.25450
H7 H -0.05790 -0.19810 0.37660
H8 H 0.12080 -0.18090 0.27980
C9 C 0.3956(6) 0.0323(5) -0.1411(4)
C10 C 0.4522(6) 0.1471(5) -0.2051(3)
C11 C 0.5478(6) 0.1242(5) -0.3201(4)
H9 H 0.58310 0.20150 -0.36430
C12 C 0.5895(7) -0.0082(5) -0.3677(4)
H10 H 0.65240 -0.02200 -0.44460
C13 C 0.5395(7) -0.1222(5) -0.3034(4)
H11 H 0.57100 -0.21440 -0.33630
C14 C 0.4444(7) -0.1024(5) -0.1920(4)
H12 H 0.41160 -0.18140 -0.14920
O3 O 0.2965(5) 0.0443(3) -0.0352(3)
C15 C 0.4170(6) 0.2872(5) -0.1543(4)
N2 N 0.3053(6) 0.3251(4) -0.0583(3)
H13 H 0.29450 0.41150 -0.03530
O4 O 0.5148(5) 0.3695(3) -0.2208(2)
C16 C 0.4993(7) 0.5102(5) -0.1833(4)
H14 H 0.36150 0.57310 -0.17390
H15 H 0.58260 0.55510 -0.23940
H16 H 0.54320 0.49830 -0.11120
#END
