
#######################################################################
#
#                 Cambridge Crystallographic Data Centre
#                                CCDC
#
#######################################################################
#
# If this CIF has been generated from an entry in the Cambridge
# Structural Database, then it will include bibliographic, chemical,
# crystal, experimental, refinement or atomic coordinate data resulting
# from the CCDC's data processing and validation procedures.
#
#######################################################################

data_CSD_CIF_FIHFIO
_audit_creation_date 2018-08-31
_audit_creation_method CSD-ConQuest-V1
_database_code_CSD FIHFIO
_database_code_depnum_ccdc_archive 'CCDC 1855808'
_chemical_formula_sum 'C16 H16 Cl1 Fe1 N2 O2'
_chemical_formula_moiety
;
C16 H16 Cl1 Fe1 N2 O2
;
_journal_coden_Cambridge 222
_journal_volume 47
_journal_year 2018
_journal_page_first 13106
_journal_name_full 'Dalton Trans. '
loop_
_publ_author_name
"E.Fazekas"
"G.S.Nichol"
"M.P.Shaver"
"J.A.Garden"
_chemical_name_systematic
;
chloro-bis{2-[(methylimino)methyl]phenolato}-iron(iii)
;
_cell_volume   1571.452
_exptl_crystal_colour 'black'
_exptl_crystal_density_diffrn 1.52
_exptl_crystal_description 'block'
_exptl_crystal_preparation 'dichloromethane'
_diffrn_ambient_temperature 120
#These two values have been output from a single CSD field.
_refine_ls_R_factor_gt 0.0271
_refine_ls_wR_factor_gt 0.0271
_symmetry_cell_setting monoclinic
_symmetry_space_group_name_H-M 'I 2/a'
_symmetry_Int_Tables_number 15
loop_
_symmetry_equiv_pos_site_id
_symmetry_equiv_pos_as_xyz
1 x,y,z
2 1/2-x,y,-z
3 1/2+x,1/2+y,1/2+z
4 -x,1/2+y,1/2-z
5 -x,-y,-z
6 -1/2+x,-y,z
7 -1/2-x,-1/2-y,-1/2-z
8 x,-1/2-y,-1/2+z
_cell_length_a 12.5989(3)
_cell_length_b 7.39494(17)
_cell_length_c 17.7897(5)
_cell_angle_alpha 90
_cell_angle_beta 108.536(3)
_cell_angle_gamma 90
_cell_formula_units_Z 4
loop_
_atom_type_symbol
_atom_type_radius_bond
C 0.68
H 0.23
Cl 0.99
Fe 1.52
N 0.68
O 0.68
loop_
_atom_site_label
_atom_site_type_symbol
_atom_site_fract_x
_atom_site_fract_y
_atom_site_fract_z
Fe1 Fe 0.25000 0.73639(3) 0.50000
Cl1 Cl 0.25000 0.42925(6) 0.50000
O1 O 0.31839(7) 0.86130(14) 0.59485(5)
N1 N 0.40454(8) 0.74275(13) 0.47733(6)
C1 C 0.42469(9) 0.88550(15) 0.63808(6)
C2 C 0.44918(10) 0.95029(17) 0.71604(7)
H1 H 0.38973 0.98045 0.73584
C3 C 0.55894(10) 0.97065(17) 0.76430(7)
H2 H 0.57398 1.01191 0.81724
C4 C 0.64765(10) 0.93123(18) 0.73602(7)
H3 H 0.72276 0.94447 0.76960
C5 C 0.62545(10) 0.87280(17) 0.65882(7)
H4 H 0.68586 0.84862 0.63918
C6 C 0.51464(9) 0.84849(15) 0.60873(6)
C7 C 0.49871(9) 0.78669(15) 0.52873(7)
H5 H 0.56356 0.77770 0.51264
C8 C 0.40672(10) 0.67961(18) 0.39961(7)
H6 H 0.39099 0.54960 0.39464
H7 H 0.48080 0.70263 0.39464
H8 H 0.34983 0.74446 0.35767
O1A O 0.18161(7) 0.86130(14) 0.40515(5)
N1A N 0.09546(8) 0.74275(13) 0.52267(6)
C1A C 0.07531(9) 0.88550(15) 0.36192(6)
C2A C 0.05082(10) 0.95029(17) 0.28396(7)
H1A H 0.11027 0.98045 0.26416
C3A C -0.05894(10) 0.97065(17) 0.23570(7)
H2A H -0.07398 1.01191 0.18276
C4A C -0.14765(10) 0.93123(18) 0.26398(7)
H3A H -0.22276 0.94447 0.23040
C5A C -0.12545(10) 0.87280(17) 0.34118(7)
H4A H -0.18586 0.84862 0.36082
C6A C -0.01464(9) 0.84849(15) 0.39127(6)
C7A C 0.00129(9) 0.78669(15) 0.47127(7)
H5A H -0.06356 0.77770 0.48736
C8A C 0.09328(10) 0.67961(18) 0.60039(7)
H6A H 0.10901 0.54960 0.60536
H7A H 0.01920 0.70263 0.60536
H8A H 0.15017 0.74446 0.64233
#END
