
#######################################################################
#
#                 Cambridge Crystallographic Data Centre
#                                CCDC
#
#######################################################################
#
# If this CIF has been generated from an entry in the Cambridge
# Structural Database, then it will include bibliographic, chemical,
# crystal, experimental, refinement or atomic coordinate data resulting
# from the CCDC's data processing and validation procedures.
#
#######################################################################

data_CSD_CIF_FINQOJ
_audit_creation_date 2005-06-06
_audit_creation_method CSD-ConQuest-V1
_database_code_CSD FINQOJ
_database_code_depnum_ccdc_archive 'CCDC 216005'
_chemical_formula_sum 'C14 H12 Fe1 N2 O10'
_chemical_formula_moiety
;
C14 H12 Fe1 N2 O10
;
_journal_coden_Cambridge 119
_journal_volume 738
_journal_year 2005
_journal_page_first 105
_journal_name_full 'J.Mol.Struct. '
loop_
_publ_author_name
"Hong-Ling Gao"
"Cai Cheng"
"Bin Ding"
"Wei Shi"
"Hai-Bin Song"
"PengCheng"
"Dai-Zheng Liao"
"Shi-Ping Yan"
"Zong-Hui Jiang"
_chemical_name_systematic
;
trans-Diaqua-bis(pyridine-2,5-dicarboxylic acid)-iron(ii)
;
_cell_volume    384.365
_exptl_crystal_colour 'brown'
_exptl_crystal_density_diffrn 1.832
_diffrn_ambient_temperature 293
#These two values have been output from a single CSD field.
_refine_ls_R_factor_gt 0.0503
_refine_ls_wR_factor_gt 0.0503
loop_
_citation_database_id_CSD
_citation_special_details
FIQJEV "is a stereoisomer of this entry"
_symmetry_cell_setting triclinic
_symmetry_space_group_name_H-M 'P -1'
_symmetry_Int_Tables_number 2
loop_
_symmetry_equiv_pos_site_id
_symmetry_equiv_pos_as_xyz
1 x,y,z
2 -x,-y,-z
_cell_length_a 5.0283(18)
_cell_length_b 6.660(2)
_cell_length_c 12.463(4)
_cell_angle_alpha 94.370(7)
_cell_angle_beta 98.221(7)
_cell_angle_gamma 110.104(6)
_cell_formula_units_Z 1
loop_
_atom_type_symbol
_atom_type_radius_bond
C 0.68
H 0.23
Fe 1.34
N 0.68
O 0.68
loop_
_atom_site_label
_atom_site_type_symbol
_atom_site_fract_x
_atom_site_fract_y
_atom_site_fract_z
Fe1 Fe 0.00000 0.00000 0.00000
C1 C 0.1821(8) 0.3083(7) 0.2062(3)
C2 C 0.322(1) 0.4287(7) 0.3065(4)
H1 H 0.28830 0.55230 0.32980
C3 C 0.5121(10) 0.3618(8) 0.3711(4)
H2 H 0.61320 0.44210 0.43810
C4 C 0.5516(9) 0.1746(7) 0.3355(3)
C5 C 0.4085(9) 0.0640(7) 0.2322(3)
H3 H 0.43930 -0.05990 0.20710
C6 C -0.0393(9) 0.3694(7) 0.1322(4)
C7 C 0.7475(9) 0.0971(7) 0.4072(3)
N1 N 0.2281(7) 0.1317(6) 0.1682(3)
O1 O -0.1515(6) 0.2510(5) 0.0409(2)
O2 O -0.0972(7) 0.5238(5) 0.1687(3)
O3 O 0.7936(7) -0.0676(6) 0.3635(3)
H4 H 0.90150 -0.10150 0.40810
O4 O 0.8541(7) 0.1873(6) 0.5013(3)
O5 O -0.3287(6) -0.2211(5) 0.0644(2)
H5 H -0.50010 -0.26580 0.03020
H6 H -0.28290 -0.31310 0.09830
C1A C -0.1821(8) -0.3083(7) -0.2062(3)
C2A C -0.322(1) -0.4287(7) -0.3065(4)
H1A H -0.28830 -0.55230 -0.32980
C3A C -0.5121(10) -0.3618(8) -0.3711(4)
H2A H -0.61320 -0.44210 -0.43810
C4A C -0.5516(9) -0.1746(7) -0.3355(3)
C5A C -0.4085(9) -0.0640(7) -0.2322(3)
H3A H -0.43930 0.05990 -0.20710
C6A C 0.0393(9) -0.3694(7) -0.1322(4)
C7A C -0.7475(9) -0.0971(7) -0.4072(3)
N1A N -0.2281(7) -0.1317(6) -0.1682(3)
O1A O 0.1515(6) -0.2510(5) -0.0409(2)
O2A O 0.0972(7) -0.5238(5) -0.1687(3)
O3A O -0.7936(7) 0.0676(6) -0.3635(3)
H4A H -0.90150 0.10150 -0.40810
O4A O -0.8541(7) -0.1873(6) -0.5013(3)
O5A O 0.3287(6) 0.2211(5) -0.0644(2)
H5A H 0.50010 0.26580 -0.03020
H6A H 0.28290 0.31310 -0.09830
#END
