
#######################################################################
#
#                 Cambridge Crystallographic Data Centre
#                                CCDC
#
#######################################################################
#
# If this CIF has been generated from an entry in the Cambridge
# Structural Database, then it will include bibliographic, chemical,
# crystal, experimental, refinement or atomic coordinate data resulting
# from the CCDC's data processing and validation procedures.
#
#######################################################################

data_CSD_CIF_FINTUS
_audit_creation_date 2005-06-07
_audit_creation_method CSD-ConQuest-V1
_database_code_CSD FINTUS
_database_code_depnum_ccdc_archive 'CCDC 249013'
_chemical_formula_sum 'C9 H9 Cr1 N1 O5 S1'
_chemical_formula_moiety
;
C9 H9 Cr1 N1 O5 S1
;
_journal_coden_Cambridge 155
_journal_volume 358
_journal_year 2005
_journal_page_first 1581
_journal_name_full 'Inorg.Chim.Acta '
loop_
_publ_author_name
"S.Cronje"
"G.R.Julius"
"E.Stander"
"C.Esterhuysen"
"H.G.Raubenheimer"
_chemical_name_systematic
;
(1-(Dimethylamino)ethylidenethio)-pentacarbonyl-chromium
;
_chemical_melting_point 356.15
_cell_volume   1260.817
_exptl_crystal_colour 'light yellow'
_exptl_crystal_density_diffrn 1.555
_exptl_crystal_description 'blocks'
_exptl_crystal_preparation 'dichloromethane/pentane'
_diffrn_ambient_temperature 293
#These two values have been output from a single CSD field.
_refine_ls_R_factor_gt 0.03
_refine_ls_wR_factor_gt 0.03
_symmetry_cell_setting monoclinic
_symmetry_space_group_name_H-M 'C 2/m'
_symmetry_Int_Tables_number 12
loop_
_symmetry_equiv_pos_site_id
_symmetry_equiv_pos_as_xyz
1 x,y,z
2 1/2+x,1/2+y,z
3 -x,y,-z
4 1/2-x,1/2+y,-z
5 -x,-y,-z
6 -1/2-x,-1/2-y,-z
7 x,-y,z
8 -1/2+x,-1/2-y,z
_cell_length_a 17.3155(2)
_cell_length_b 8.3831(2)
_cell_length_c 12.2074(2)
_cell_angle_alpha 90
_cell_angle_beta 134.641(1)
_cell_angle_gamma 90
_cell_formula_units_Z 4
loop_
_atom_type_symbol
_atom_type_radius_bond
C 0.68
H 0.23
Cr 1.35
N 0.68
O 0.68
S 1.02
loop_
_atom_site_label
_atom_site_type_symbol
_atom_site_fract_x
_atom_site_fract_y
_atom_site_fract_z
Cr1 Cr 0.22724(3) 0.00000 0.31749(4)
S1 S 0.17556(5) 0.00000 0.07184(7)
O1 O 0.40250(12) 0.25404(19) 0.48123(19)
N1 N 0.24038(17) 0.00000 -0.0666(2)
C1 C 0.27060(19) 0.00000 0.0671(3)
O2 O 0.05632(12) 0.25660(19) 0.18362(19)
C2 C 0.3893(2) 0.00000 0.2099(3)
H1 H 0.42510 -0.07690 0.19990
H2? H 0.40050 -0.02710 0.29670
H3? H 0.41870 0.10410 0.22510
O3 O 0.26115(18) 0.00000 0.5934(2)
C3 C 0.1252(3) 0.00000 -0.2111(3)
H4 H 0.09540 -0.10440 -0.22890
H5? H 0.11760 0.02820 -0.29450
H6? H 0.08710 0.07620 -0.20460
C4 C 0.3170(3) 0.00000 -0.0821(4)
H7 H 0.38120 0.05760 0.00230
H8? H 0.28400 0.05030 -0.17730
H9? H 0.33590 -0.10790 -0.08140
C5 C 0.33575(14) 0.1598(2) 0.4144(2)
C6 C 0.11930(14) 0.1613(2) 0.2294(2)
C7 C 0.2477(2) 0.00000 0.4871(3)
O1F O 0.40250(12) -0.25404(19) 0.48123(19)
O2F O 0.05632(12) -0.25660(19) 0.18362(19)
H1F H 0.42510 0.07690 0.19990
H4F H 0.09540 0.10440 -0.22890
H7F H 0.38120 -0.05760 0.00230
C5F C 0.33575(14) -0.1598(2) 0.4144(2)
C6F C 0.11930(14) -0.1613(2) 0.2294(2)
#END
