
#######################################################################
#
#                 Cambridge Crystallographic Data Centre
#                                CCDC
#
#######################################################################
#
# If this CIF has been generated from an entry in the Cambridge
# Structural Database, then it will include bibliographic, chemical,
# crystal, experimental, refinement or atomic coordinate data resulting
# from the CCDC's data processing and validation procedures.
#
#######################################################################

data_CSD_CIF_FINVOO
_audit_creation_date 2005-06-07
_audit_creation_method CSD-ConQuest-V1
_database_code_CSD FINVOO
_database_code_depnum_ccdc_archive 'CCDC 249017'
_chemical_formula_sum 'C9 H11 Cr1 N1 O4 S1'
_chemical_formula_moiety
;
C9 H11 Cr1 N1 O4 S1
;
_journal_coden_Cambridge 155
_journal_volume 358
_journal_year 2005
_journal_page_first 1581
_journal_name_full 'Inorg.Chim.Acta '
loop_
_publ_author_name
"S.Cronje"
"G.R.Julius"
"E.Stander"
"C.Esterhuysen"
"H.G.Raubenheimer"
_chemical_name_systematic
;
(2-methylthiolato-1-(dimethylamino)ethylidene-C,S)-tetracarbonyl-chromium
;
_cell_volume    597.059
_exptl_crystal_colour 'orange'
_exptl_crystal_density_diffrn 1.564
_exptl_special_details
;
isostructural with the W analogue

;
_exptl_crystal_description 'blocks'
_exptl_crystal_preparation 'dichloromethane/pentane'
_diffrn_ambient_temperature 100
#These two values have been output from a single CSD field.
_refine_ls_R_factor_gt 0.0318
_refine_ls_wR_factor_gt 0.0318
_symmetry_cell_setting triclinic
_symmetry_space_group_name_H-M 'P -1'
_symmetry_Int_Tables_number 2
loop_
_symmetry_equiv_pos_site_id
_symmetry_equiv_pos_as_xyz
1 x,y,z
2 -x,-y,-z
_cell_length_a 6.9472(7)
_cell_length_b 7.5468(7)
_cell_length_c 12.7908(13)
_cell_angle_alpha 75.068(2)
_cell_angle_beta 79.828(2)
_cell_angle_gamma 67.673(1)
_cell_formula_units_Z 2
loop_
_atom_type_symbol
_atom_type_radius_bond
C 0.68
H 0.23
Cr 1.35
N 0.68
O 0.68
S 1.02
loop_
_atom_site_label
_atom_site_type_symbol
_atom_site_fract_x
_atom_site_fract_y
_atom_site_fract_z
Cr1 Cr -0.08568(4) -0.09528(4) 0.21348(2)
S1 S -0.04788(7) -0.31188(7) 0.09166(4)
O1 O -0.4601(2) -0.1545(2) 0.35883(13)
N1 N 0.2133(2) -0.4740(2) 0.35882(13)
C1 C 0.1124(3) -0.3750(3) 0.27274(15)
O2 O -0.3809(2) 0.2460(2) 0.06811(12)
C2 C 0.1431(3) -0.4847(3) 0.18441(16)
H1 H 0.11430 -0.60790 0.21340
H2 H 0.28690 -0.51530 0.14840
O3 O -0.0940(2) 0.1557(2) 0.36236(13)
C3 C -0.2566(3) -0.4084(3) 0.12893(19)
H3 H -0.21460 -0.53190 0.10470
H4 H -0.38160 -0.31400 0.09440
H5 H -0.28730 -0.43180 0.20800
O4 O 0.2961(2) 0.0142(2) 0.11601(13)
C4 C 0.1931(3) -0.3843(3) 0.45152(16)
H6 H 0.32410 -0.36590 0.45480
H7 H 0.16280 -0.47020 0.51900
H8 H 0.07910 -0.25700 0.44260
C5 C 0.3522(3) -0.6816(3) 0.37298(18)
H9 H 0.27010 -0.76590 0.40590
H10 H 0.46010 -0.70620 0.42030
H11 H 0.41840 -0.71040 0.30200
C6 C -0.3177(3) -0.1384(3) 0.30156(16)
C7 C -0.2670(3) 0.1174(3) 0.12367(15)
C8 C -0.0897(3) 0.0539(3) 0.30725(16)
C9 C 0.1538(3) -0.0329(3) 0.14662(15)
#END
