
#######################################################################
#
#                 Cambridge Crystallographic Data Centre
#                                CCDC
#
#######################################################################
#
# If this CIF has been generated from an entry in the Cambridge
# Structural Database, then it will include bibliographic, chemical,
# crystal, experimental, refinement or atomic coordinate data resulting
# from the CCDC's data processing and validation procedures.
#
#######################################################################

data_CSD_CIF_FIVZOZ
_audit_creation_date 1988-04-19
_audit_creation_method CSD-ConQuest-V1
_database_code_CSD FIVZOZ
_database_code_depnum_ccdc_archive 'CCDC 1157372'
_chemical_formula_sum 'C16 H21 Cl1 Cr1 N1 O4'
_chemical_formula_moiety
;
C16 H21 Cl1 Cr1 N1 O4
;
_journal_coden_Cambridge 9
_journal_volume 26
_journal_year 1987
_journal_page_first 2542
_journal_name_full 'Inorg.Chem. '
loop_
_publ_author_name
"H.Ogino"
"M.Shoji"
"Y.Abe"
"M.Shimura"
"M.Shimoi"
_chemical_name_systematic
;
trans-bis(Acetylacetonato-O,O')-chloromethyl-pyridine-chromium(iii)
;
_cell_volume    906.986
_exptl_crystal_colour 'orange'
_exptl_crystal_density_diffrn 1.387
_diffrn_ambient_temperature ?
_diffrn_special_details
;
The study was carried out at room temperature,in the range 283-303K

;
#These two values have been output from a single CSD field.
_refine_ls_R_factor_gt 0.045
_refine_ls_wR_factor_gt 0.045
_symmetry_cell_setting monoclinic
_symmetry_space_group_name_H-M 'C m'
_symmetry_Int_Tables_number 8
loop_
_symmetry_equiv_pos_site_id
_symmetry_equiv_pos_as_xyz
1 x,y,z
2 1/2+x,1/2+y,z
3 x,-y,z
4 1/2+x,1/2-y,z
_cell_length_a 8.292(1)
_cell_length_b 14.076(3)
_cell_length_c 7.777(1)
_cell_angle_alpha 90
_cell_angle_beta 92.30(1)
_cell_angle_gamma 90
_cell_formula_units_Z 2
loop_
_atom_type_symbol
_atom_type_radius_bond
C 0.68
H 0.23
Cl 0.99
Cr 1.35
N 0.68
O 0.68
loop_
_atom_site_label
_atom_site_type_symbol
_atom_site_fract_x
_atom_site_fract_y
_atom_site_fract_z
Cr1 Cr 0.25000 0.00000 0.50000
Cl1 Cl 0.4229(2) 0.00000 0.1293(2)
N1 N 0.0427(5) 0.00000 0.6681(5)
C1 C 0.4565(6) 0.00000 0.3575(7)
C2 C -0.1107(7) 0.00000 0.6142(7)
C3 C -0.2375(7) 0.00000 0.7219(10)
C4 C -0.2040(9) 0.00000 0.8981(11)
C5 C -0.0449(9) 0.00000 0.9549(7)
C6 C 0.0738(6) 0.00000 0.8372(6)
O1 O 0.3466(3) 0.0967(2) 0.6537(3)
O2 O 0.1488(3) 0.0988(2) 0.3550(4)
C7 C 0.4520(7) 0.2410(4) 0.7554(7)
C8 C 0.3622(4) 0.1838(3) 0.6198(5)
C9 C 0.2997(6) 0.2287(3) 0.4711(6)
C10 C 0.1985(5) 0.1841(3) 0.3474(5)
C11 C 0.1381(7) 0.2392(4) 0.1910(6)
H1 H -0.13400 0.00000 0.47600
H2 H -0.36000 0.00000 0.67100
H3 H -0.29900 0.00000 0.98800
H4 H -0.01500 0.00000 1.09100
H5 H 0.19900 0.00000 0.88500
H6 H 0.33400 0.30100 0.45000
H7 H 0.52800 0.06300 0.38800
O1B O 0.3466(3) -0.0967(2) 0.6537(3)
O2B O 0.1488(3) -0.0988(2) 0.3550(4)
H7B H 0.52800 -0.06300 0.38800
C8B C 0.3622(4) -0.1838(3) 0.6198(5)
C10B C 0.1985(5) -0.1841(3) 0.3474(5)
C7B C 0.4520(7) -0.2410(4) 0.7554(7)
C9B C 0.2997(6) -0.2287(3) 0.4711(6)
C11B C 0.1381(7) -0.2392(4) 0.1910(6)
H6B H 0.33400 -0.30100 0.45000
#END
