
#######################################################################
#
#                 Cambridge Crystallographic Data Centre
#                                CCDC
#
#######################################################################
#
# If this CIF has been generated from an entry in the Cambridge
# Structural Database, then it will include bibliographic, chemical,
# crystal, experimental, refinement or atomic coordinate data resulting
# from the CCDC's data processing and validation procedures.
#
#######################################################################

data_CSD_CIF_FIXDOH
_audit_creation_date 2014-01-06
_audit_creation_method CSD-ConQuest-V1
_database_code_CSD FIXDOH
_database_code_depnum_ccdc_archive 'CCDC 941123'
_chemical_formula_sum 'C36 H39 Fe1 N2 O1 P1 Sn1'
_chemical_formula_moiety
;
C36 H39 Fe1 N2 O1 P1 Sn1
;
_journal_coden_Cambridge 579
_journal_volume 32
_journal_year 2013
_journal_page_first 5906
_journal_name_full 'Organometallics '
loop_
_publ_author_name
"C.Dietz"
"V.Jouikov"
"K.Jurkschat"
_chemical_name_systematic
;
(3aR,7aR)-[(R~Fc~)-2-Triphenylstannyl)ferrocenyl]-(3a,4,5,6,7,7a-octahydro-1,3
-dimethyl-1,3,2-benzodiazaphosphole 2-oxide
;
_cell_volume    805.843
_exptl_crystal_colour 'orange'
_exptl_crystal_density_diffrn 1.486
_exptl_special_details
;
Absolute configuration
polymorph a

;
_exptl_crystal_description 'block'
_diffrn_ambient_temperature 173
#These two values have been output from a single CSD field.
_refine_ls_R_factor_gt 0.0378
_refine_ls_wR_factor_gt 0.0378
loop_
_citation_database_id_CSD
_citation_special_details
FIWPOS "is a stereoisomer of this entry"
_symmetry_cell_setting triclinic
_symmetry_space_group_name_H-M 'P 1'
_symmetry_Int_Tables_number 1
loop_
_symmetry_equiv_pos_site_id
_symmetry_equiv_pos_as_xyz
1 x,y,z
_cell_length_a 8.7720(8)
_cell_length_b 10.0150(9)
_cell_length_c 10.8988(9)
_cell_angle_alpha 99.082(7)
_cell_angle_beta 108.195(8)
_cell_angle_gamma 111.410(9)
_cell_formula_units_Z 1
loop_
_atom_type_symbol
_atom_type_radius_bond
C 0.68
H 0.23
Fe 1.52
N 0.68
O 0.68
P 1.05
Sn 1.39
loop_
_atom_site_label
_atom_site_type_symbol
_atom_site_fract_x
_atom_site_fract_y
_atom_site_fract_z
Sn1 Sn 0.39148(4) 0.28332(3) 0.17721(3)
Fe1 Fe 0.33394(12) 0.38618(10) 0.49781(10)
P1 P 0.7578(2) 0.5220(2) 0.4941(2)
O1 O 0.7279(6) 0.4009(5) 0.3823(5)
N1 N 0.8605(8) 0.5231(6) 0.6530(6)
N2 N 0.9051(7) 0.6926(6) 0.5144(6)
C1 C 0.3961(9) 0.4356(7) 0.3370(7)
C2 C 0.5462(9) 0.5210(7) 0.4679(7)
C3 C 0.5007(12) 0.6116(9) 0.5512(9)
H1 H 0.57430 0.67820 0.63830
C4 C 0.3218(11) 0.5799(8) 0.4753(9)
H2 H 0.25560 0.62100 0.50540
C5 C 0.2593(10) 0.4766(7) 0.3471(8)
H3 H 0.14570 0.44010 0.27890
C6 C 0.1643(8) 0.1634(5) 0.4467(5)
H4 H 0.09620 0.09680 0.35910
C7 C 0.3394(8) 0.1924(6) 0.5293(6)
H5 H 0.40730 0.14830 0.50590
C8 C 0.3938(7) 0.2997(6) 0.6537(6)
H6 H 0.50380 0.33910 0.72680
C9 C 0.2522(8) 0.3371(6) 0.6479(6)
H7 H 0.25240 0.40540 0.71650
C10 C 0.1104(6) 0.2528(6) 0.5200(6)
H8 H 0.00050 0.25570 0.48920
C11 C 1.0447(9) 0.6440(7) 0.7065(7)
H9 H 1.11130 0.60800 0.66370
C12 C 1.0240(9) 0.7694(7) 0.6546(7)
H10 H 0.96190 0.80870 0.70000
C13 C 1.2022(9) 0.8951(7) 0.6874(8)
H11 H 1.18620 0.97730 0.65770
H12 H 1.26390 0.86030 0.63980
C14 C 1.3145(11) 0.9511(8) 0.8408(9)
H13 H 1.43290 1.02790 0.86070
H14 H 1.25910 0.99620 0.88760
C15 C 1.3304(9) 0.8209(8) 0.8925(8)
H15 H 1.39560 0.78200 0.85190
H16 H 1.39740 0.85800 0.99010
C16 C 1.1488(9) 0.6957(8) 0.8581(8)
H17 H 1.16150 0.61250 0.88760
H18 H 1.08600 0.73150 0.90400
C17 C 0.8382(9) 0.3794(7) 0.6769(7)
H19 H 0.84340 0.38540 0.76700
H20 H 0.93210 0.35680 0.66740
H21 H 0.72450 0.30140 0.61210
C18 C 0.8574(10) 0.7814(8) 0.4297(8)
H22 H 0.96320 0.85300 0.42620
H23 H 0.80200 0.83390 0.46710
H24 H 0.77540 0.71600 0.33960
C19 C 0.5514(6) 0.4097(5) 0.0844(5)
C20 C 0.5157(5) 0.5245(5) 0.0454(5)
H25 H 0.41890 0.53770 0.05250
C21 C 0.6247(7) 0.6193(5) -0.0043(5)
H26 H 0.60080 0.69610 -0.03040
C22 C 0.7694(6) 0.5995(6) -0.0149(5)
H27 H 0.84230 0.66300 -0.04810
C23 C 0.8051(5) 0.4848(6) 0.0241(5)
H28 H 0.90190 0.47160 0.01700
C24 C 0.6961(6) 0.3899(5) 0.0738(5)
H29 H 0.71990 0.31320 0.09980
C25 C 0.1161(5) 0.1916(5) 0.0253(5)
C26 C 0.0881(6) 0.1744(5) -0.1101(5)
H30 H 0.18500 0.21290 -0.13370
C27 C -0.0847(8) 0.0998(5) -0.2105(4)
H31 H -0.10350 0.08830 -0.30110
C28 C -0.2296(5) 0.0422(5) -0.1753(5)
H32 H -0.34520 -0.00770 -0.24240
C29 C -0.2016(5) 0.0594(5) -0.0399(6)
H33 H -0.29850 0.02090 -0.01640
C30 C -0.0288(7) 0.1340(5) 0.0605(4)
H34 H -0.01000 0.14550 0.15110
C31 C 0.4172(6) 0.0849(4) 0.2130(5)
C32 C 0.2651(5) -0.0384(5) 0.1982(5)
H35 H 0.15500 -0.03560 0.17010
C33 C 0.2774(5) -0.1660(4) 0.2254(5)
H36 H 0.17560 -0.24840 0.21560
C34 C 0.4419(7) -0.1702(4) 0.2675(5)
H37 H 0.45020 -0.25550 0.28570
C35 C 0.5941(5) -0.0469(5) 0.2822(5)
H38 H 0.70410 -0.04970 0.31040
C36 C 0.5817(5) 0.0806(4) 0.2550(5)
H39 H 0.68350 0.16310 0.26490
#END
