
#######################################################################
#
#                 Cambridge Crystallographic Data Centre
#                                CCDC
#
#######################################################################
#
# If this CIF has been generated from an entry in the Cambridge
# Structural Database, then it will include bibliographic, chemical,
# crystal, experimental, refinement or atomic coordinate data resulting
# from the CCDC's data processing and validation procedures.
#
#######################################################################

data_CSD_CIF_FIXMEG
_audit_creation_date 2014-01-06
_audit_creation_method CSD-ConQuest-V1
_database_code_CSD FIXMEG
_database_code_depnum_ccdc_archive 'CCDC 927649'
_chemical_formula_sum 'C17 H15 F1 Fe1 N2 O3'
_chemical_formula_moiety
;
C17 H15 F1 Fe1 N2 O3
;
_journal_coden_Cambridge 579
_journal_volume 32
_journal_year 2013
_journal_page_first 5766
_journal_name_full 'Organometallics '
loop_
_publ_author_name
"K.Kowalski"
"J.Skiba"
"Luciano Oehninger"
"Ingo Ott"
"J.Solecka"
"A.Rajnisz"
"B.Therrien"
_chemical_name_systematic
;
1-(3-(5-fluoro-2,4-dioxo-3,4-dihydropyrimidin-1(2H)-yl)propanoyl)ferrocene
;
_cell_volume    767.362
_exptl_crystal_colour 'orange'
_exptl_crystal_density_diffrn 1.602
_exptl_crystal_description 'block'
_diffrn_ambient_temperature 173
#These two values have been output from a single CSD field.
_refine_ls_R_factor_gt 0.1165
_refine_ls_wR_factor_gt 0.1165
_symmetry_cell_setting triclinic
_symmetry_space_group_name_H-M 'P -1'
_symmetry_Int_Tables_number 2
loop_
_symmetry_equiv_pos_site_id
_symmetry_equiv_pos_as_xyz
1 x,y,z
2 -x,-y,-z
_cell_length_a 6.8403(7)
_cell_length_b 11.1697(12)
_cell_length_c 11.2347(13)
_cell_angle_alpha 116.487(8)
_cell_angle_beta 92.487(9)
_cell_angle_gamma 90.037(9)
_cell_formula_units_Z 2
loop_
_atom_type_symbol
_atom_type_radius_bond
C 0.68
H 0.23
F 0.64
Fe 1.52
N 0.68
O 0.68
loop_
_atom_site_label
_atom_site_type_symbol
_atom_site_fract_x
_atom_site_fract_y
_atom_site_fract_z
C1 C 0.3143(12) 0.3452(8) 0.4613(8)
C2 C 0.0802(12) 0.4346(8) 0.3472(8)
C3 C -0.0540(12) 0.3308(8) 0.3400(8)
C4 C -0.0059(12) 0.2432(8) 0.3882(8)
H1 H -0.09730 0.17910 0.38290
C5 C 0.2279(13) 0.1567(8) 0.5040(8)
H2 H 0.35460 0.11840 0.47470
H3 H 0.13160 0.08400 0.47200
C6 C 0.2338(12) 0.2262(9) 0.6542(8)
H4 H 0.11220 0.27270 0.68320
H5 H 0.33950 0.29260 0.68630
C7 C 0.2632(11) 0.1298(8) 0.7158(8)
C8 C 0.3074(10) 0.1890(8) 0.8592(9)
C9 C 0.3406(11) 0.3286(8) 0.9486(8)
H6 H 0.32560 0.39980 0.92760
C10 C 0.4009(12) 0.3373(9) 1.0758(8)
H7 H 0.43150 0.41580 1.15250
C11 C 0.4060(12) 0.207(1) 1.0654(9)
H8 H 0.44200 0.18510 1.13400
C12 C 0.3475(11) 0.1148(9) 0.9335(9)
H9 H 0.33680 0.02230 0.90080
C13 C 0.7649(12) 0.1723(9) 0.7749(9)
H10 H 0.72270 0.14300 0.68640
C14 C 0.8035(12) 0.3066(9) 0.8682(8)
H11 H 0.79200 0.38100 0.85180
C15 C 0.8630(11) 0.3083(9) 0.9914(8)
H12 H 0.89620 0.38400 1.07010
C16 C 0.8631(11) 0.1754(9) 0.9738(9)
H13 H 0.89770 0.14860 1.03910
C17 C 0.8015(12) 0.0888(8) 0.8395(9)
H14 H 0.78770 -0.00390 0.80140
N1 N 0.2584(9) 0.4320(6) 0.4095(7)
H15 H 0.34430 0.49140 0.41680
N2 N 0.1785(10) 0.2482(7) 0.4455(7)
O1 O 0.4767(9) 0.3547(7) 0.5176(7)
O2 O 0.044(1) 0.5175(6) 0.3060(6)
O3 O 0.2482(10) 0.0101(7) 0.6457(7)
F1 F -0.2353(8) 0.3275(6) 0.2857(5)
Fe1 Fe 0.58887(15) 0.22247(11) 0.93164(11)
#END
