
#######################################################################
#
#                 Cambridge Crystallographic Data Centre
#                                CCDC
#
#######################################################################
#
# If this CIF has been generated from an entry in the Cambridge
# Structural Database, then it will include bibliographic, chemical,
# crystal, experimental, refinement or atomic coordinate data resulting
# from the CCDC's data processing and validation procedures.
#
#######################################################################

data_CSD_CIF_FIXSAH
_audit_creation_date 2005-06-17
_audit_creation_method CSD-ConQuest-V1
_database_code_CSD FIXSAH
_database_code_depnum_ccdc_archive 'CCDC 242922'
_chemical_formula_sum 'C16 H26 B1 Cl1 Fe1 N2 Si2'
_chemical_formula_moiety
;
C16 H26 B1 Cl1 Fe1 N2 Si2
;
_journal_coden_Cambridge 155
_journal_volume 358
_journal_year 2005
_journal_page_first 1420
_journal_name_full 'Inorg.Chim.Acta '
loop_
_publ_author_name
"B.Wrackmeyer"
"E.V.Klimkina"
"W.Milius"
"O.L.Tok"
"M.Herberhold"
_chemical_name_systematic
;
2-Chloro-1,3-bis(trimethylsilyl)-1,3,2-diazabora(3)ferrocenophane
;
_cell_volume   1002.614
_exptl_crystal_colour 'yellow'
_exptl_crystal_density_diffrn 1.34
_exptl_crystal_description 'prism'
_diffrn_ambient_temperature 293
#These two values have been output from a single CSD field.
_refine_ls_R_factor_gt 0.0531
_refine_ls_wR_factor_gt 0.0531
_symmetry_cell_setting monoclinic
_symmetry_space_group_name_H-M 'P 21/m'
_symmetry_Int_Tables_number 11
loop_
_symmetry_equiv_pos_site_id
_symmetry_equiv_pos_as_xyz
1 x,y,z
2 -x,1/2+y,-z
3 -x,-y,-z
4 x,-1/2-y,z
_cell_length_a 9.7089(19)
_cell_length_b 10.554(2)
_cell_length_c 10.690(2)
_cell_angle_alpha 90
_cell_angle_beta 113.75(3)
_cell_angle_gamma 90
_cell_formula_units_Z 2
loop_
_atom_type_symbol
_atom_type_radius_bond
C 0.68
H 0.23
B 0.83
Cl 0.99
Fe 1.34
N 0.68
Si 1.20
loop_
_atom_site_label
_atom_site_type_symbol
_atom_site_fract_x
_atom_site_fract_y
_atom_site_fract_z
Fe1 Fe 0.46483(13) 0.75000 0.09975(12)
Si1 Si 0.2772(3) 0.75000 0.4355(2)
Si2 Si -0.0538(2) 0.75000 -0.1400(2)
Cl1 Cl -0.0324(2) 0.75000 0.1673(2)
N1 N 0.2753(6) 0.75000 0.2686(6)
N2 N 0.1218(6) 0.75000 0.0026(6)
B1 B 0.1437(10) 0.75000 0.1455(10)
C1 C 0.2530(8) 0.75000 -0.0313(7)
C2 C 0.3257(6) 0.8584(6) -0.0541(6)
H1 H 0.29900 0.94690 -0.04720
C3 C 0.4441(6) 0.8160(6) -0.0867(6)
H2 H 0.51690 0.87010 -0.10360
C4 C 0.4244(8) 0.75000 0.2662(7)
C5 C 0.5090(6) 0.8579(6) 0.2665(6)
H3 H 0.47810 0.94620 0.26730
C6 C 0.6475(6) 0.8160(6) 0.2646(6)
H4 H 0.72740 0.87050 0.26060
C7 C 0.1904(9) 0.8945(7) 0.4683(7)
H5 H 0.23880 0.96770 0.45110
H6 H 0.20200 0.89510 0.56190
H7 H 0.08530 0.89580 0.40920
C8 C 0.4761(11) 0.75000 0.5551(9)
H8 H 0.52450 0.67540 0.54080
H9 H 0.48290 0.75060 0.64720
H10 H 0.52480 0.82400 0.53990
C9 C -0.1630(7) 0.8952(6) -0.1437(7)
H11 H -0.18460 0.89790 -0.06360
H12 H -0.25560 0.89440 -0.22380
H13 H -0.10540 0.96860 -0.14560
C10 C -0.0169(10) 0.75000 -0.2984(9)
H14 H 0.03920 0.82440 -0.29990
H15 H -0.11090 0.74970 -0.37700
H16 H 0.03980 0.67590 -0.29960
C2C C 0.3257(6) 0.6416(6) -0.0541(6)
H1C H 0.29900 0.55310 -0.04720
C3C C 0.4441(6) 0.6840(6) -0.0867(6)
H2C H 0.51690 0.62990 -0.10360
C5C C 0.5090(6) 0.6421(6) 0.2665(6)
H3C H 0.47810 0.55380 0.26730
C6C C 0.6475(6) 0.6840(6) 0.2646(6)
H4C H 0.72740 0.62950 0.26060
C7C C 0.1904(9) 0.6055(7) 0.4683(7)
H5C H 0.23880 0.53230 0.45110
H6C H 0.20200 0.60490 0.56190
H7C H 0.08530 0.60420 0.40920
C9C C -0.1630(7) 0.6048(6) -0.1437(7)
H11C H -0.18460 0.60210 -0.06360
H12C H -0.25560 0.60560 -0.22380
H13C H -0.10540 0.53140 -0.14560
#END
