
#######################################################################
#
#                 Cambridge Crystallographic Data Centre
#                                CCDC
#
#######################################################################
#
# If this CIF has been generated from an entry in the Cambridge
# Structural Database, then it will include bibliographic, chemical,
# crystal, experimental, refinement or atomic coordinate data resulting
# from the CCDC's data processing and validation procedures.
#
#######################################################################

data_CSD_CIF_FOCKEN
_audit_creation_date 1988-04-19
_audit_creation_method CSD-ConQuest-V1
_database_code_CSD FOCKEN
_database_code_depnum_ccdc_archive 'CCDC 1158142'
_chemical_formula_sum 'C14 H18 B1 Cr1 F4 N2'
_chemical_formula_moiety
;
C14 H18 Cr1 N2 1+,B1 F4 1-
;
_journal_coden_Cambridge 579
_journal_volume 6
_journal_year 1987
_journal_page_first 1696
_journal_name_full 'Organometallics '
loop_
_publ_author_name
"E.J.Wucherer"
"E.L.Muetterties"
_chemical_name_systematic
;
bis(\h^6^-2,6-Dimethylpyridine)-chromium(i) tetrafluoroborate
;
_cell_volume    744.210
_exptl_crystal_colour 'pale orange'
_exptl_crystal_density_diffrn 1.58
_diffrn_ambient_temperature 182.15
_refine_special_details
;
The tetrafluoroborate anion is disordered. F1, F2 and F4 have occupancies of 
0.667; all 6 other fluorine positions have occupancies of 0.333. Only four 
positions have been retained.
;
#These two values have been output from a single CSD field.
_refine_ls_R_factor_gt 0.0368
_refine_ls_wR_factor_gt 0.0368
_symmetry_cell_setting triclinic
_symmetry_space_group_name_H-M 'P -1'
_symmetry_Int_Tables_number 2
loop_
_symmetry_equiv_pos_site_id
_symmetry_equiv_pos_as_xyz
1 x,y,z
2 -x,-y,-z
_cell_length_a 7.506(1)
_cell_length_b 9.346(1)
_cell_length_c 10.846(1)
_cell_angle_alpha 78.242(6)
_cell_angle_beta 87.575(7)
_cell_angle_gamma 89.876(6)
_cell_formula_units_Z 2
loop_
_atom_type_symbol
_atom_type_radius_bond
C 0.68
H 0.23
B 0.83
Cr 1.35
F 0.64
N 0.68
loop_
_atom_site_label
_atom_site_type_symbol
_atom_site_fract_x
_atom_site_fract_y
_atom_site_fract_z
Cr1 Cr 0.19419(3) 0.30652(3) 0.24919(2)
N1 N 0.2439(2) 0.3645(2) 0.0529(1)
C1 C 0.2463(4) 0.1133(3) 0.0232(2)
C2 C 0.3067(3) 0.2255(2) 0.0932(2)
C3 C 0.4222(3) 0.1927(3) 0.1953(2)
C4 C 0.4804(3) 0.3065(3) 0.2518(2)
C5 C 0.4207(3) 0.4499(2) 0.2060(2)
C6 C 0.3033(3) 0.4771(2) 0.1053(2)
C7 C 0.2353(3) 0.6262(3) 0.0514(2)
N2 N -0.0873(2) 0.3011(2) 0.2664(2)
C8 C -0.1081(3) 0.0437(2) 0.2561(2)
C9 C -0.0269(3) 0.1617(2) 0.3099(2)
C10 C 0.1042(3) 0.1352(2) 0.4016(2)
C11 C 0.1699(3) 0.2500(3) 0.4515(2)
C12 C 0.1024(3) 0.3922(2) 0.4090(2)
C13 C -0.0302(2) 0.4140(2) 0.3178(2)
C14 C -0.1148(3) 0.5593(2) 0.2737(2)
H1 H 0.456(4) 0.089(3) 0.233(2)
H2 H 0.548(3) 0.289(3) 0.323(2)
H3 H 0.456(3) 0.529(3) 0.249(2)
H4 H 0.323(4) 0.127(4) -0.062(3)
H5 H 0.248(4) 0.021(3) 0.073(3)
H6 H 0.112(4) 0.132(3) -0.007(3)
H7 H 0.285(5) 0.680(4) -0.035(3)
H8 H 0.104(4) 0.620(3) 0.030(2)
H9 H 0.228(4) 0.686(3) 0.114(3)
H10 H 0.148(4) 0.052(3) 0.417(2)
H11 H 0.255(3) 0.234(2) 0.513(2)
H12 H 0.151(3) 0.477(3) 0.427(2)
H13 H -0.223(4) 0.002(3) 0.305(2)
H14 H -0.129(3) 0.078(3) 0.167(2)
H15 H -0.035(4) -0.023(3) 0.255(2)
H16 H -0.227(4) 0.562(3) 0.323(2)
H17 H -0.036(3) 0.634(3) 0.282(2)
H18 H -0.152(3) 0.566(3) 0.190(2)
B1 B -0.3797(2) 0.2198(2) 0.6200(2)
F1 F -0.4251(4) 0.3597(2) 0.5627(3)
F2 F -0.2306(3) 0.1957(3) 0.6905(2)
F3 F -0.5261(5) 0.2349(6) 0.6958(4)
F4 F -0.4165(3) 0.1144(2) 0.5536(2)
#END
