
#######################################################################
#
#                 Cambridge Crystallographic Data Centre
#                                CCDC
#
#######################################################################
#
# If this CIF has been generated from an entry in the Cambridge
# Structural Database, then it will include bibliographic, chemical,
# crystal, experimental, refinement or atomic coordinate data resulting
# from the CCDC's data processing and validation procedures.
#
#######################################################################

data_CSD_CIF_FOFWAY
_audit_creation_date 1988-04-19
_audit_creation_method CSD-ConQuest-V1
_database_code_CSD FOFWAY
_database_code_depnum_ccdc_archive 'CCDC 1158384'
_chemical_formula_sum 'C20 H20 Cr1 O2'
_chemical_formula_moiety
;
C20 H20 Cr1 O2
;
_journal_coden_Cambridge 36
_journal_volume 328
_journal_year 1987
_journal_page_first 331
_journal_name_full 'J.Organomet.Chem. '
loop_
_publ_author_name
"H.Brunner"
"J.Ernst"
"T.Wischert"
"U.Thewalt"
_chemical_name_systematic
;
cis-(\h^12^-Ditetralone)-chromium(0)
;
_cell_volume    376.087
_exptl_crystal_colour 'dark red'
_exptl_special_details
;
C15 in the atom table should read C5

;
_diffrn_ambient_temperature ?
_diffrn_special_details
;
The study was carried out at room temperature,in the range 283-303K

;
#These two values have been output from a single CSD field.
_refine_ls_R_factor_gt 0.029
_refine_ls_wR_factor_gt 0.029
_symmetry_cell_setting triclinic
_symmetry_space_group_name_H-M 'P -1'
_symmetry_Int_Tables_number 2
loop_
_symmetry_equiv_pos_site_id
_symmetry_equiv_pos_as_xyz
1 x,y,z
2 -x,-y,-z
_cell_length_a 8.656(3)
_cell_length_b 7.452(3)
_cell_length_c 6.702(2)
_cell_angle_alpha 102.09(3)
_cell_angle_beta 115.24(2)
_cell_angle_gamma 94.03(4)
_cell_formula_units_Z 1
loop_
_atom_type_symbol
_atom_type_radius_bond
C 0.68
H 0.23
Cr 1.35
O 0.68
loop_
_atom_site_label
_atom_site_type_symbol
_atom_site_fract_x
_atom_site_fract_y
_atom_site_fract_z
Cr1 Cr 0.00000 0.00000 0.00000
O1 O -0.3508(2) 0.1547(3) -0.5210(3)
C1 C -0.2979(3) 0.2131(3) -0.3148(4)
C2 C -0.4103(3) 0.2943(4) -0.2136(5)
C3 C -0.3603(3) 0.2760(4) 0.0267(5)
C4 C -0.1700(3) 0.3541(4) 0.1847(4)
C5 C -0.0520(3) 0.2788(3) 0.0878(4)
C6 C -0.1133(3) 0.2161(3) -0.1536(4)
C7 C -0.0017(3) 0.1474(3) -0.2440(4)
C8 C 0.1718(3) 0.1425(3) -0.0982(4)
C9 C 0.2340(3) 0.2053(3) 0.1398(4)
C10 C 0.1240(3) 0.2726(3) 0.2314(4)
H1 H -0.524(5) 0.237(4) -0.294(5)
H2 H -0.396(4) 0.431(4) -0.217(5)
H3 H -0.424(4) 0.333(4) 0.082(5)
H4 H -0.379(4) 0.141(5) 0.034(5)
H5 H -0.133(4) 0.334(4) 0.335(5)
H6 H -0.148(4) 0.484(4) 0.191(5)
H7 H -0.059(4) 0.099(4) -0.406(6)
H8 H 0.246(4) 0.106(4) -0.156(5)
H9 H 0.344(3) 0.186(3) 0.223(4)
H10 H 0.169(3) 0.310(4) 0.378(5)
C5A C 0.0520(3) -0.2788(3) -0.0878(4)
C6A C 0.1133(3) -0.2161(3) 0.1536(4)
C7A C 0.0017(3) -0.1474(3) 0.2440(4)
C8A C -0.1718(3) -0.1425(3) 0.0982(4)
C9A C -0.2340(3) -0.2053(3) -0.1398(4)
C10A C -0.1240(3) -0.2726(3) -0.2314(4)
C4A C 0.1700(3) -0.3541(4) -0.1847(4)
C1A C 0.2979(3) -0.2131(3) 0.3148(4)
H7A H 0.059(4) -0.099(4) 0.406(6)
H8A H -0.246(4) -0.106(4) 0.156(5)
H9A H -0.344(3) -0.186(3) -0.223(4)
H10A H -0.169(3) -0.310(4) -0.378(5)
C3A C 0.3603(3) -0.2760(4) -0.0267(5)
H5A H 0.133(4) -0.334(4) -0.335(5)
H6A H 0.148(4) -0.484(4) -0.191(5)
O1A O 0.3508(2) -0.1547(3) 0.5210(3)
C2A C 0.4103(3) -0.2943(4) 0.2136(5)
H3A H 0.424(4) -0.333(4) -0.082(5)
H4A H 0.379(4) -0.141(5) -0.034(5)
H1A H 0.524(5) -0.237(4) 0.294(5)
H2A H 0.396(4) -0.431(4) 0.217(5)
#END
