
#######################################################################
#
#                 Cambridge Crystallographic Data Centre
#                                CCDC
#
#######################################################################
#
# If this CIF has been generated from an entry in the Cambridge
# Structural Database, then it will include bibliographic, chemical,
# crystal, experimental, refinement or atomic coordinate data resulting
# from the CCDC's data processing and validation procedures.
#
#######################################################################

data_CSD_CIF_FOGFIS
_audit_creation_date 2014-06-06
_audit_creation_method CSD-ConQuest-V1
_database_code_CSD FOGFIS
_database_code_depnum_ccdc_archive 'CCDC 1006207'
_chemical_formula_sum 'C26 H24 Cl2 Fe1 N8 O10 S2'
_chemical_formula_moiety
;
C26 H24 Fe1 N8 O2 S2 2+,2(Cl1 O4 1-)
;
_journal_coeditor_code "lr2128"
_journal_coden_Cambridge 1370
_journal_volume 70
_journal_year 2014
_journal_page_first m252
_journal_name_full 'Acta Crystallogr.,Sect.E:Struct.Rep.Online '
loop_
_publ_author_name
"D.Kaase"
"J.Klingele"
_chemical_name_systematic
;
trans-bis(methanol)-bis(2-(5-(pyridin-2-yl)-1,3,4-thiadiazol-2-yl)pyridine)-ir
on(ii) diperchlorate
;
_cell_volume    780.607
_exptl_crystal_colour 'red'
_exptl_crystal_density_diffrn 1.701
_exptl_crystal_description 'plate'
_diffrn_ambient_temperature 100
#These two values have been output from a single CSD field.
_refine_ls_R_factor_gt 0.027
_refine_ls_wR_factor_gt 0.027
_symmetry_cell_setting triclinic
_symmetry_space_group_name_H-M 'P -1'
_symmetry_Int_Tables_number 2
loop_
_symmetry_equiv_pos_site_id
_symmetry_equiv_pos_as_xyz
1 x,y,z
2 -x,-y,-z
_cell_length_a 8.8410(3)
_cell_length_b 9.5579(4)
_cell_length_c 9.5875(4)
_cell_angle_alpha 87.169(2)
_cell_angle_beta 88.945(2)
_cell_angle_gamma 74.735(2)
_cell_formula_units_Z 1
loop_
_atom_type_symbol
_atom_type_radius_bond
C 0.68
H 0.23
Cl 0.99
Fe 1.52
N 0.68
O 0.68
S 1.02
loop_
_atom_site_label
_atom_site_type_symbol
_atom_site_fract_x
_atom_site_fract_y
_atom_site_fract_z
Fe1 Fe 0.00000 1.00000 0.00000
S1 S 0.22171(5) 0.51392(5) 0.06646(5)
N1 N 0.18464(17) 0.89318(16) -0.14602(15)
N2 N 0.05730(17) 0.77550(16) 0.07183(16)
N3 N -0.00347(18) 0.70371(17) 0.17709(16)
N4 N 0.14375(19) 0.33511(17) 0.30380(17)
C1 C 0.2469(2) 0.9547(2) -0.25294(19)
H1 H 0.20340 1.05500 -0.27600
C2 C 0.3724(2) 0.8783(2) -0.33180(19)
H2 H 0.41300 0.92550 -0.40750
C3 C 0.4371(2) 0.7330(2) -0.2986(2)
H3 H 0.52280 0.67860 -0.35100
C4 C 0.3748(2) 0.6677(2) -0.18715(19)
H4 H 0.41740 0.56790 -0.16170
C5 C 0.2495(2) 0.75062(19) -0.11400(18)
C6 C 0.1740(2) 0.69113(19) 0.00391(18)
C7 C 0.0705(2) 0.5668(2) 0.18660(19)
C8 C 0.0312(2) 0.4599(2) 0.28666(19)
C9 C -0.1131(2) 0.4898(2) 0.35465(19)
H5 H -0.18880 0.58010 0.33870
C10 C -0.1429(2) 0.3835(2) 0.4465(2)
H6 H -0.24020 0.39920 0.49490
C11 C -0.0285(2) 0.2540(2) 0.4665(2)
H7 H -0.04620 0.17940 0.52880
C12 C 0.1125(2) 0.2350(2) 0.3942(2)
H8 H 0.19080 0.14630 0.40980
C13 C -0.2991(2) 0.9010(2) -0.0662(2)
H9 H -0.34660 0.86170 -0.14160
H10 H -0.37920 0.97750 -0.02230
H11 H -0.25520 0.82320 0.00360
O1 O -0.17589(15) 0.96075(15) -0.12275(15)
H12 H -0.212(3) 1.021(3) -0.179(3)
Cl1 Cl -0.46099(5) 1.25579(5) -0.29619(5)
O2 O -0.30426(17) 1.16340(19) -0.32171(16)
O3 O -0.47275(19) 1.39590(16) -0.36152(17)
O4 O -0.57261(18) 1.19384(18) -0.35684(18)
O5 O -0.48818(18) 1.26721(19) -0.14843(15)
S1A S -0.22171(5) 1.48608(5) -0.06646(5)
N1A N -0.18464(17) 1.10682(16) 0.14602(15)
N2A N -0.05730(17) 1.22450(16) -0.07183(16)
N3A N 0.00347(18) 1.29629(17) -0.17709(16)
N4A N -0.14375(19) 1.66489(17) -0.30380(17)
C1A C -0.2469(2) 1.0453(2) 0.25294(19)
H1A H -0.20340 0.94500 0.27600
C2A C -0.3724(2) 1.1217(2) 0.33180(19)
H2A H -0.41300 1.07450 0.40750
C3A C -0.4371(2) 1.2670(2) 0.2986(2)
H3A H -0.52280 1.32140 0.35100
C4A C -0.3748(2) 1.3323(2) 0.18715(19)
H4A H -0.41740 1.43210 0.16170
C5A C -0.2495(2) 1.24938(19) 0.11400(18)
C6A C -0.1740(2) 1.30887(19) -0.00391(18)
C7A C -0.0705(2) 1.4332(2) -0.18660(19)
C8A C -0.0312(2) 1.5401(2) -0.28666(19)
C9A C 0.1131(2) 1.5102(2) -0.35465(19)
H5A H 0.18880 1.41990 -0.33870
C10A C 0.1429(2) 1.6165(2) -0.4465(2)
H6A H 0.24020 1.60080 -0.49490
C11A C 0.0285(2) 1.7460(2) -0.4665(2)
H7A H 0.04620 1.82060 -0.52880
C12A C -0.1125(2) 1.7650(2) -0.3942(2)
H8A H -0.19080 1.85370 -0.40980
C13A C 0.2991(2) 1.0990(2) 0.0662(2)
H9A H 0.34660 1.13830 0.14160
H10A H 0.37920 1.02250 0.02230
H11A H 0.25520 1.17680 -0.00360
O1A O 0.17589(15) 1.03925(15) 0.12275(15)
H12A H 0.212(3) 0.979(3) 0.179(3)
#END
