
#######################################################################
#
#                 Cambridge Crystallographic Data Centre
#                                CCDC
#
#######################################################################
#
# If this CIF has been generated from an entry in the Cambridge
# Structural Database, then it will include bibliographic, chemical,
# crystal, experimental, refinement or atomic coordinate data resulting
# from the CCDC's data processing and validation procedures.
#
#######################################################################

data_CSD_CIF_FOHFEP
_audit_creation_date 2014-06-06
_audit_creation_method CSD-ConQuest-V1
_database_code_CSD FOHFEP
_database_code_depnum_ccdc_archive 'CCDC 931669'
_chemical_formula_sum 'C36 H52 Mn1 N2 O10'
_chemical_formula_moiety
;
C34 H44 Mn1 N2 O8,2(C1 H4 O1)
;
_journal_coden_Cambridge 222
_journal_volume 43
_journal_year 2014
_journal_page_first 10930
_journal_name_full 'Dalton Trans. '
loop_
_publ_author_name
"Jie Feng"
"Xin Du"
"Hui Liu"
"Xin Sui"
"Chen Zhang"
"Yun Tang"
"Jingyan Zhang"
_chemical_name_systematic
;
bis(2-((2,3-Dimethylphenyl)amino)benzoato)-tetrakis(methanol)-manganese(ii) 
methanol solvate
;
_cell_volume    981.542
_exptl_crystal_density_diffrn 1.231
_diffrn_ambient_temperature 293
#These two values have been output from a single CSD field.
_refine_ls_R_factor_gt 0.0652
_refine_ls_wR_factor_gt 0.0652
_symmetry_cell_setting triclinic
_symmetry_space_group_name_H-M 'P -1'
_symmetry_Int_Tables_number 2
loop_
_symmetry_equiv_pos_site_id
_symmetry_equiv_pos_as_xyz
1 x,y,z
2 -x,-y,-z
_cell_length_a 7.7330(15)
_cell_length_b 8.0126(16)
_cell_length_c 15.932(3)
_cell_angle_alpha 91.59(3)
_cell_angle_beta 95.39(3)
_cell_angle_gamma 92.27(3)
_cell_formula_units_Z 1
loop_
_atom_type_symbol
_atom_type_radius_bond
C 0.68
H 0.23
Mn 1.61
N 0.68
O 0.68
loop_
_atom_site_label
_atom_site_type_symbol
_atom_site_fract_x
_atom_site_fract_y
_atom_site_fract_z
Mn1 Mn 0.50000 0.50000 0.00000
O1 O 0.5600(3) 0.4596(3) 0.13084(12)
O2 O 0.7992(3) 0.3131(3) 0.13744(13)
O3 O 0.2882(3) 0.6651(3) 0.02443(14)
H1 H 0.29420 0.73670 -0.02250
O4 O 0.6850(3) 0.7192(3) 0.01250(15)
H2 H 0.75690 0.75570 -0.02050
N1 N 0.4639(3) 0.6068(3) 0.26917(15)
H3 H 0.43310 0.56020 0.21470
C1 C 0.3427(5) 1.1415(4) 0.4221(3)
H4 H 0.24760 1.20630 0.43700
H5 H 0.41920 1.13080 0.47260
H6 H 0.40570 1.20450 0.38370
C2 C 0.2885(4) 0.9679(4) 0.3842(2)
C3 C 0.1178(4) 0.9067(4) 0.3870(2)
H7 H 0.03950 0.97140 0.41290
C4 C 0.0629(4) 0.7511(4) 0.3520(2)
H8 H -0.05160 0.71240 0.35390
C5 C 0.1782(4) 0.6547(4) 0.31456(19)
H9 H 0.14130 0.55000 0.29150
C6 C 0.3492(4) 0.7111(4) 0.31049(17)
C7 C 0.4051(4) 0.8698(4) 0.34370(19)
C8 C 0.5879(4) 0.9356(4) 0.3351(3)
H10 H 0.63980 0.87220 0.29280
H11 H 0.58150 1.03440 0.30240
H12 H 0.65440 0.96220 0.38810
C9 C 0.5943(3) 0.5169(3) 0.31120(17)
C10 C 0.6208(4) 0.5290(4) 0.40021(17)
H13 H 0.55120 0.59670 0.43000
C11 C 0.7483(4) 0.4416(4) 0.44314(19)
H14 H 0.76340 0.45040 0.50170
C12 C 0.8558(4) 0.3398(4) 0.40038(19)
H15 H 0.94210 0.28140 0.43000
C13 C 0.8318(4) 0.3273(4) 0.31308(18)
H16 H 0.90290 0.25950 0.28430
C14 C 0.7023(3) 0.4149(3) 0.26709(17)
C15 C 0.6879(4) 0.3935(4) 0.17241(18)
C16 C 0.1588(6) 0.6722(7) 0.0781(3)
H17 H 0.18450 0.60000 0.12430
H18 H 0.04950 0.63660 0.04810
H19 H 0.15220 0.78480 0.09930
C17 C 0.6950(6) 0.8531(6) 0.0743(3)
H20 H 0.60490 0.83650 0.11120
H21 H 0.68040 0.95720 0.04660
H22 H 0.80630 0.85540 0.10660
O5 O 0.1243(4) 0.1994(5) 0.11355(18)
H23 H 0.07160 0.28060 0.12800
C18 C 0.2183(6) 0.1375(6) 0.1834(3)
H24 H 0.32730 0.09960 0.16760
H25 H 0.15350 0.04590 0.20470
H26 H 0.23940 0.22420 0.22640
O1A O 0.4400(3) 0.5404(3) -0.13084(12)
O2A O 0.2008(3) 0.6869(3) -0.13744(13)
O3A O 0.7118(3) 0.3349(3) -0.02443(14)
H1A H 0.70580 0.26330 0.02250
O4A O 0.3150(3) 0.2808(3) -0.01250(15)
H2A H 0.24310 0.24430 0.02050
N1A N 0.5361(3) 0.3932(3) -0.26917(15)
H3A H 0.56690 0.43980 -0.21470
C1A C 0.6573(5) -0.1415(4) -0.4221(3)
H4A H 0.75240 -0.20630 -0.43700
H5A H 0.58080 -0.13080 -0.47260
H6A H 0.59430 -0.20450 -0.38370
C2A C 0.7115(4) 0.0321(4) -0.3842(2)
C3A C 0.8822(4) 0.0933(4) -0.3870(2)
H7A H 0.96050 0.02860 -0.41290
C4A C 0.9371(4) 0.2489(4) -0.3520(2)
H8A H 1.05160 0.28760 -0.35390
C5A C 0.8218(4) 0.3453(4) -0.31456(19)
H9A H 0.85870 0.45000 -0.29150
C6A C 0.6508(4) 0.2889(4) -0.31049(17)
C7A C 0.5949(4) 0.1302(4) -0.34370(19)
C8A C 0.4121(4) 0.0644(4) -0.3351(3)
H10A H 0.36020 0.12780 -0.29280
H11A H 0.41850 -0.03440 -0.30240
H12A H 0.34560 0.03780 -0.38810
C9A C 0.4057(3) 0.4831(3) -0.31120(17)
C10A C 0.3792(4) 0.4710(4) -0.40021(17)
H13A H 0.44880 0.40330 -0.43000
C11A C 0.2517(4) 0.5584(4) -0.44314(19)
H14A H 0.23660 0.54960 -0.50170
C12A C 0.1442(4) 0.6602(4) -0.40038(19)
H15A H 0.05790 0.71860 -0.43000
C13A C 0.1682(4) 0.6727(4) -0.31308(18)
H16A H 0.09710 0.74050 -0.28430
C14A C 0.2977(3) 0.5851(3) -0.26709(17)
C15A C 0.3121(4) 0.6065(4) -0.17241(18)
C16A C 0.8412(6) 0.3278(7) -0.0781(3)
H17A H 0.81550 0.40000 -0.12430
H18A H 0.95050 0.36340 -0.04810
H19A H 0.84780 0.21520 -0.09930
C17A C 0.3050(6) 0.1469(6) -0.0743(3)
H20A H 0.39510 0.16350 -0.11120
H21A H 0.31960 0.04280 -0.04660
H22A H 0.19370 0.14460 -0.10660
#END
