
#######################################################################
#
#                 Cambridge Crystallographic Data Centre
#                                CCDC
#
#######################################################################
#
# If this CIF has been generated from an entry in the Cambridge
# Structural Database, then it will include bibliographic, chemical,
# crystal, experimental, refinement or atomic coordinate data resulting
# from the CCDC's data processing and validation procedures.
#
#######################################################################

data_CSD_CIF_FOKNUO
_audit_creation_date 1988-06-10
_audit_creation_method CSD-ConQuest-V1
_database_code_CSD FOKNUO
_database_code_depnum_ccdc_archive 'CCDC 1158801'
_chemical_formula_sum 'C6.5 H12 B3 Mn1 O3'
_chemical_formula_moiety
;
C3 H8 B3 Mn1 O3,0.5(C7 H8)
;
_journal_coden_Cambridge 9
_journal_volume 17
_journal_year 1978
_journal_page_first 790
_journal_name_full 'Inorg.Chem. '
loop_
_publ_author_name
"S.J.Hildebrandt"
"D.F.Gaines"
"J.C.Calabrese"
_chemical_name_systematic
;
Tricarbonyl-(octahydro-triborato(1-))-manganese toluene solvate
;
_cell_volume   1107.117
_exptl_crystal_density_diffrn 1.353
_exptl_special_details
;
Air-sensitive
Mn-B bonds occur; cannot overcome by decreasing radii because of long B-H and 
Mn-H bonds. We calculate void space in the structure
;
_diffrn_ambient_temperature 178.15
_refine_special_details
;
Disordered toluene solvent; no coordinates have been retained.

;
#These two values have been output from a single CSD field.
_refine_ls_R_factor_gt 0.047
_refine_ls_wR_factor_gt 0.047
_symmetry_cell_setting monoclinic
_symmetry_space_group_name_H-M 'P 21/c'
_symmetry_Int_Tables_number 14
loop_
_symmetry_equiv_pos_site_id
_symmetry_equiv_pos_as_xyz
1 x,y,z
2 -x,1/2+y,1/2-z
3 -x,-y,-z
4 x,-1/2-y,-1/2+z
_cell_length_a 16.069(9)
_cell_length_b 5.901(3)
_cell_length_c 11.722(6)
_cell_angle_alpha 90
_cell_angle_beta 95.10(4)
_cell_angle_gamma 90
_cell_formula_units_Z 4
loop_
_atom_type_symbol
_atom_type_radius_bond
C 0.68
H 0.23
B 0.83
Mn 1.35
O 0.68
loop_
_atom_site_label
_atom_site_type_symbol
_atom_site_fract_x
_atom_site_fract_y
_atom_site_fract_z
Mn1 Mn 0.32942(5) 0.04408(12) 0.11502(5)
O1 O 0.4577(3) 0.2551(8) -0.0160(3)
O2 O 0.4546(3) -0.2270(8) 0.2540(3)
O3 O 0.3105(3) -0.3248(7) -0.0544(3)
C1 C 0.4086(3) 0.1753(8) 0.0348(4)
C2 C 0.4069(3) -0.1218(10) 0.2009(4)
C3 C 0.3163(4) -0.1811(9) 0.0103(4)
B1 B 0.2777(4) 0.3061(11) 0.2320(5)
B2 B 0.2113(4) 0.0743(11) 0.2137(5)
B3 B 0.2134(4) 0.2682(12) 0.1053(5)
H1 H 0.2786(58) 0.465(16) 0.2590(88)
H2 H 0.1619(35) 0.0059(95) 0.2643(52)
H3 H 0.1762(36) 0.4127(96) 0.0735(49)
H4 H 0.2511(31) -0.0802(86) 0.1790(42)
H5 H 0.3506(27) 0.2457(83) 0.2232(34)
H6 H 0.2602(28) 0.2035(77) 0.0420(37)
H7 H 0.2564(36) 0.182(11) 0.3073(52)
H8 H 0.1626(40) 0.129(12) 0.1224(54)
#END
