
#######################################################################
#
#                 Cambridge Crystallographic Data Centre
#                                CCDC
#
#######################################################################
#
# If this CIF has been generated from an entry in the Cambridge
# Structural Database, then it will include bibliographic, chemical,
# crystal, experimental, refinement or atomic coordinate data resulting
# from the CCDC's data processing and validation procedures.
#
#######################################################################

data_CSD_CIF_FOKYEJ
_audit_creation_date 1988-06-10
_audit_creation_method CSD-ConQuest-V1
_database_code_CSD FOKYEJ
_database_code_depnum_ccdc_archive 'CCDC 1158839'
_chemical_formula_sum 'C3 H9 Cr1 O3 P3'
_chemical_formula_moiety
;
C3 H9 Cr1 O3 P3
;
_journal_coden_Cambridge 36
_journal_volume 47
_journal_year 1973
_journal_page_first 383
_journal_name_full 'J.Organomet.Chem. '
loop_
_publ_author_name
"G.Huttner"
"S.Schelle"
_chemical_name_systematic
;
cis-Tricarbonyl-triphosphine-chromium(0)
;
_cell_volume    498.248
_exptl_crystal_density_diffrn 1.589
_diffrn_ambient_temperature ?
_diffrn_special_details
;
The study was carried out at room temperature,in the range 283-303K

;
#These two values have been output from a single CSD field.
_refine_ls_R_factor_gt 0.056
_refine_ls_wR_factor_gt 0.056
_symmetry_cell_setting monoclinic
_symmetry_space_group_name_H-M 'P 21/m'
_symmetry_Int_Tables_number 11
loop_
_symmetry_equiv_pos_site_id
_symmetry_equiv_pos_as_xyz
1 x,y,z
2 -x,1/2+y,-z
3 -x,-y,-z
4 x,-1/2-y,z
_cell_length_a 6.90(1)
_cell_length_b 11.29(2)
_cell_length_c 6.41(1)
_cell_angle_alpha 90
_cell_angle_beta 93.80(8)
_cell_angle_gamma 90
_cell_formula_units_Z 2
loop_
_atom_type_symbol
_atom_type_radius_bond
C 0.68
H 0.23
Cr 1.35
O 0.68
P 1.05
loop_
_atom_site_label
_atom_site_type_symbol
_atom_site_fract_x
_atom_site_fract_y
_atom_site_fract_z
Cr1 Cr 0.2532(2) 0.25000 0.0610(2)
P1 P 0.5441(3) 0.25000 0.2738(4)
P2 P 0.1323(2) 0.1017(1) 0.2729(2)
C1 C 0.0273(11) 0.25000 -0.1079(12)
C2 C 0.3538(8) 0.1355(5) -0.1050(8)
O1 O -0.1155(9) 0.25000 -0.2160(12)
O2 O 0.4150(8) 0.0679(5) -0.2190(8)
H1 H 0.70(2) 0.25000 0.24(2)
H2 H 0.61(1) 0.151(9) 0.38(2)
H3 H -0.03(1) 0.040(8) 0.20(2)
H4 H 0.25(1) 0.036(9) 0.39(2)
H5 H 0.03(1) 0.154(9) 0.45(2)
P2C P 0.1323(2) 0.3983(1) 0.2729(2)
C2C C 0.3538(8) 0.3645(5) -0.1050(8)
H2C H 0.61(1) 0.349(9) 0.38(2)
H3C H -0.03(1) 0.460(8) 0.20(2)
H4C H 0.25(1) 0.464(9) 0.39(2)
H5C H 0.03(1) 0.346(9) 0.45(2)
O2C O 0.4150(8) 0.4321(5) -0.2190(8)
#END
