
#######################################################################
#
#                 Cambridge Crystallographic Data Centre
#                                CCDC
#
#######################################################################
#
# If this CIF has been generated from an entry in the Cambridge
# Structural Database, then it will include bibliographic, chemical,
# crystal, experimental, refinement or atomic coordinate data resulting
# from the CCDC's data processing and validation procedures.
#
#######################################################################

data_CSD_CIF_FOPCAR
_audit_creation_date 2019-05-31
_audit_creation_method CSD-ConQuest-V1
_database_code_CSD FOPCAR
_database_code_depnum_ccdc_archive 'CCDC 1887861'
_chemical_formula_sum 'C14 H6 Cl1 Mn1 N2 O5'
_chemical_formula_moiety
;
C14 H6 Cl1 Mn1 N2 O5
;
_journal_coden_Cambridge 179
_journal_volume 58
_journal_year 2019
_journal_page_first 5090
_journal_name_full 'Angew.Chem.,Int.Ed. '
loop_
_publ_author_name
"Guangfan Zheng"
"Jiaqiong Sun"
"Youwei Xu"
"Shuailei Zhai"
"Xingwei Li"
_chemical_name_systematic
;
tetracarbonyl-[5-chloro-6-oxo-1-(pyridin-2-yl)-1,6-dihydropyridin-2-yl]-mangan
ese
;
_cell_volume    695.000
_exptl_crystal_colour 'metallic light yellow'
_exptl_crystal_density_diffrn 1.78
_exptl_crystal_description 'block'
_diffrn_ambient_temperature 153
#These two values have been output from a single CSD field.
_refine_ls_R_factor_gt 0.0211
_refine_ls_wR_factor_gt 0.0211
_symmetry_cell_setting triclinic
_symmetry_space_group_name_H-M 'P -1'
_symmetry_Int_Tables_number 2
loop_
_symmetry_equiv_pos_site_id
_symmetry_equiv_pos_as_xyz
1 x,y,z
2 -x,-y,-z
_cell_length_a 7.0255(9)
_cell_length_b 10.2656(9)
_cell_length_c 10.6168(14)
_cell_angle_alpha 97.256(3)
_cell_angle_beta 106.968(2)
_cell_angle_gamma 103.856(2)
_cell_formula_units_Z 2
loop_
_atom_type_symbol
_atom_type_radius_bond
C 0.68
H 0.23
Cl 0.99
Mn 1.61
N 0.68
O 0.68
loop_
_atom_site_label
_atom_site_type_symbol
_atom_site_fract_x
_atom_site_fract_y
_atom_site_fract_z
Mn1 Mn 0.46174(3) 0.20667(2) 0.17971(2)
Cl1 Cl 1.02962(5) 0.84621(3) 0.41350(4)
O1 O 0.88037(18) 0.64461(11) 0.55764(10)
O2 O 0.84258(18) 0.10885(12) 0.22373(12)
N1 N 0.50543(17) 0.24526(12) 0.38015(11)
O3 O 0.16046(19) -0.07349(12) 0.10859(13)
O4 O 0.45078(19) 0.18636(12) -0.10214(11)
N2 N 0.70717(16) 0.45904(11) 0.37575(11)
O5 O 0.12485(18) 0.34395(13) 0.11736(11)
C1 C 0.6311(2) 0.36927(14) 0.45366(14)
C2 C 0.4619(2) 0.17818(15) 0.58077(15)
H1 H 0.40110 0.11070 0.62230
C3 C 0.4221(2) 0.15315(15) 0.44366(15)
H2 H 0.33130 0.06660 0.39120
C4 C 0.8300(2) 0.59720(14) 0.43715(14)
C5 C 0.7011(2) 0.14583(14) 0.21313(14)
C6 C 0.8883(2) 0.67570(14) 0.34350(15)
C7 C 0.6784(2) 0.40161(15) 0.59306(14)
H3 H 0.76800 0.48900 0.64410
C8 C 0.7210(2) 0.48385(15) 0.15899(14)
H4 H 0.68800 0.44680 0.06600
C9 C 0.8408(2) 0.62236(15) 0.21221(15)
H5 H 0.88740 0.67740 0.15550
C10 C 0.6513(2) 0.40161(14) 0.23795(14)
C11 C 0.5929(2) 0.30430(16) 0.65581(14)
H6 H 0.62450 0.32450 0.75070
C12 C 0.4524(2) 0.19362(15) 0.00694(15)
C13 C 0.2780(2) 0.03268(16) 0.13902(15)
C14 C 0.2480(2) 0.28894(15) 0.14397(14)
#END
