
#######################################################################
#
#                 Cambridge Crystallographic Data Centre
#                                CCDC
#
#######################################################################
#
# If this CIF has been generated from an entry in the Cambridge
# Structural Database, then it will include bibliographic, chemical,
# crystal, experimental, refinement or atomic coordinate data resulting
# from the CCDC's data processing and validation procedures.
#
#######################################################################

data_CSD_CIF_FOPKAW
_audit_creation_date 1988-04-27
_audit_creation_method CSD-ConQuest-V1
_database_code_CSD FOPKAW
_database_code_depnum_ccdc_archive 'CCDC 1159221'
_chemical_formula_sum 'C14 H17 Cr1 N1 O3'
_chemical_formula_moiety
;
C14 H17 Cr1 N1 O3
;
_journal_coden_Cambridge 207
_journal_year 1987
_journal_page_first 1805
_journal_name_full 'J.Chem.Soc.,Perkin Trans.1 '
loop_
_publ_author_name
"J.Blagg"
"S.G.Davies"
"C.L.Goodfellow"
"K.H.Sutton"
_chemical_name_systematic
;
(S)-(\h^6^-2,\a-Dimethylbenzyldimethylamine)-tricarbonyl-chromium
;
_chemical_melting_point 389.15
_cell_volume    740.947
_exptl_crystal_colour 'yellow'
_exptl_crystal_density_diffrn 1.34
_exptl_special_details
;
Melting point range 389.15-390.15K

;
_diffrn_ambient_temperature ?
_diffrn_special_details
;
The study was carried out at room temperature,in the range 283-303K

;
#These two values have been output from a single CSD field.
_refine_ls_R_factor_gt 0.044
_refine_ls_wR_factor_gt 0.044
_symmetry_cell_setting monoclinic
_symmetry_space_group_name_H-M 'P 21'
_symmetry_Int_Tables_number 4
loop_
_symmetry_equiv_pos_site_id
_symmetry_equiv_pos_as_xyz
1 x,y,z
2 -x,1/2+y,-z
_cell_length_a 8.330(1)
_cell_length_b 11.229(3)
_cell_length_c 7.925(1)
_cell_angle_alpha 90
_cell_angle_beta 91.73(1)
_cell_angle_gamma 90
_cell_formula_units_Z 2
loop_
_atom_type_symbol
_atom_type_radius_bond
C 0.68
H 0.23
Cr 1.35
N 0.68
O 0.68
loop_
_atom_site_label
_atom_site_type_symbol
_atom_site_fract_x
_atom_site_fract_y
_atom_site_fract_z
Cr1 Cr 0.8450(1) 0.3204(2) 0.1176(1)
O1 O 1.1712(7) 0.345(1) -0.0236(9)
O2 O 0.772(1) 0.1435(8) -0.155(1)
O3 O 0.973(1) 0.1240(6) 0.329(1)
C1 C 0.6413(5) 0.3515(4) 0.2901(6)
C2 C 0.7814(6) 0.4099(5) 0.3609(9)
C3 C 0.864(1) 0.4893(6) 0.263(1)
C4 C 0.811(1) 0.5144(7) 0.094(2)
C5 C 0.677(1) 0.4590(9) 0.023(1)
C6 C 0.5924(7) 0.3754(6) 0.1223(8)
C7 C 0.5497(6) 0.2670(5) 0.3987(7)
C8 C 0.452(1) 0.1731(7) 0.301(1)
C9 C 0.8413(7) 0.3844(7) 0.5368(8)
C10 C 1.0439(7) 0.337(1) 0.0289(8)
C11 C 0.800(1) 0.2158(9) -0.049(1)
C12 C 0.923(1) 0.2004(7) 0.246(1)
C13 C 0.3293(8) 0.4078(8) 0.444(1)
C14 C 0.401(1) 0.264(1) 0.656(1)
N1 N 0.4596(5) 0.3380(7) 0.5190(6)
H1 H 0.970(1) 0.5365(6) 0.314(1)
H2 H 0.878(1) 0.5773(7) 0.016(2)
H3 H 0.636(1) 0.4783(9) -0.107(1)
H4 H 0.4868(7) 0.3287(6) 0.0684(8)
H5 H 0.6328(6) 0.2111(5) 0.4747(7)
H6 H 0.531(1) 0.1228(7) 0.217(1)
H7 H 0.396(1) 0.1115(7) 0.389(1)
H8 H 0.359(1) 0.2192(7) 0.225(1)
H9 H 0.9482(7) 0.4389(7) 0.5669(8)
H10 H 0.7470(7) 0.4046(7) 0.6267(8)
H11 H 0.8730(7) 0.2895(7) 0.5456(8)
H12 H 0.3756(8) 0.4642(8) 0.343(1)
H13 H 0.2757(8) 0.4644(8) 0.540(1)
H14 H 0.2375(8) 0.3469(8) 0.390(1)
H15 H 0.332(1) 0.317(1) 0.745(1)
H16 H 0.505(1) 0.224(1) 0.722(1)
H17 H 0.324(1) 0.193(1) 0.602(1)
#END
