
#######################################################################
#
#                 Cambridge Crystallographic Data Centre
#                                CCDC
#
#######################################################################
#
# If this CIF has been generated from an entry in the Cambridge
# Structural Database, then it will include bibliographic, chemical,
# crystal, experimental, refinement or atomic coordinate data resulting
# from the CCDC's data processing and validation procedures.
#
#######################################################################

data_CSD_CIF_FORJAX
_audit_creation_date 1988-04-27
_audit_creation_method CSD-ConQuest-V1
_database_code_CSD FORJAX
_database_code_depnum_ccdc_archive 'CCDC 1159350'
_chemical_formula_sum 'C14 H10 Cr1 F6'
_chemical_formula_moiety
;
C14 H10 Cr1 F6
;
_journal_coeditor_code "IUCr A27345"
_journal_coden_Cambridge 591
_journal_volume 43
_journal_year 1987
_journal_page_first 1624
_journal_name_full 'Acta Crystallogr.,Sect.C:Cryst.Struct.Commun. '
loop_
_publ_author_name
"S.B.Larson"
"C.M.Seymour"
"J.J.Lagowski"
_chemical_name_systematic
;
bis(\h^6^-Trifluoromethylbenzene)-chromium(0)
;
_cell_volume    646.552
_exptl_crystal_density_diffrn 1.768
_diffrn_ambient_temperature 163
#These two values have been output from a single CSD field.
_refine_ls_R_factor_gt 0.0391
_refine_ls_wR_factor_gt 0.0391
_symmetry_cell_setting monoclinic
_symmetry_space_group_name_H-M 'P 21/n'
_symmetry_Int_Tables_number 14
loop_
_symmetry_equiv_pos_site_id
_symmetry_equiv_pos_as_xyz
1 x,y,z
2 1/2-x,1/2+y,1/2-z
3 -x,-y,-z
4 -1/2+x,-1/2-y,-1/2+z
_cell_length_a 8.5435(12)
_cell_length_b 7.7583(14)
_cell_length_c 10.5058(20)
_cell_angle_alpha 90
_cell_angle_beta 111.801(12)
_cell_angle_gamma 90
_cell_formula_units_Z 2
loop_
_atom_type_symbol
_atom_type_radius_bond
C 0.68
H 0.23
Cr 1.35
F 0.64
loop_
_atom_site_label
_atom_site_type_symbol
_atom_site_fract_x
_atom_site_fract_y
_atom_site_fract_z
Cr1 Cr 0.00000 0.00000 0.00000
C1 C 0.1785(3) 0.1934(3) 0.0102(2)
C2 C 0.0244(3) 0.2731(3) -0.0026(3)
C3 C -0.0527(3) 0.2302(3) 0.0899(3)
C4 C 0.0225(3) 0.1080(3) 0.1944(2)
C5 C 0.1747(3) 0.0302(3) 0.2066(2)
C6 C 0.2551(3) 0.0714(3) 0.1155(2)
C7 C 0.2644(3) 0.2415(4) -0.0852(3)
F1 F 0.3581(2) 0.1154(3) -0.1053(2)
F2 F 0.1580(3) 0.2786(3) -0.2085(2)
F3 F 0.3667(3) 0.3774(3) -0.0371(2)
H1 H -0.017(3) 0.347(4) -0.074(3)
H2 H -0.153(4) 0.277(4) 0.081(3)
H3 H -0.030(4) 0.083(4) 0.250(3)
H4 H 0.222(3) -0.058(4) 0.270(3)
H5 H 0.359(3) 0.017(3) 0.113(3)
C1B C -0.1785(3) -0.1934(3) -0.0102(2)
C2B C -0.0244(3) -0.2731(3) 0.0026(3)
C3B C 0.0527(3) -0.2302(3) -0.0899(3)
C4B C -0.0225(3) -0.1080(3) -0.1944(2)
C5B C -0.1747(3) -0.0302(3) -0.2066(2)
C6B C -0.2551(3) -0.0714(3) -0.1155(2)
C7B C -0.2644(3) -0.2415(4) 0.0852(3)
H1B H 0.017(3) -0.347(4) 0.074(3)
H2B H 0.153(4) -0.277(4) -0.081(3)
H3B H 0.030(4) -0.083(4) -0.250(3)
H4B H -0.222(3) 0.058(4) -0.270(3)
H5B H -0.359(3) -0.017(3) -0.113(3)
F1B F -0.3581(2) -0.1154(3) 0.1053(2)
F2B F -0.1580(3) -0.2786(3) 0.2085(2)
F3B F -0.3667(3) -0.3774(3) 0.0371(2)
#END
