
#######################################################################
#
#                 Cambridge Crystallographic Data Centre
#                                CCDC
#
#######################################################################
#
# If this CIF has been generated from an entry in the Cambridge
# Structural Database, then it will include bibliographic, chemical,
# crystal, experimental, refinement or atomic coordinate data resulting
# from the CCDC's data processing and validation procedures.
#
#######################################################################

data_CSD_CIF_FULXUF02
_audit_creation_date 2008-08-15
_audit_creation_method CSD-ConQuest-V1
_database_code_CSD FULXUF02
_database_code_depnum_ccdc_archive 'CCDC 685617'
_chemical_formula_sum 'C12 H16 Mn1 N2 O8'
_chemical_formula_moiety
;
C12 H16 Mn1 N2 O8
;
_journal_coden_Cambridge 127
_journal_volume 65
_journal_year 2007
_journal_page_first 1032
_journal_name_full 'Huaxue Xuebao(Chin.)(Acta Chim.Sinica) '
loop_
_publ_author_name
"Li Zhang"
"Shu-Yun Niu"
"Jing Jin"
"Li-Ping Sun"
"Guang-Di Yang"
"Ling Ye"
_chemical_name_systematic
;
Tetra-aqua-bis(isonicotinate)-manganese(ii)
;
_cell_volume    362.128
_exptl_crystal_colour 'colorless'
_exptl_crystal_description 'block'
_diffrn_ambient_temperature 293
#These two values have been output from a single CSD field.
_refine_ls_R_factor_gt 0.0419
_refine_ls_wR_factor_gt 0.0419
_symmetry_cell_setting triclinic
_symmetry_space_group_name_H-M 'P -1'
_symmetry_Int_Tables_number 2
loop_
_symmetry_equiv_pos_site_id
_symmetry_equiv_pos_as_xyz
1 x,y,z
2 -x,-y,-z
_cell_length_a 6.393(6)
_cell_length_b 6.931(5)
_cell_length_c 9.346(7)
_cell_angle_alpha 95.51(3)
_cell_angle_beta 104.38(3)
_cell_angle_gamma 112.48(3)
_cell_formula_units_Z 1
loop_
_atom_type_symbol
_atom_type_radius_bond
C 0.68
H 0.23
Mn 1.35
N 0.68
O 0.68
loop_
_atom_site_label
_atom_site_type_symbol
_atom_site_fract_x
_atom_site_fract_y
_atom_site_fract_z
Mn1 Mn 0.50000 0.50000 0.50000
N1 N 0.2443(3) 0.3576(3) 0.2614(2)
O1 O 0.2795(3) 0.2468(3) 0.5950(2)
H1 H 0.14980 0.14700 0.53760
H2 H 0.32450 0.24930 0.68900
O2 O 0.3362(3) 0.7115(3) 0.54443(18)
H3 H 0.21890 0.70980 0.47630
H4 H 0.38930 0.79610 0.63010
O3 O -0.4271(3) 0.0794(3) -0.2286(2)
O4 O -0.1020(3) 0.2021(3) -0.30173(19)
C1 C 0.0068(4) 0.2896(4) 0.2261(3)
C2 C -0.1438(4) 0.2231(4) 0.0784(3)
C3 C -0.0499(4) 0.2256(3) -0.0402(2)
C4 C 0.1950(4) 0.2897(4) -0.0045(3)
C5 C 0.3328(4) 0.3526(4) 0.1452(3)
C6 C -0.2065(4) 0.1632(4) -0.2038(2)
H5 H 0.273(5) 0.284(5) -0.083(4)
H6 H -0.063(6) 0.295(5) 0.306(4)
H7 H -0.317(6) 0.171(6) 0.059(4)
H8 H 0.496(6) 0.398(5) 0.167(4)
N1A N 0.7557(3) 0.6424(3) 0.7386(2)
O1A O 0.7205(3) 0.7532(3) 0.4050(2)
H1A H 0.85020 0.85300 0.46240
H2A H 0.67550 0.75070 0.31100
O2A O 0.6638(3) 0.2885(3) 0.45557(18)
H3A H 0.78110 0.29020 0.52370
H4A H 0.61070 0.20390 0.36990
O3A O 1.4271(3) 0.9206(3) 1.2286(2)
O4A O 1.1020(3) 0.7979(3) 1.30173(19)
C1A C 0.9932(4) 0.7104(4) 0.7739(3)
C2A C 1.1438(4) 0.7769(4) 0.9216(3)
C3A C 1.0499(4) 0.7744(3) 1.0402(2)
C4A C 0.8050(4) 0.7103(4) 1.0045(3)
C5A C 0.6672(4) 0.6474(4) 0.8548(3)
C6A C 1.2065(4) 0.8368(4) 1.2038(2)
H5A H 0.727(5) 0.716(5) 1.083(4)
H6A H 1.063(6) 0.705(5) 0.694(4)
H7A H 1.317(6) 0.829(6) 0.941(4)
H8A H 0.504(6) 0.602(5) 0.833(4)
#END
