
#######################################################################
#
#                 Cambridge Crystallographic Data Centre
#                                CCDC
#
#######################################################################
#
# If this CIF has been generated from an entry in the Cambridge
# Structural Database, then it will include bibliographic, chemical,
# crystal, experimental, refinement or atomic coordinate data resulting
# from the CCDC's data processing and validation procedures.
#
#######################################################################

data_CSD_CIF_FULXUF04
_audit_creation_date 2019-03-08
_audit_creation_method CSD-ConQuest-V1
_database_code_CSD FULXUF04
_database_code_depnum_ccdc_archive 'CCDC 1902011'
_chemical_formula_sum 'C12 H16 Mn1 N2 O8'
_chemical_formula_moiety
;
C12 H16 Mn1 N2 O8
;
_journal_coden_Cambridge 562
_journal_volume 96
_journal_year 2019
_journal_page_first 317
_journal_name_full 'J.Indian Chem.Soc. '
loop_
_publ_author_name
"B.K.Das"
"S.J.Bora"
"M.Chakrabortty"
_chemical_name_systematic
;
tetraaqua-bis(pyridine-4-carboxylato)-manganese(ii)
;
_cell_volume    359.716
_exptl_crystal_colour 'colorless'
_exptl_crystal_density_diffrn 1.714
_exptl_crystal_description 'irregular parallelepiped'
_diffrn_ambient_temperature 173
#These two values have been output from a single CSD field.
_refine_ls_R_factor_gt 0.0252
_refine_ls_wR_factor_gt 0.0252
_symmetry_cell_setting triclinic
_symmetry_space_group_name_H-M 'P -1'
_symmetry_Int_Tables_number 2
loop_
_symmetry_equiv_pos_site_id
_symmetry_equiv_pos_as_xyz
1 x,y,z
2 -x,-y,-z
_cell_length_a 6.3895(6)
_cell_length_b 6.8854(6)
_cell_length_c 9.3540(9)
_cell_angle_alpha 95.229(2)
_cell_angle_beta 104.428(2)
_cell_angle_gamma 112.631(1)
_cell_formula_units_Z 1
loop_
_atom_type_symbol
_atom_type_radius_bond
C 0.68
H 0.23
Mn 1.61
N 0.68
O 0.68
loop_
_atom_site_label
_atom_site_type_symbol
_atom_site_fract_x
_atom_site_fract_y
_atom_site_fract_z
Mn1 Mn 0.00000 0.00000 0.00000
O1 O 0.1654(2) -0.21164(18) -0.04489(13)
O2 O 0.5999(2) 0.2951(2) 0.80081(12)
O3 O 0.92748(19) 0.42004(18) 0.72795(12)
O4 O 0.2194(2) 0.25489(19) -0.09578(14)
N1 N 0.2569(2) 0.1435(2) 0.23843(14)
C1 C 0.7047(3) 0.3356(2) 0.70283(16)
C2 C 0.4948(3) 0.2107(2) 0.27375(17)
C3 C 0.3039(3) 0.2100(2) 0.50396(16)
C4 C 0.6455(3) 0.2779(2) 0.42133(17)
C5 C 0.1662(3) 0.1472(2) 0.35349(16)
C6 C 0.5490(2) 0.2743(2) 0.53934(15)
H1 H 0.230(3) 0.208(3) 0.580(2)
H2 H -0.002(4) 0.099(3) 0.327(2)
H3 H 0.815(4) 0.326(3) 0.440(2)
H4 H 0.555(4) 0.208(3) 0.194(2)
H5 H 0.337(5) 0.271(4) -0.130(3)
H6 H 0.139(5) 0.317(4) -0.142(3)
H7 H 0.086(4) -0.325(4) -0.110(3)
H8 H 0.238(5) -0.247(4) 0.030(3)
O1A O -0.1654(2) 0.21164(18) 0.04489(13)
O2A O -0.5999(2) -0.2951(2) -0.80081(12)
O3A O -0.92748(19) -0.42004(18) -0.72795(12)
O4A O -0.2194(2) -0.25489(19) 0.09578(14)
N1A N -0.2569(2) -0.1435(2) -0.23843(14)
C1A C -0.7047(3) -0.3356(2) -0.70283(16)
C2A C -0.4948(3) -0.2107(2) -0.27375(17)
C3A C -0.3039(3) -0.2100(2) -0.50396(16)
C4A C -0.6455(3) -0.2779(2) -0.42133(17)
C5A C -0.1662(3) -0.1472(2) -0.35349(16)
C6A C -0.5490(2) -0.2743(2) -0.53934(15)
H1A H -0.230(3) -0.208(3) -0.580(2)
H2A H 0.002(4) -0.099(3) -0.327(2)
H3A H -0.815(4) -0.326(3) -0.440(2)
H4A H -0.555(4) -0.208(3) -0.194(2)
H5A H -0.337(5) -0.271(4) 0.130(3)
H6A H -0.139(5) -0.317(4) 0.142(3)
H7A H -0.086(4) 0.325(4) 0.110(3)
H8A H -0.238(5) 0.247(4) -0.030(3)
#END
