
#######################################################################
#
#                 Cambridge Crystallographic Data Centre
#                                CCDC
#
#######################################################################
#
# If this CIF has been generated from an entry in the Cambridge
# Structural Database, then it will include bibliographic, chemical,
# crystal, experimental, refinement or atomic coordinate data resulting
# from the CCDC's data processing and validation procedures.
#
#######################################################################

data_CSD_CIF_FULXUF01
_audit_creation_date 2006-10-06
_audit_creation_method CSD-ConQuest-V1
_database_code_CSD FULXUF01
_database_code_depnum_ccdc_archive 'CCDC 284601'
_chemical_formula_sum 'C12 H16 Mn1 N2 O8'
_chemical_formula_moiety
;
C12 H16 Mn1 N2 O8
;
_journal_coden_Cambridge 155
_journal_volume 359
_journal_year 2006
_journal_page_first 3205
_journal_name_full 'Inorg.Chim.Acta '
loop_
_publ_author_name
"Jie-Hui Yu"
"Jing Lu"
"Yan Xu"
"Xiao Zhang"
"Ji-Qing Xu"
_chemical_name_systematic
;
trans-tetra-aqua-bis(isonicotinate-N)-manganese(ii)
;
_cell_volume    362.796
_exptl_crystal_colour 'colorless'
_exptl_crystal_density_diffrn 1.699
_exptl_special_details
;
fluorescent

;
_exptl_crystal_description 'columnar'
_diffrn_ambient_temperature 293
#These two values have been output from a single CSD field.
_refine_ls_R_factor_gt 0.0236
_refine_ls_wR_factor_gt 0.0236
_symmetry_cell_setting triclinic
_symmetry_space_group_name_H-M 'P -1'
_symmetry_Int_Tables_number 2
loop_
_symmetry_equiv_pos_site_id
_symmetry_equiv_pos_as_xyz
1 x,y,z
2 -x,-y,-z
_cell_length_a 6.4008(1)
_cell_length_b 6.9412(1)
_cell_length_c 9.3426(2)
_cell_angle_alpha 95.531(1)
_cell_angle_beta 104.393(1)
_cell_angle_gamma 112.516(1)
_cell_formula_units_Z 1
loop_
_atom_type_symbol
_atom_type_radius_bond
C 0.68
H 0.23
Mn 1.35
N 0.68
O 0.68
loop_
_atom_site_label
_atom_site_type_symbol
_atom_site_fract_x
_atom_site_fract_y
_atom_site_fract_z
Mn1 Mn 0.50000 0.50000 0.00000
O1 O -0.42705(17) 0.07925(17) -0.72851(11)
O2 O -0.10253(18) 0.20253(19) -0.80186(11)
N1 N 0.24347(18) 0.35737(17) -0.23928(11)
C1 C 0.3329(2) 0.3532(2) -0.35433(13)
H1 H 0.49600 0.39500 -0.33190
C2 C 0.1948(2) 0.28987(19) -0.50479(13)
H2 H 0.26440 0.29040 -0.58120
C3 C -0.0494(2) 0.22548(17) -0.54007(12)
C4 C -0.1440(2) 0.2227(2) -0.42178(14)
H3 H -0.30720 0.17620 -0.44120
C5 C 0.0070(2) 0.2901(2) -0.27396(14)
H4 H -0.05860 0.28850 -0.19550
C6 C -0.2057(2) 0.16346(19) -0.70338(13)
O3 O 0.33552(16) 0.71056(15) 0.04472(10)
H5 H 0.41360 0.81870 0.10740
H6 H 0.26800 0.74410 -0.02470
O4 O 0.27923(18) 0.24716(17) 0.09460(12)
H7 H 0.17760 0.23550 0.13130
H8 H 0.35340 0.17590 0.14650
O1A O 1.42705(17) 0.92075(17) 0.72851(11)
O2A O 1.10253(18) 0.79747(19) 0.80186(11)
N1A N 0.75653(18) 0.64263(17) 0.23928(11)
C1A C 0.6671(2) 0.6468(2) 0.35433(13)
H1A H 0.50400 0.60500 0.33190
C2A C 0.8052(2) 0.71013(19) 0.50479(13)
H2A H 0.73560 0.70960 0.58120
C3A C 1.0494(2) 0.77452(17) 0.54007(12)
C4A C 1.1440(2) 0.7773(2) 0.42178(14)
H3A H 1.30720 0.82380 0.44120
C5A C 0.9930(2) 0.7099(2) 0.27396(14)
H4A H 1.05860 0.71150 0.19550
C6A C 1.2057(2) 0.83654(19) 0.70338(13)
O3A O 0.66448(16) 0.28944(15) -0.04472(10)
H5A H 0.58640 0.18130 -0.10740
H6A H 0.73200 0.25590 0.02470
O4A O 0.72077(18) 0.75284(17) -0.09460(12)
H7A H 0.82240 0.76450 -0.13130
H8A H 0.64660 0.82410 -0.14650
#END
