
#######################################################################
#
#                 Cambridge Crystallographic Data Centre
#                                CCDC
#
#######################################################################
#
# If this CIF has been generated from an entry in the Cambridge
# Structural Database, then it will include bibliographic, chemical,
# crystal, experimental, refinement or atomic coordinate data resulting
# from the CCDC's data processing and validation procedures.
#
#######################################################################

data_CSD_CIF_FUNLIJ
_audit_creation_date 1988-08-15
_audit_creation_method CSD-ConQuest-V1
_database_code_CSD FUNLIJ
_chemical_formula_sum 'C16 H23 Co1 N2 O3'
_chemical_formula_moiety
;
C16 H23 Co1 N2 O3
;
_journal_coden_Cambridge 186
_journal_year 1988
_journal_page_first 129
_journal_name_full 'J.Chem.Soc.,Dalton Trans. '
loop_
_publ_author_name
"M.-H.Darbieu"
"F.Dahan"
"J.-P.Costes"
"J.-P.Laurent"
"G.Cros"
_chemical_name_systematic
;
Aqua-ethyl-(N,N'-ethylene(acetylacetonylideneiminato)-(salicylideneiminato)-N,
N',O,O')-cobalt(iii)
;
_cell_volume    812.673
_exptl_crystal_colour 'red'
_exptl_crystal_density_diffrn 1.43
_diffrn_ambient_temperature ?
_diffrn_special_details
;
The study was carried out at room temperature,in the range 283-303K

;
#These two values have been output from a single CSD field.
_refine_ls_R_factor_gt 0.032
_refine_ls_wR_factor_gt 0.032
_symmetry_cell_setting triclinic
_symmetry_space_group_name_H-M 'P -1'
_symmetry_Int_Tables_number 2
loop_
_symmetry_equiv_pos_site_id
_symmetry_equiv_pos_as_xyz
1 x,y,z
2 -x,-y,-z
_cell_length_a 9.366(1)
_cell_length_b 11.292(2)
_cell_length_c 8.009(1)
_cell_angle_alpha 99.10(1)
_cell_angle_beta 102.48(2)
_cell_angle_gamma 82.60(1)
_cell_formula_units_Z 2
loop_
_atom_type_symbol
_atom_type_radius_bond
C 0.68
H 0.23
Co 1.33
N 0.68
O 0.68
loop_
_atom_site_label
_atom_site_type_symbol
_atom_site_fract_x
_atom_site_fract_y
_atom_site_fract_z
Co1 Co 0.43160(7) 0.21332(6) 0.45812(9)
O1 O 0.4040(3) 0.0848(3) 0.2737(4)
C1 C 0.2772(6) 0.0671(5) 0.1708(7)
C2 C 0.1493(6) 0.1374(5) 0.1794(8)
C3 C 0.1282(6) 0.2401(5) 0.2933(8)
C4 C 0.2859(6) -0.0393(5) 0.0329(7)
C5 C -0.0252(6) 0.3095(5) 0.2772(8)
N1 N 0.2339(4) 0.2826(4) 0.4178(5)
C6 C 0.2110(6) 0.3967(5) 0.5304(7)
C7 C 0.3174(5) 0.3892(5) 0.6939(7)
N2 N 0.4581(4) 0.3325(3) 0.6502(5)
C8 C 0.5807(5) 0.3660(4) 0.7441(6)
C9 C 0.7229(5) 0.3066(4) 0.7170(6)
C10 C 0.7410(5) 0.1986(4) 0.6090(7)
O2 O 0.6302(3) 0.1424(3) 0.5121(4)
C11 C 0.8867(6) 0.1435(5) 0.6043(8)
C12 C 1.0057(7) 0.1978(6) 0.7062(8)
C13 C 0.9864(6) 0.3056(5) 0.8123(7)
C14 C 0.8487(6) 0.3627(5) 0.8229(7)
C15 C 0.4947(6) 0.3164(5) 0.3119(7)
C16 C 0.4344(7) 0.3027(6) 0.1255(8)
O3 O 0.3736(3) 0.0945(3) 0.6239(4)
H1 H 0.325(5) 0.133(4) 0.716(4)
H2 H 0.455(3) 0.039(3) 0.669(3)
H3 H 0.06300 0.11200 0.09700
H4 H 0.18900 -0.04800 -0.03900
H5 H 0.32000 -0.11100 0.08700
H6 H 0.35400 -0.05700 -0.03800
H7 H -0.09300 0.27000 0.18200
H8 H -0.01900 0.39100 0.25600
H9 H -0.06000 0.31200 0.38400
H10 H 0.22700 0.46400 0.47700
H11 H 0.11200 0.40700 0.55100
H12 H 0.28400 0.34100 0.76500
H13 H 0.33100 0.46900 0.75600
H14 H 0.57800 0.43300 0.83600
H15 H 0.90200 0.06800 0.53000
H16 H 1.10500 0.16000 0.70500
H17 H 1.07200 0.34200 0.88100
H18 H 0.83700 0.43800 0.89800
H19 H 0.60100 0.30200 0.32800
H20 H 0.46700 0.39900 0.35700
H21 H 0.44500 0.37500 0.07900
H22 H 0.33100 0.29000 0.10400
H23 H 0.48800 0.23400 0.07000
#END
