
#######################################################################
#
#                 Cambridge Crystallographic Data Centre
#                                CCDC
#
#######################################################################
#
# If this CIF has been generated from an entry in the Cambridge
# Structural Database, then it will include bibliographic, chemical,
# crystal, experimental, refinement or atomic coordinate data resulting
# from the CCDC's data processing and validation procedures.
#
#######################################################################

data_CSD_CIF_FUPDUQ
_audit_creation_date 2010-10-04
_audit_creation_method CSD-ConQuest-V1
_database_code_CSD FUPDUQ
_database_code_depnum_ccdc_archive 'CCDC 744991'
_chemical_formula_sum 'C16 H9 Mn1 O6'
_chemical_formula_moiety
;
C16 H9 Mn1 O6
;
_journal_coden_Cambridge 222
_journal_volume 39
_journal_year 2010
_journal_page_first 2536
_journal_name_full 'Dalton Trans. '
loop_
_publ_author_name
"K.Splith"
"I.Neundorf"
"Wanning Hu"
"H.W.P.N'Dongo"
"V.Vasylyeva"
"K.Merz"
"U.Schatzschneider"
_chemical_name_systematic
;
(\h^5^-(4-carboxybenzoyl)cyclopentadiene)-tricarbonyl-manganese
;
_cell_volume    734.432
_exptl_crystal_colour 'yellow'
_exptl_crystal_density_diffrn 1.593
_exptl_special_details
;
The authors report that data completeness is low due to crystal decomposition 
during the measurement
;
_exptl_crystal_description 'plate'
_diffrn_ambient_temperature 223
#These two values have been output from a single CSD field.
_refine_ls_R_factor_gt 0.0828
_refine_ls_wR_factor_gt 0.0828
_symmetry_cell_setting triclinic
_symmetry_space_group_name_H-M 'P -1'
_symmetry_Int_Tables_number 2
loop_
_symmetry_equiv_pos_site_id
_symmetry_equiv_pos_as_xyz
1 x,y,z
2 -x,-y,-z
_cell_length_a 6.3640(12)
_cell_length_b 7.0047(13)
_cell_length_c 18.316(3)
_cell_angle_alpha 90.874(6)
_cell_angle_beta 97.733(5)
_cell_angle_gamma 114.416(4)
_cell_formula_units_Z 2
loop_
_atom_type_symbol
_atom_type_radius_bond
C 0.68
H 0.23
Mn 1.49
O 0.68
loop_
_atom_site_label
_atom_site_type_symbol
_atom_site_fract_x
_atom_site_fract_y
_atom_site_fract_z
Mn1 Mn 0.96283(14) 0.66819(12) 0.35895(4)
O1 O 1.1723(7) 0.5464(7) 0.1930(2)
O2 O 0.0242(7) -0.2584(7) 0.0364(3)
H1 H -0.06220 -0.37480 0.01430
O3 O 0.2972(8) -0.3884(6) 0.0328(2)
C1 C 0.9382(9) 0.6842(9) 0.2422(3)
C2 C 0.7276(10) 0.6863(9) 0.2654(3)
H2 H 0.56540 0.58130 0.24880
C3 C 0.3718(9) 0.1304(9) 0.0979(3)
H3 H 0.22360 0.12400 0.07970
C4 C 0.8148(10) 0.1507(9) 0.1511(3)
H4 H 0.96340 0.15710 0.16880
C5 C 0.972(1) 0.5218(9) 0.1982(3)
C6 C 0.2342(10) -0.2429(9) 0.0501(3)
C7 C 0.7700(9) 0.3259(8) 0.1615(3)
C8 C 0.7572(10) 0.4056(9) 0.3672(4)
C9 C 1.130(1) 0.8692(8) 0.2780(3)
H5 H 1.29520 0.91300 0.27170
C10 C 0.6415(10) -0.0350(9) 0.1144(3)
H6 H 0.67320 -0.15290 0.10690
O4 O 0.6223(10) 0.2400(8) 0.3714(4)
C11 C 0.7959(11) 0.8655(9) 0.3148(3)
H7 H 0.69020 0.90790 0.33910
C12 C 0.4190(9) -0.0440(8) 0.0889(3)
C13 C 1.2053(12) 0.5980(11) 0.3824(4)
O5 O 1.3571(10) 0.5481(11) 0.3940(4)
O6 O 0.9721(15) 0.7843(10) 0.5147(3)
C14 C 1.0493(11) 0.9806(9) 0.3221(3)
H8 H 1.14600 1.11510 0.35200
C15 C 0.5484(9) 0.3170(9) 0.1347(3)
H9 H 0.51810 0.43610 0.14130
C16 C 0.9700(15) 0.7416(10) 0.4533(4)
#END
