
#######################################################################
#
#                 Cambridge Crystallographic Data Centre
#                                CCDC
#
#######################################################################
#
# If this CIF has been generated from an entry in the Cambridge
# Structural Database, then it will include bibliographic, chemical,
# crystal, experimental, refinement or atomic coordinate data resulting
# from the CCDC's data processing and validation procedures.
#
#######################################################################

data_CSD_CIF_FUTKUA
_audit_creation_date 1988-08-15
_audit_creation_method CSD-ConQuest-V1
_database_code_CSD FUTKUA
_chemical_formula_sum 'C22 H28 Co1 N2 O10'
_chemical_formula_moiety
;
C22 H28 Co1 N2 O10
;
_journal_coden_Cambridge 580
_journal_volume 6
_journal_year 1987
_journal_page_first 1235
_journal_name_full 'Polyhedron '
loop_
_publ_author_name
"J.Casabo"
"J.Marquet"
"M.Moreno-Manas"
"M.Prior"
"F.Teixidor"
_chemical_name_systematic
;
bis(3-Acetyl-4-hydroxy-6-methyl-2-pyrone-O,O')-bis(dimethylformamide)-cobalt(i
ii)
;
_cell_volume    597.860
_exptl_crystal_colour 'pink-purple'
_diffrn_ambient_temperature ?
_diffrn_special_details
;
The study was carried out at room temperature,in the range 283-303K

;
#These two values have been output from a single CSD field.
_refine_ls_R_factor_gt 0.049
_refine_ls_wR_factor_gt 0.049
_symmetry_cell_setting triclinic
_symmetry_space_group_name_H-M 'P -1'
_symmetry_Int_Tables_number 2
loop_
_symmetry_equiv_pos_site_id
_symmetry_equiv_pos_as_xyz
1 x,y,z
2 -x,-y,-z
_cell_length_a 8.290(1)
_cell_length_b 9.570(2)
_cell_length_c 7.731(1)
_cell_angle_alpha 94.16(2)
_cell_angle_beta 101.52(2)
_cell_angle_gamma 85.15(2)
_cell_formula_units_Z 1
loop_
_atom_type_symbol
_atom_type_radius_bond
C 0.68
H 0.23
Co 1.33
N 0.68
O 0.68
loop_
_atom_site_label
_atom_site_type_symbol
_atom_site_fract_x
_atom_site_fract_y
_atom_site_fract_z
Co1 Co 0.00000 0.00000 0.00000
O1 O 0.0240(2) 0.0949(2) -0.2186(3)
O2 O -0.0666(3) 0.1928(2) 0.0921(2)
O3 O 0.2568(3) 0.0232(2) 0.1213(3)
O4 O -0.2652(3) 0.5451(2) -0.1525(3)
O5 O -0.2013(3) 0.4745(2) -0.4073(3)
N1 N 0.4577(3) 0.1308(3) 0.3125(3)
C1 C -0.1235(3) 0.2994(3) 0.0062(3)
C2 C -0.1977(4) 0.4156(3) 0.1006(4)
C3 C -0.2646(4) 0.5306(3) 0.0201(4)
C4 C -0.1909(4) 0.4424(3) -0.2566(4)
C5 C -0.1179(3) 0.3154(3) -0.1751(3)
C6 C -0.0345(3) 0.2108(3) -0.2764(3)
C7 C -0.3480(5) 0.6548(4) 0.1014(6)
C8 C -0.0060(5) 0.2345(4) -0.4571(5)
C9 C 0.3019(4) 0.1151(3) 0.2362(4)
C10 C 0.5911(5) 0.0406(5) 0.2612(6)
C11 C 0.5019(5) 0.2446(5) 0.4438(6)
H1 H -0.199(4) 0.406(3) 0.220(4)
H2 H -0.283(4) 0.738(4) 0.096(5)
H3 H -0.457(5) 0.673(4) 0.038(5)
H4 H -0.360(6) 0.639(5) 0.221(6)
H5 H -0.107(5) 0.249(4) -0.535(5)
H6 H 0.035(5) 0.325(4) -0.458(5)
H7 H 0.062(5) 0.159(4) -0.490(5)
H8 H 0.226(4) 0.184(3) 0.280(4)
H9 H 0.665(6) 0.010(5) 0.359(7)
H10 H 0.655(7) 0.086(6) 0.206(7)
H11 H 0.546(5) -0.035(4) 0.191(5)
H12 H 0.410(5) 0.303(4) 0.452(5)
H13 H 0.563(6) 0.310(5) 0.398(6)
H14 H 0.559(4) 0.205(4) 0.548(5)
O1A O -0.0240(2) -0.0949(2) 0.2186(3)
O2A O 0.0666(3) -0.1928(2) -0.0921(2)
O3A O -0.2568(3) -0.0232(2) -0.1213(3)
C6A C 0.0345(3) -0.2108(3) 0.2764(3)
C1A C 0.1235(3) -0.2994(3) -0.0062(3)
C9A C -0.3019(4) -0.1151(3) -0.2362(4)
C5A C 0.1179(3) -0.3154(3) 0.1751(3)
C8A C 0.0060(5) -0.2345(4) 0.4571(5)
C2A C 0.1977(4) -0.4156(3) -0.1006(4)
N1A N -0.4577(3) -0.1308(3) -0.3125(3)
H8A H -0.226(4) -0.184(3) -0.280(4)
C4A C 0.1909(4) -0.4424(3) 0.2566(4)
H5A H 0.107(5) -0.249(4) 0.535(5)
H6A H -0.035(5) -0.325(4) 0.458(5)
H7A H -0.062(5) -0.159(4) 0.490(5)
C3A C 0.2646(4) -0.5306(3) -0.0201(4)
H1A H 0.199(4) -0.406(3) -0.220(4)
C10A C -0.5911(5) -0.0406(5) -0.2612(6)
C11A C -0.5019(5) -0.2446(5) -0.4438(6)
O4A O 0.2652(3) -0.5451(2) 0.1525(3)
O5A O 0.2013(3) -0.4745(2) 0.4073(3)
C7A C 0.3480(5) -0.6548(4) -0.1014(6)
H9A H -0.665(6) -0.010(5) -0.359(7)
H10A H -0.655(7) -0.086(6) -0.206(7)
H11A H -0.546(5) 0.035(4) -0.191(5)
H12A H -0.410(5) -0.303(4) -0.452(5)
H13A H -0.563(6) -0.310(5) -0.398(6)
H14A H -0.559(4) -0.205(4) -0.548(5)
H2A H 0.283(4) -0.738(4) -0.096(5)
H3A H 0.457(5) -0.673(4) -0.038(5)
H4A H 0.360(6) -0.639(5) -0.221(6)
#END
