
#######################################################################
#
#                 Cambridge Crystallographic Data Centre
#                                CCDC
#
#######################################################################
#
# If this CIF has been generated from an entry in the Cambridge
# Structural Database, then it will include bibliographic, chemical,
# crystal, experimental, refinement or atomic coordinate data resulting
# from the CCDC's data processing and validation procedures.
#
#######################################################################

data_CSD_CIF_FUVJUD
_audit_creation_date 2015-09-11
_audit_creation_method CSD-ConQuest-V1
_database_code_CSD FUVJUD
_database_code_depnum_ccdc_archive 'CCDC 1423931'
_chemical_formula_sum 'C13 H28 Cr1 N4 O1'
_chemical_formula_moiety
;
C13 H28 Cr1 N4 O1
;
_journal_coden_Cambridge 9
_journal_volume 51
_journal_year 2012
_journal_page_first 1187
_journal_name_full 'Inorg.Chem. '
loop_
_publ_author_name
"S.A.DiFranco"
"N.A.Maciulis"
"R.J.Staples"
"R.J.Batrice"
"A.L.Odom"
_chemical_name_systematic
;
(Isocyanato)-bis(di-isopropylamide)-nitrido-chromium(vi)
;
_cell_volume    860.783
_exptl_crystal_colour 'orange'
_exptl_crystal_density_diffrn 1.19
_exptl_special_details
;
air-sensitive, moisture-sensitive, oxygen-sensitive

;
_exptl_crystal_description 'chunk'
_exptl_crystal_preparation 'cold pentane'
_diffrn_ambient_temperature 173
#These two values have been output from a single CSD field.
_refine_ls_R_factor_gt 0.05
_refine_ls_wR_factor_gt 0.05
_symmetry_cell_setting triclinic
_symmetry_space_group_name_H-M 'P -1'
_symmetry_Int_Tables_number 2
loop_
_symmetry_equiv_pos_site_id
_symmetry_equiv_pos_as_xyz
1 x,y,z
2 -x,-y,-z
_cell_length_a 7.3843(3)
_cell_length_b 8.9730(4)
_cell_length_c 14.0476(6)
_cell_angle_alpha 106.4
_cell_angle_beta 92.328(1)
_cell_angle_gamma 103.92
_cell_formula_units_Z 2
loop_
_atom_type_symbol
_atom_type_radius_bond
C 0.68
H 0.23
Cr 1.39
N 0.68
O 0.68
loop_
_atom_site_label
_atom_site_type_symbol
_atom_site_fract_x
_atom_site_fract_y
_atom_site_fract_z
Cr1 Cr 0.72237(6) 0.76774(5) 0.75457(3)
O1 O 0.4362(4) 1.0765(4) 0.9120(2)
N1 N 0.8024(3) 0.6483(3) 0.82337(19)
C1 C 1.0555(4) 0.9454(4) 0.7089(2)
H1 H 1.07210 0.94840 0.77900
C2 C 0.9716(4) 0.7337(4) 0.8968(2)
H2 H 1.00810 0.84470 0.89390
C3 C 0.8206(4) 0.8061(4) 0.5579(2)
H3 H 0.92590 0.87050 0.53440
N2 N 0.5400(3) 0.6552(3) 0.69035(19)
C4 C 0.8007(6) 0.6303(5) 0.5027(3)
H4 H 0.91500 0.60300 0.51630
H5 H 0.77570 0.61240 0.43220
H6 H 0.69870 0.56430 0.52470
C5 C 0.5268(6) 0.4569(5) 0.8537(4)
H7 H 0.53500 0.52880 0.91990
H8 H 0.47970 0.34780 0.85440
H9 H 0.44320 0.48030 0.80920
C6 C 1.2125(5) 0.8822(5) 0.6594(3)
H10 H 1.20060 0.77480 0.66240
H11 H 1.33160 0.95060 0.69370
H12 H 1.20440 0.88140 0.59090
C7 C 0.7217(5) 0.4790(4) 0.8182(3)
H13 H 0.80310 0.45140 0.86370
C8 C 0.6447(5) 0.8560(5) 0.5342(3)
H14 H 0.53900 0.79430 0.55630
H15 H 0.62210 0.83650 0.46340
H16 H 0.66230 0.96850 0.56790
C9 C 0.7166(7) 0.3683(5) 0.7143(4)
H17 H 0.62850 0.38610 0.66940
H18 H 0.67880 0.25840 0.71490
H19 H 0.83920 0.38990 0.69270
C10 C 1.1384(5) 0.6640(5) 0.8711(3)
H20 H 1.11090 0.55680 0.87650
H21 H 1.24740 0.73020 0.91650
H22 H 1.16210 0.66120 0.80400
C11 C 0.9252(5) 0.7428(5) 1.0030(2)
H23 H 0.82250 0.79100 1.01640
H24 H 1.03320 0.80680 1.04970
H25 H 0.89080 0.63620 1.00950
C12 C 1.0670(5) 1.1181(4) 0.7087(3)
H26 H 1.05070 1.12060 0.64110
H27 H 1.18750 1.18700 0.74060
H28 H 0.97000 1.15500 0.74430
N3 N 0.8651(3) 0.8398(3) 0.66664(17)
C13 C 0.5657(4) 1.0099(3) 0.87643(18)
N4 N 0.6596(4) 0.9533(4) 0.8490(2)
#END
