
#######################################################################
#
#                 Cambridge Crystallographic Data Centre
#                                CCDC
#
#######################################################################
#
# If this CIF has been generated from an entry in the Cambridge
# Structural Database, then it will include bibliographic, chemical,
# crystal, experimental, refinement or atomic coordinate data resulting
# from the CCDC's data processing and validation procedures.
#
#######################################################################

data_CSD_CIF_FUVKEO
_audit_creation_date 2015-09-11
_audit_creation_method CSD-ConQuest-V1
_database_code_CSD FUVKEO
_database_code_depnum_ccdc_archive 'CCDC 1423933'
_chemical_formula_sum 'C12 H28 Cr1 N4 O3'
_chemical_formula_moiety
;
C12 H28 Cr1 N4 O3
;
_journal_coden_Cambridge 9
_journal_volume 51
_journal_year 2012
_journal_page_first 1187
_journal_name_full 'Inorg.Chem. '
loop_
_publ_author_name
"S.A.DiFranco"
"N.A.Maciulis"
"R.J.Staples"
"R.J.Batrice"
"A.L.Odom"
_chemical_name_systematic
;
(Nitrato-O)-bis(di-isopropylamide)-nitrido-chromium(vi)
;
_cell_volume    901.142
_exptl_crystal_colour 'red'
_exptl_crystal_density_diffrn 1.21
_exptl_special_details
;
Absolute configuration
air-sensitive, moisture-sensitive, oxygen-sensitive

;
_exptl_crystal_description 'chunk'
_exptl_crystal_preparation 'cold pentane'
_diffrn_ambient_temperature 173
#These two values have been output from a single CSD field.
_refine_ls_R_factor_gt 0.0525
_refine_ls_wR_factor_gt 0.0525
_symmetry_cell_setting monoclinic
_symmetry_space_group_name_H-M 'P 21'
_symmetry_Int_Tables_number 4
loop_
_symmetry_equiv_pos_site_id
_symmetry_equiv_pos_as_xyz
1 x,y,z
2 -x,1/2+y,-z
_cell_length_a 7.7588(17)
_cell_length_b 13.720(3)
_cell_length_c 8.5521(19)
_cell_angle_alpha 90
_cell_angle_beta 98.168(3)
_cell_angle_gamma 90
_cell_formula_units_Z 2
loop_
_atom_type_symbol
_atom_type_radius_bond
C 0.68
H 0.23
Cr 1.39
N 0.68
O 0.68
loop_
_atom_site_label
_atom_site_type_symbol
_atom_site_fract_x
_atom_site_fract_y
_atom_site_fract_z
Cr1 Cr 0.85741(7) 0.74748(4) 0.85773(6)
N1 N 0.9127(4) 0.6248(2) 0.9231(4)
O1 O 0.7916(4) 0.8361(2) 1.0211(4)
O2 O 0.5937(5) 0.8611(3) 1.1691(4)
C1 C 0.7990(6) 0.4696(4) 0.7933(6)
H1 H 0.81480 0.49810 0.69130
H2 H 0.69780 0.42600 0.77920
H3 H 0.90330 0.43240 0.83530
N2 N 0.7332(4) 0.7677(3) 0.6640(4)
N3 N 0.6481(5) 0.8094(2) 1.0693(4)
N4 N 1.0345(4) 0.7921(2) 0.8438(4)
O3 O 0.5815(4) 0.7361(4) 1.0188(4)
C2 C 0.8634(10) 0.9126(5) 0.5538(7)
H4 H 0.77640 0.95270 0.59640
H5 H 0.88940 0.94130 0.45480
H6 H 0.97000 0.90990 0.63030
C3 C 0.5024(9) 0.6625(6) 0.5114(8)
H7 H 0.51270 0.69220 0.40890
H8 H 0.38270 0.63970 0.51170
H9 H 0.58260 0.60720 0.52970
C4 C 0.4308(7) 0.8291(6) 0.6148(8)
H10 H 0.46530 0.87660 0.69900
H11 H 0.30900 0.81040 0.61530
H12 H 0.44400 0.85830 0.51250
C5 C 0.9237(6) 0.7439(7) 0.4592(5)
H13 H 1.03210 0.74300 0.53360
H14 H 0.94730 0.76830 0.35670
H15 H 0.87650 0.67760 0.44660
C6 C 0.7924(7) 0.8100(4) 0.5223(5)
H16 H 0.68850 0.81480 0.43890
C7 C 0.5476(5) 0.7381(6) 0.6423(5)
H17 H 0.52440 0.70750 0.74340
C8 C 1.2044(6) 0.5888(4) 0.8475(7)
H18 H 1.14790 0.55480 0.75320
H19 H 1.31650 0.55780 0.88480
H20 H 1.22370 0.65720 0.82140
C9 C 1.1728(6) 0.6337(4) 1.1264(6)
H21 H 1.19010 0.70300 1.10570
H22 H 1.28550 0.60330 1.16350
H23 H 1.09620 0.62680 1.20750
C10 C 0.7427(7) 0.5113(4) 1.0688(6)
H24 H 0.85090 0.48110 1.11960
H25 H 0.64970 0.46240 1.05540
H26 H 0.71030 0.56470 1.13500
C11 C 1.0899(5) 0.5839(3) 0.9748(5)
H27 H 1.07500 0.51350 1.00000
C12 C 0.7696(6) 0.5509(3) 0.9089(5)
H28 H 0.65980 0.58520 0.86440
#END
