
#######################################################################
#
#                 Cambridge Crystallographic Data Centre
#                                CCDC
#
#######################################################################
#
# If this CIF has been generated from an entry in the Cambridge
# Structural Database, then it will include bibliographic, chemical,
# crystal, experimental, refinement or atomic coordinate data resulting
# from the CCDC's data processing and validation procedures.
#
#######################################################################

data_CSD_CIF_FUVPUI01
_audit_creation_date 2016-06-21
_audit_creation_method CSD-ConQuest-V1
_database_code_CSD FUVPUI01
_database_code_depnum_ccdc_archive 'CCDC 711783'
_chemical_formula_sum 'C17 H34 Cl2 Fe1 N1 P3'
_chemical_formula_moiety
;
C17 H34 Cl2 Fe1 N1 P3
;
_journal_coden_Cambridge 579
_journal_volume 28
_journal_year 2009
_journal_page_first 2206
_journal_name_full 'Organometallics '
loop_
_publ_author_name
"Yujie Shi"
"Min Li"
"Qingping Hu"
"Xiaoyan Li"
"Hongjian Sun"
_chemical_name_systematic
;
chloro-(3-chloro-2-((methylimino)methyl)phenyl)-tris(trimethylphosphine)-iron
;
_cell_volume   2256.474
_exptl_special_details
;
The cell doesn't agree with the data in the paper

;
_diffrn_ambient_temperature 423
#These two values have been output from a single CSD field.
_refine_ls_R_factor_gt 0.0562
_refine_ls_wR_factor_gt 0.0562
_symmetry_cell_setting monoclinic
_symmetry_space_group_name_H-M 'C c'
_symmetry_Int_Tables_number 9
loop_
_symmetry_equiv_pos_site_id
_symmetry_equiv_pos_as_xyz
1 x,y,z
2 x,-y,1/2+z
3 1/2+x,1/2+y,z
4 1/2+x,1/2-y,1/2+z
_cell_length_a 9.0280(18)
_cell_length_b 26.972(5)
_cell_length_c 9.3880(19)
_cell_angle_alpha 90
_cell_angle_beta 99.22(3)
_cell_angle_gamma 90
_cell_formula_units_Z 4
loop_
_atom_type_symbol
_atom_type_radius_bond
C 0.68
H 0.23
Cl 0.99
Fe 1.52
N 0.68
P 1.05
loop_
_atom_site_label
_atom_site_type_symbol
_atom_site_fract_x
_atom_site_fract_y
_atom_site_fract_z
Fe1 Fe 0.18777(7) 0.14652(2) 0.22263(6)
P1 P 0.04190(14) 0.10951(4) 0.03775(11)
P2 P 0.02733(17) 0.12718(4) 0.37505(12)
P3 P 0.35546(16) 0.17096(4) 0.08253(14)
Cl1 Cl 0.06528(15) 0.22618(4) 0.17530(13)
Cl2 Cl 0.65629(17) 0.07777(6) 0.62611(14)
N1 N 0.3165(7) 0.17728(15) 0.3898(5)
C1 C 0.2981(8) 0.22504(16) 0.4405(6)
C2 C 0.3110(7) 0.08930(16) 0.2885(5)
C3 C 0.4214(7) 0.09943(18) 0.4108(5)
C4 C 0.5230(7) 0.0632(2) 0.4729(6)
C5 C 0.5202(8) 0.0155(2) 0.4188(6)
C6 C 0.4143(8) 0.00476(19) 0.2993(7)
C7 C 0.3122(7) 0.03963(17) 0.2357(5)
C8 C 0.4177(8) 0.14972(19) 0.4641(6)
C9 C 0.1210(7) 0.08018(19) -0.1096(6)
H1 H 0.04100 0.06890 -0.18220
H2 H 0.18220 0.05250 -0.07260
H3 H 0.18120 0.10380 -0.15110
C10 C -0.0831(9) 0.0581(2) 0.0661(7)
H4 H -0.14570 0.06780 0.13480
H5 H -0.02430 0.02980 0.10200
H6 H -0.14480 0.04980 -0.02380
C11 C -0.0952(8) 0.1504(2) -0.0691(7)
H7 H -0.15280 0.13180 -0.14590
H8 H -0.04360 0.17690 -0.10890
H9 H -0.16110 0.16400 -0.00840
C12 C 0.0682(13) 0.1543(3) 0.5545(6)
H10 H 0.05800 0.18970 0.54750
H11 H 0.16900 0.14610 0.59740
H12 H -0.00070 0.14150 0.61330
C13 C 0.0129(12) 0.0626(2) 0.4299(8)
H13 H 0.11020 0.05080 0.47290
H14 H -0.02420 0.04280 0.34680
H15 H -0.05480 0.06030 0.49870
C14 C -0.1687(10) 0.1472(2) 0.3271(8)
H16 H -0.23210 0.12560 0.37200
H17 H -0.19780 0.14590 0.22420
H18 H -0.17880 0.18050 0.35990
C15 C 0.4802(8) 0.1244(2) 0.0234(8)
H19 H 0.55130 0.14050 -0.02700
H20 H 0.42200 0.10120 -0.03980
H21 H 0.53250 0.10730 0.10600
C16 C 0.2885(9) 0.2052(2) -0.0853(7)
H22 H 0.37260 0.21950 -0.12140
H23 H 0.22130 0.23110 -0.06600
H24 H 0.23670 0.18290 -0.15600
C17 C 0.4954(9) 0.2155(2) 0.1706(9)
H25 H 0.54710 0.20140 0.25860
H26 H 0.44580 0.24540 0.19170
H27 H 0.56620 0.22280 0.10730
H28 H 0.597(13) -0.008(3) 0.472(9)
H29 H 0.257(8) 0.021(2) 0.145(6)
H30 H 0.494(9) 0.160(2) 0.540(7)
H31 H 0.403(12) -0.031(3) 0.264(9)
#END
