
#######################################################################
#
#                 Cambridge Crystallographic Data Centre
#                                CCDC
#
#######################################################################
#
# If this CIF has been generated from an entry in the Cambridge
# Structural Database, then it will include bibliographic, chemical,
# crystal, experimental, refinement or atomic coordinate data resulting
# from the CCDC's data processing and validation procedures.
#
#######################################################################

data_CSD_CIF_GABMOL
_audit_creation_date 1988-09-05
_audit_creation_method CSD-ConQuest-V1
_database_code_CSD GABMOL
_chemical_formula_sum 'C17 H17 As1 Cr1 O5'
_chemical_formula_moiety
;
C17 H17 As1 Cr1 O5
;
_journal_coden_Cambridge 36
_journal_volume 336
_journal_year 1987
_journal_page_first 337
_journal_name_full 'J.Organomet.Chem. '
loop_
_publ_author_name
"L.-R.Frank"
"I.Jibril"
"L.Zsolnai"
"G.Huttner"
_chemical_name_systematic
;
(2,3-Dimethyl-but-2-enyl(phenyl)arsine-As)-pentacarbonyl-chromium
;
_chemical_melting_point 300.15
_cell_volume    914.814
_exptl_crystal_density_diffrn 1.55
_exptl_special_details
;
Melting point range 300.15-301.15K

;
_diffrn_ambient_temperature 243
#These two values have been output from a single CSD field.
_refine_ls_R_factor_gt 0.06
_refine_ls_wR_factor_gt 0.06
_symmetry_cell_setting triclinic
_symmetry_space_group_name_H-M 'P -1'
_symmetry_Int_Tables_number 2
loop_
_symmetry_equiv_pos_site_id
_symmetry_equiv_pos_as_xyz
1 x,y,z
2 -x,-y,-z
_cell_length_a 7.266(2)
_cell_length_b 7.774(5)
_cell_length_c 17.430(2)
_cell_angle_alpha 100.8(1)
_cell_angle_beta 92.5(1)
_cell_angle_gamma 71.1(1)
_cell_formula_units_Z 2
loop_
_atom_type_symbol
_atom_type_radius_bond
C 0.68
H 0.23
As 1.21
Cr 1.35
O 0.68
loop_
_atom_site_label
_atom_site_type_symbol
_atom_site_fract_x
_atom_site_fract_y
_atom_site_fract_z
Cr1 Cr 0.34012(19) 0.00468(17) 0.75889(7)
As1 As 0.11730(13) 0.32156(12) 0.77012(5)
C1 C 0.4224(13) 0.0521(12) 0.86189(55)
O1 O 0.4815(11) 0.0715(10) 0.92268(36)
C2 C 0.5446(14) 0.0722(13) 0.72466(55)
O2 O 0.6707(10) 0.1085(12) 0.70536(43)
C3 C 0.2700(13) -0.0612(12) 0.65461(55)
O3 O 0.2355(10) -0.11638(97) 0.59311(35)
C4 C 0.1259(13) -0.0452(12) 0.79456(51)
O4 O -0.00618(98) -0.0705(10) 0.81538(42)
C5 C 0.4928(13) -0.2323(12) 0.75362(51)
O5 O 0.5897(10) -0.38439(92) 0.75109(42)
C6 C 0.1055(12) 0.4686(11) 0.68908(47)
H1 H 0.2216(12) 0.5026(11) 0.69103(47)
H2 H -0.0057(12) 0.5782(11) 0.69940(47)
C7 C 0.0901(12) 0.3655(11) 0.60877(49)
C8 C 0.2316(12) 0.3149(12) 0.55625(51)
C9 C 0.4182(13) 0.3547(13) 0.56908(57)
H3 H 0.4982(13) 0.3042(13) 0.52266(57)
H4 H 0.4844(13) 0.2997(13) 0.61172(57)
H5 H 0.3925(13) 0.4861(13) 0.58133(57)
C10 C -0.0958(13) 0.3247(12) 0.59276(54)
H6 H -0.1791(13) 0.3734(12) 0.63832(54)
H7 H -0.0685(13) 0.1932(12) 0.57972(54)
H8 H -0.1594(13) 0.3804(12) 0.54985(54)
C11 C 0.2111(14) 0.2086(13) 0.47565(55)
H9 H 0.3264(14) 0.1826(13) 0.44485(55)
H10 H 0.1008(14) 0.2812(13) 0.45051(55)
H11 H 0.1924(14) 0.0944(13) 0.48072(55)
C12 C 0.1341(11) 0.4975(11) 0.86165(47)
C13 C 0.3063(13) 0.5215(12) 0.88231(54)
H12 H 0.4208(13) 0.4471(12) 0.85177(54)
C14 C 0.3191(16) 0.6509(14) 0.94646(61)
H13 H 0.4417(16) 0.6691(14) 0.96030(61)
C15 C 0.1598(15) 0.7501(15) 0.98906(66)
H14 H 0.1705(15) 0.8383(15) 1.03418(66)
C16 C -0.0086(16) 0.7316(15) 0.97148(65)
H15 H -0.1193(16) 0.8068(15) 1.00403(65)
C17 C -0.0326(14) 0.6019(13) 0.90508(56)
H16 H -0.1568(14) 0.5876(13) 0.89113(56)
H17 H 0.30280 0.31530 0.76290
#END
