
#######################################################################
#
#                 Cambridge Crystallographic Data Centre
#                                CCDC
#
#######################################################################
#
# If this CIF has been generated from an entry in the Cambridge
# Structural Database, then it will include bibliographic, chemical,
# crystal, experimental, refinement or atomic coordinate data resulting
# from the CCDC's data processing and validation procedures.
#
#######################################################################

data_CSD_CIF_GABNUT
_audit_creation_date 2003-08-07
_audit_creation_method CSD-ConQuest-V1
_database_code_CSD GABNUT
_database_code_depnum_ccdc_archive 'CCDC 209779'
_chemical_formula_sum 'C14 H12 Cr1 O3 P1 S1'
_chemical_formula_moiety
;
C14 H12 Cr1 O3 P1 S1
;
_journal_coden_Cambridge 579
_journal_volume 22
_journal_year 2003
_journal_page_first 1645
_journal_name_full 'Organometallics '
loop_
_publ_author_name
"Zhiqiang Weng"
"Weng Kee Leong"
"J.J.Vittal"
"Lai Yoong Goh"
_chemical_name_systematic
;
(4-Methoxyphenylphosphinothioylidene-P,S)-dicarbonyl-(\h^5^-cyclopentadienyl)-
chromium
;
_cell_volume    737.209
_exptl_crystal_colour 'wine red'
_exptl_crystal_density_diffrn 1.546
_exptl_crystal_description 'rhombus'
_diffrn_ambient_temperature 293
#These two values have been output from a single CSD field.
_refine_ls_R_factor_gt 0.045
_refine_ls_wR_factor_gt 0.045
_symmetry_cell_setting triclinic
_symmetry_space_group_name_H-M 'P -1'
_symmetry_Int_Tables_number 2
loop_
_symmetry_equiv_pos_site_id
_symmetry_equiv_pos_as_xyz
1 x,y,z
2 -x,-y,-z
_cell_length_a 8.0873(1)
_cell_length_b 9.3009(2)
_cell_length_c 10.6840(3)
_cell_angle_alpha 79.108(1)
_cell_angle_beta 82.622(1)
_cell_angle_gamma 69.439(1)
_cell_formula_units_Z 2
loop_
_atom_type_symbol
_atom_type_radius_bond
C 0.68
H 0.23
Cr 1.35
O 0.68
P 1.05
S 1.02
loop_
_atom_site_label
_atom_site_type_symbol
_atom_site_fract_x
_atom_site_fract_y
_atom_site_fract_z
Cr1 Cr 0.35314(5) 0.21976(5) 0.19120(4)
S1 S 0.65161(10) 0.21648(11) 0.08889(8)
P1 P 0.52476(10) 0.35653(9) 0.21832(7)
C1 C 0.4656(5) 0.0068(4) 0.2176(3)
O1 O 0.5328(4) -0.1259(3) 0.2365(3)
C2 C 0.3243(4) 0.1834(3) 0.3656(3)
O2 O 0.3011(4) 0.1602(3) 0.4753(2)
C3 C 0.0826(4) 0.2369(5) 0.1722(3)
H1 H 0.0244(4) 0.1788(5) 0.2291(3)
C4 C 0.0862(4) 0.3837(4) 0.1837(3)
H2 H 0.0322(4) 0.4395(4) 0.2501(3)
C5 C 0.1865(4) 0.4309(4) 0.0764(3)
H3 H 0.2099(4) 0.5240(4) 0.0594(3)
C6 C 0.2449(5) 0.3135(4) -0.0001(3)
H4 H 0.3132(5) 0.3156(4) -0.0770(3)
C7 C 0.1832(5) 0.1931(4) 0.0584(4)
H5 H 0.2043(5) 0.1004(4) 0.0281(4)
C8 C 0.6471(4) 0.3423(3) 0.3516(3)
C9 C 0.7122(4) 0.2028(3) 0.4326(3)
H6 H 0.6936(4) 0.1150(3) 0.4167(3)
C10 C 0.8043(4) 0.1914(4) 0.5364(3)
H7 H 0.8475(4) 0.0967(4) 0.5894(3)
C11 C 0.8320(4) 0.3214(4) 0.5610(3)
C12 C 0.7683(4) 0.4626(4) 0.4806(3)
H8 H 0.7880(4) 0.5499(4) 0.4967(3)
C13 C 0.6762(4) 0.4733(3) 0.3776(3)
H9 H 0.6330(4) 0.5682(3) 0.3248(3)
O3 O 0.9174(4) 0.3257(3) 0.6612(3)
C14 C 0.9848(7) 0.1864(5) 0.7488(4)
H10 H 1.0460(42) 0.2052(12) 0.8120(21)
H11 H 1.0653(37) 0.1067(14) 0.7036(7)
H12 H 0.8886(8) 0.1534(24) 0.7899(26)
#END
