
#######################################################################
#
#                 Cambridge Crystallographic Data Centre
#                                CCDC
#
#######################################################################
#
# If this CIF has been generated from an entry in the Cambridge
# Structural Database, then it will include bibliographic, chemical,
# crystal, experimental, refinement or atomic coordinate data resulting
# from the CCDC's data processing and validation procedures.
#
#######################################################################

data_CSD_CIF_GADXUE
_audit_creation_date 1988-10-10
_audit_creation_method CSD-ConQuest-V1
_database_code_CSD GADXUE
_chemical_formula_sum 'C9.5 H21 Co1 N4 O8.5'
_chemical_formula_moiety
;
C9 H11 Co1 N3 O6 1-,H4 N1 1+,2(H2 O1),0.5(C1 H4 O1)
;
_journal_coden_Cambridge 155
_journal_volume 142
_journal_year 1988
_journal_page_first 135
_journal_name_full 'Inorg.Chim.Acta '
loop_
_publ_author_name
"C.Maricondi"
"S.Utsuno"
"D.J.Radanovic"
"S.R.Trifunovic"
"J.E.Abola"
"B.Douglas"
_chemical_name_systematic
;
Ammonium 
cis-eq-(ethylenediamine-N,N'-triacetate-N,N',O,O',O'')-cyano-cobalt(iii) 
methanol solvate dihydrate
;
_cell_volume    755.639
_exptl_crystal_colour 'deep red'
_exptl_crystal_density_diffrn 1.47
_exptl_special_details
;
dx published as 1.47; we calculate 1.70

;
_diffrn_ambient_temperature ?
_diffrn_special_details
;
The study was carried out at room temperature,in the range 283-303K

;
_refine_special_details
;
The solvent and water molecules are disordered and were refined assuming half 
occupancy for each atom. Coords. of disordered molecules discarded.
;
#These two values have been output from a single CSD field.
_refine_ls_R_factor_gt 0.033
_refine_ls_wR_factor_gt 0.033
_symmetry_cell_setting triclinic
_symmetry_space_group_name_H-M 'P -1'
_symmetry_Int_Tables_number 2
loop_
_symmetry_equiv_pos_site_id
_symmetry_equiv_pos_as_xyz
1 x,y,z
2 -x,-y,-z
_cell_length_a 6.597(2)
_cell_length_b 7.783(4)
_cell_length_c 15.72(1)
_cell_angle_alpha 88.63(5)
_cell_angle_beta 85.55(5)
_cell_angle_gamma 69.89(4)
_cell_formula_units_Z 2
loop_
_atom_type_symbol
_atom_type_radius_bond
C 0.68
H 0.23
Co 1.33
N 0.68
O 0.68
loop_
_atom_site_label
_atom_site_type_symbol
_atom_site_fract_x
_atom_site_fract_y
_atom_site_fract_z
Co1 Co 0.4545(1) 0.4208(1) 0.2696(1)
C1 C 0.1868(4) 0.6003(3) 0.3115(1)
N1 N 0.0285(3) 0.7058(3) 0.3377(1)
N2 N 0.5485(3) 0.5962(3) 0.2042(1)
C2 C 0.7844(4) 0.5047(4) 0.1760(2)
C3 C 0.8229(4) 0.3070(4) 0.1576(2)
N3 N 0.7333(3) 0.2314(3) 0.2339(1)
C4 C 0.8742(4) 0.2001(3) 0.3063(2)
C5 C 0.7743(4) 0.3406(3) 0.3773(2)
O1 O 0.8760(3) 0.3403(2) 0.4392(1)
O2 O 0.5844(3) 0.4556(2) 0.3673(1)
O3 O 0.3876(3) 0.2177(2) 0.3202(1)
C6 C 0.4920(4) 0.0662(3) 0.2818(2)
O4 O 0.4480(3) -0.0744(2) 0.2942(2)
C7 C 0.6782(4) 0.0661(3) 0.2179(2)
O5 O 0.3318(3) 0.3860(2) 0.1688(1)
C8 C 0.3168(4) 0.5096(4) 0.1110(2)
O6 O 0.2372(4) 0.5102(4) 0.0435(1)
C9 C 0.4058(5) 0.6578(4) 0.1333(2)
O7 O 0.2717(4) 0.9204(3) 0.4630(2)
H1 H 0.2535(59) 0.8452(53) 0.4720(25)
H2 H 0.2717(50) 0.9267(45) 0.4169(21)
N4 N 0.2860(3) 0.2863(3) 0.5070(1)
H3 H 0.2639(45) 0.4029(14) 0.5098(18)
H4 H 0.2016(37) 0.2599(39) 0.5465(13)
H5 H 0.4209(19) 0.2258(34) 0.5164(18)
H6 H 0.2611(44) 0.2581(38) 0.4571(9)
H7 H 0.5337(41) 0.6944(36) 0.2386(17)
H8 H 0.8634(37) 0.5097(33) 0.2192(15)
H9 H 0.8399(48) 0.5587(43) 0.1248(20)
H10 H 0.7260(38) 0.3081(33) 0.1105(16)
H11 H 0.9608(43) 0.2450(37) 0.1549(17)
H12 H 0.9037(38) 0.0744(34) 0.3316(16)
H13 H 1.0108(42) 0.2092(37) 0.2833(17)
H14 H 0.8069(37) -0.0378(34) 0.2312(16)
H15 H 0.6356(40) 0.0812(36) 0.1631(16)
H16 H 0.2794(50) 0.7550(44) 0.1514(21)
H17 H 0.4955(47) 0.6738(40) 0.0844(18)
#END
