
#######################################################################
#
#                 Cambridge Crystallographic Data Centre
#                                CCDC
#
#######################################################################
#
# If this CIF has been generated from an entry in the Cambridge
# Structural Database, then it will include bibliographic, chemical,
# crystal, experimental, refinement or atomic coordinate data resulting
# from the CCDC's data processing and validation procedures.
#
#######################################################################

data_CSD_CIF_GAGVOB
_audit_creation_date 2011-02-21
_audit_creation_method CSD-ConQuest-V1
_database_code_CSD GAGVOB
_database_code_depnum_ccdc_archive 'CCDC 715017'
_chemical_formula_sum 'C10 H19 Co1 N3 O9 S1'
_chemical_formula_moiety
;
C10 H15 Co1 N3 O7 S1,2(H2 O1)
;
_journal_coden_Cambridge 155
_journal_volume 363
_journal_year 2010
_journal_page_first 3399
_journal_name_full 'Inorg.Chim.Acta '
loop_
_publ_author_name
"Na Wang"
"Qiu-Yue Lin"
"Jie Feng"
"Yu-Ling Zhao"
"Yan-Jun Wang"
"Shi-Kun Li"
_chemical_name_systematic
;
Diaqua-(7-oxabicyclo[2.2.1]heptane-2,3-dicarboxylato)-(1,3,4-thiadiazol-2-amin
e)-cobalt(ii) dihydrate
;
_cell_volume    757.453
_exptl_crystal_density_diffrn 1.825
_exptl_special_details
;
tested for DNA-binding activity and for antiproliferative activity against 
human hepatoma cells (SMMC7721) and human breast cells (MCF-7) in vitro
;
_diffrn_ambient_temperature 296
#These two values have been output from a single CSD field.
_refine_ls_R_factor_gt 0.0334
_refine_ls_wR_factor_gt 0.0334
_symmetry_cell_setting monoclinic
_symmetry_space_group_name_H-M 'P 21/m'
_symmetry_Int_Tables_number 11
loop_
_symmetry_equiv_pos_site_id
_symmetry_equiv_pos_as_xyz
1 x,y,z
2 -x,1/2+y,-z
3 -x,-y,-z
4 x,-1/2-y,z
_cell_length_a 6.3614(1)
_cell_length_b 9.5990(2)
_cell_length_c 12.4686(2)
_cell_angle_alpha 90
_cell_angle_beta 95.815(1)
_cell_angle_gamma 90
_cell_formula_units_Z 2
loop_
_atom_type_symbol
_atom_type_radius_bond
C 0.68
H 0.23
Co 1.26
N 0.68
O 0.68
S 1.02
loop_
_atom_site_label
_atom_site_type_symbol
_atom_site_fract_x
_atom_site_fract_y
_atom_site_fract_z
Co1 Co -0.03341(6) 0.75000 0.07483(3)
S1 S 0.14727(15) 0.75000 -0.27506(7)
N1 N -0.1668(5) 0.75000 -0.1632(2)
N2 N 0.0102(4) 0.75000 -0.0895(2)
N3 N 0.3794(4) 0.75000 -0.0840(3)
H1 H 0.39470 0.75000 -0.01470
H2 H 0.48870 0.75000 -0.11940
O1 O -0.0983(3) 0.75000 0.23984(17)
O2 O -0.2533(3) 0.59209(18) 0.05151(13)
H3 H -0.328(4) 0.567(3) 0.0978(17)
H4 H -0.257(5) 0.533(3) 0.0036(17)
O3 O 0.2129(2) 0.89438(17) 0.11104(12)
O4 O 0.5235(4) 0.1016(3) 0.42369(16)
H5 H 0.568(6) 0.079(4) 0.367(2)
H6 H 0.523(6) 0.1857(19) 0.427(2)
O5 O 0.4960(2) 0.96454(17) 0.21626(12)
C1 C -0.0589(4) 0.8302(3) 0.41699(18)
H7 H -0.19750 0.86710 0.42700
H8 H 0.04390 0.86710 0.47260
C2 C 0.0027(3) 0.8626(2) 0.30439(17)
H9 H -0.04050 0.95570 0.27840
C3 C 0.2391(3) 0.8321(2) 0.29872(16)
H10 H 0.31940 0.86560 0.36500
C4 C 0.3238(3) 0.9021(2) 0.20177(16)
C5 C -0.1196(6) 0.75000 -0.2617(3)
H11 H -0.22160 0.75000 -0.32070
C6 C 0.1886(5) 0.75000 -0.1360(3)
O2C O -0.2533(3) 0.90791(18) 0.05151(13)
H3C H -0.328(4) 0.933(3) 0.0978(17)
H4C H -0.257(5) 0.967(3) 0.0036(17)
O3C O 0.2129(2) 0.60562(17) 0.11104(12)
O5C O 0.4960(2) 0.53546(17) 0.21626(12)
C1C C -0.0589(4) 0.6698(3) 0.41699(18)
H7C H -0.19750 0.63290 0.42700
H8C H 0.04390 0.63290 0.47260
C2C C 0.0027(3) 0.6374(2) 0.30439(17)
H9C H -0.04050 0.54430 0.27840
C3C C 0.2391(3) 0.6679(2) 0.29872(16)
H10C H 0.31940 0.63440 0.36500
C4C C 0.3238(3) 0.5979(2) 0.20177(16)
#END
