
#######################################################################
#
#                 Cambridge Crystallographic Data Centre
#                                CCDC
#
#######################################################################
#
# If this CIF has been generated from an entry in the Cambridge
# Structural Database, then it will include bibliographic, chemical,
# crystal, experimental, refinement or atomic coordinate data resulting
# from the CCDC's data processing and validation procedures.
#
#######################################################################

data_CSD_CIF_GAGVOA
_audit_creation_date 2005-02-28
_audit_creation_method CSD-ConQuest-V1
_database_code_CSD GAGVOA
_database_code_depnum_ccdc_archive 'CCDC 247651'
_chemical_formula_sum 'C12 H36 Cr1 I2 N2 Si4'
_chemical_formula_moiety
;
C12 H36 Cr1 I2 N2 Si4
;
_journal_coden_Cambridge 222
_journal_year 2004
_journal_page_first 3431
_journal_name_full 'Dalton Trans. '
loop_
_publ_author_name
"K.H.D.Ballem"
"V.Shetty"
"N.Etkin"
"B.O.Patrick"
"K.M.Smith"
_chemical_name_systematic
;
bis(Iodo)-bis(bis(trimethylsilyl)amido)-chromium(iv)
;
_cell_volume   2519.173
_exptl_crystal_colour 'black'
_exptl_crystal_density_diffrn 1.652
_diffrn_ambient_temperature 173
#These two values have been output from a single CSD field.
_refine_ls_R_factor_gt 0.0193
_refine_ls_wR_factor_gt 0.0193
_symmetry_cell_setting monoclinic
_symmetry_space_group_name_H-M 'C 2/c'
_symmetry_Int_Tables_number 15
loop_
_symmetry_equiv_pos_site_id
_symmetry_equiv_pos_as_xyz
1 x,y,z
2 1/2+x,1/2+y,z
3 x,-y,1/2+z
4 1/2+x,1/2-y,1/2+z
5 -x,-y,-z
6 -1/2-x,-1/2-y,-z
7 -x,y,-1/2-z
8 -1/2-x,-1/2+y,-1/2-z
_cell_length_a 16.9513(9)
_cell_length_b 8.7479(3)
_cell_length_c 18.2601(9)
_cell_angle_alpha 90
_cell_angle_beta 111.51(1)
_cell_angle_gamma 90
_cell_formula_units_Z 4
loop_
_atom_type_symbol
_atom_type_radius_bond
C 0.68
H 0.23
Cr 1.35
I 1.40
N 0.68
Si 1.20
loop_
_atom_site_label
_atom_site_type_symbol
_atom_site_fract_x
_atom_site_fract_y
_atom_site_fract_z
C1 C 0.72986(13) 0.4325(3) 0.25194(13)
H1 H 0.69090 0.37220 0.20840
H2 H 0.78750 0.39190 0.26650
H3 H 0.72880 0.53930 0.23540
C2 C 0.70701(14) 0.2227(2) 0.37862(14)
H4 H 0.68990 0.22090 0.42440
H5 H 0.76620 0.18950 0.39450
H6 H 0.67060 0.15360 0.33800
C3 C 0.77687(13) 0.5409(3) 0.41512(15)
H7 H 0.77690 0.64440 0.39460
H8 H 0.83320 0.49530 0.42840
H9 H 0.76260 0.54560 0.46240
C4 C 0.61043(14) 0.5581(3) 0.48437(12)
H10 H 0.58860 0.45510 0.48640
H11 H 0.59150 0.62730 0.51690
H12 H 0.67250 0.55560 0.50440
C5 C 0.61743(16) 0.8141(2) 0.36796(15)
H13 H 0.67760 0.79920 0.37730
H14 H 0.61170 0.88830 0.40590
H15 H 0.58810 0.85250 0.31440
C6 C 0.45383(13) 0.6633(3) 0.35495(13)
H16 H 0.42840 0.69890 0.30040
H17 H 0.44630 0.74140 0.39030
H18 H 0.42620 0.56830 0.36100
N1 N 0.58953(9) 0.48786(16) 0.31734(8)
Si1 Si 0.69630(3) 0.42111(6) 0.33851(3)
Si2 Si 0.56949(3) 0.62773(6) 0.38008(3)
Cr1 Cr 0.50000 0.37808(4) 0.25000
I1 I 0.534207(8) 0.188577(15) 0.158902(8)
N1F N 0.41047(9) 0.48786(16) 0.18266(8)
Si1F Si 0.30370(3) 0.42111(6) 0.16149(3)
C1F C 0.27014(13) 0.4325(3) 0.24806(13)
H1F H 0.30910 0.37220 0.29160
H2F H 0.21250 0.39190 0.23350
H3F H 0.27120 0.53930 0.26460
C2F C 0.29299(14) 0.2227(2) 0.12138(14)
H4F H 0.31010 0.22090 0.07560
H5F H 0.23380 0.18950 0.10550
H6F H 0.32940 0.15360 0.16200
C3F C 0.22313(13) 0.5409(3) 0.08488(15)
H7F H 0.22310 0.64440 0.10540
H8F H 0.16680 0.49530 0.07160
H9F H 0.23740 0.54560 0.03760
Si2F Si 0.43051(3) 0.62773(6) 0.11992(3)
C4F C 0.38957(14) 0.5581(3) 0.01563(12)
H10F H 0.41140 0.45510 0.01360
H11F H 0.40850 0.62730 -0.01690
H12F H 0.32750 0.55560 -0.00440
C5F C 0.38257(16) 0.8141(2) 0.13204(15)
H13F H 0.32240 0.79920 0.12270
H14F H 0.38830 0.88830 0.09410
H15F H 0.41190 0.85250 0.18560
C6F C 0.54617(13) 0.6633(3) 0.14505(13)
H16F H 0.57160 0.69890 0.19960
H17F H 0.55370 0.74140 0.10970
H18F H 0.57380 0.56830 0.13900
I1F I 0.465793(8) 0.188577(15) 0.341098(8)
#END
