
#######################################################################
#
#                 Cambridge Crystallographic Data Centre
#                                CCDC
#
#######################################################################
#
# If this CIF has been generated from an entry in the Cambridge
# Structural Database, then it will include bibliographic, chemical,
# crystal, experimental, refinement or atomic coordinate data resulting
# from the CCDC's data processing and validation procedures.
#
#######################################################################

data_CSD_CIF_GAKBEC
_audit_creation_date 2016-01-28
_audit_creation_method CSD-ConQuest-V1
_database_code_CSD GAKBEC
_database_code_depnum_ccdc_archive 'CCDC 1450618'
_chemical_formula_sum 'C17 H16 Fe1 N2 O4'
_chemical_formula_moiety
;
C17 H16 Fe1 N2 O4
;
_journal_coden_Cambridge 1078
_journal_year 2016
_journal_name_full 'CSD Communication(Private Communication) '
loop_
_publ_author_name
"J.A.Denny"
"Marcetta Y.Darensbourg"
_chemical_name_systematic
;
tetracarbonyl-(1-mesityl-3-methylimidazol-2-ylidene)-iron
;
_cell_volume    870.578
_exptl_crystal_colour 'red'
_exptl_crystal_density_diffrn 1.405
_exptl_special_details
;
Department of Chemistry, Texas A&M University, PO Box 30012, College Station, 
TX 77842-3012
;
_exptl_crystal_description 'block'
_diffrn_ambient_temperature 150
#These two values have been output from a single CSD field.
_refine_ls_R_factor_gt 0.0317
_refine_ls_wR_factor_gt 0.0317
_symmetry_cell_setting triclinic
_symmetry_space_group_name_H-M 'P -1'
_symmetry_Int_Tables_number 2
loop_
_symmetry_equiv_pos_site_id
_symmetry_equiv_pos_as_xyz
1 x,y,z
2 -x,-y,-z
_cell_length_a 6.765(6)
_cell_length_b 8.930(7)
_cell_length_c 14.891(12)
_cell_angle_alpha 99.749(10)
_cell_angle_beta 93.925(11)
_cell_angle_gamma 99.339(10)
_cell_formula_units_Z 2
loop_
_atom_type_symbol
_atom_type_radius_bond
C 0.68
H 0.23
Fe 1.52
N 0.68
O 0.68
loop_
_atom_site_label
_atom_site_type_symbol
_atom_site_fract_x
_atom_site_fract_y
_atom_site_fract_z
Fe1 Fe 0.30168(3) 0.05776(3) 0.312265(16)
O1 O 0.0334(2) -0.22535(15) 0.32997(11)
O2 O 0.1663(2) 0.00166(16) 0.11424(9)
O3 O 0.6497(2) -0.08714(19) 0.35266(12)
O4 O 0.0593(2) 0.23733(19) 0.43029(12)
N1 N 0.6091(2) 0.32814(17) 0.41035(10)
C1 C 0.1365(3) -0.1146(2) 0.32088(12)
C2 C 0.4993(2) 0.25502(19) 0.33010(11)
C3 C 0.6092(3) 0.2742(2) 0.49798(13)
H1 H 0.47080 0.23420 0.50850
H2 H 0.66740 0.36030 0.54750
H3 H 0.68960 0.19200 0.49650
C4 C 0.7301(3) 0.4636(2) 0.39956(13)
H4 H 0.81950 0.53350 0.44560
C5 C 0.6969(3) 0.4772(2) 0.31171(13)
H5 H 0.75790 0.55860 0.28370
N2 N 0.5554(2) 0.34846(15) 0.26951(10)
C6 C 0.4822(2) 0.32655(19) 0.17397(11)
C7 C 0.3222(3) 0.3981(2) 0.15019(13)
C8 C 0.2591(3) 0.3816(2) 0.05793(14)
H6 H 0.14900 0.42800 0.04050
C9 C 0.3517(3) 0.2994(2) -0.01005(13)
C10 C 0.5113(3) 0.2311(2) 0.01666(13)
H7 H 0.57530 0.17430 -0.02910
C11 C 0.5805(3) 0.24319(19) 0.10851(12)
C12 C 0.7519(3) 0.1662(2) 0.13555(14)
H8 H 0.70250 0.08450 0.16910
H9 H 0.85660 0.24270 0.17470
H10 H 0.80820 0.12120 0.08040
C13 C 0.2805(4) 0.2868(3) -0.10992(14)
H11 H 0.37300 0.23760 -0.14810
H12 H 0.27720 0.39020 -0.12330
H13 H 0.14510 0.22440 -0.12320
C14 C 0.2255(3) 0.4925(3) 0.22275(15)
H14 H 0.11580 0.53260 0.19380
H15 H 0.32620 0.57880 0.25630
H16 H 0.17180 0.42740 0.26530
C15 C 0.2280(3) 0.0348(2) 0.19009(13)
C16 C 0.5139(3) -0.0305(2) 0.33724(14)
C17 C 0.1544(3) 0.1655(2) 0.38426(14)
#END
