
#######################################################################
#
#                 Cambridge Crystallographic Data Centre
#                                CCDC
#
#######################################################################
#
# If this CIF has been generated from an entry in the Cambridge
# Structural Database, then it will include bibliographic, chemical,
# crystal, experimental, refinement or atomic coordinate data resulting
# from the CCDC's data processing and validation procedures.
#
#######################################################################

data_CSD_CIF_GAPZEC
_audit_creation_date 1988-10-10
_audit_creation_method CSD-ConQuest-V1
_database_code_CSD GAPZEC
_chemical_formula_sum 'C6 H22 Cl1 Co1 N4 O4'
_chemical_formula_moiety
;
C6 H18 Co1 N4 O2 1+,Cl1 1-,2(H2 O1)
;
_journal_coden_Cambridge 274
_journal_volume 14
_journal_year 1987
_journal_page_first 55
_journal_name_full 'Finn.Chem.Lett. '
loop_
_publ_author_name
"R.Kivekas"
"A.Pajunen"
_chemical_name_systematic
;
trans-bis(1,3-Diamino-2-propanolato-O,N,N')-cobalt(iii) chloride dihydrate
;
_cell_volume   1263.150
_exptl_crystal_colour 'purple'
_exptl_crystal_density_diffrn 1.62
_diffrn_ambient_temperature ?
_diffrn_special_details
;
The study was carried out at room temperature,in the range 283-303K

;
#These two values have been output from a single CSD field.
_refine_ls_R_factor_gt 0.035
_refine_ls_wR_factor_gt 0.035
_symmetry_cell_setting monoclinic
_symmetry_space_group_name_H-M 'C 2/c'
_symmetry_Int_Tables_number 15
loop_
_symmetry_equiv_pos_site_id
_symmetry_equiv_pos_as_xyz
1 x,y,z
2 1/2+x,1/2+y,z
3 -x,y,1/2-z
4 1/2-x,1/2+y,1/2-z
5 -x,-y,-z
6 -1/2-x,-1/2-y,-z
7 x,-y,-1/2+z
8 -1/2+x,-1/2-y,-1/2+z
_cell_length_a 12.669(2)
_cell_length_b 11.155(2)
_cell_length_c 9.538(2)
_cell_angle_alpha 90
_cell_angle_beta 110.43(1)
_cell_angle_gamma 90
_cell_formula_units_Z 4
loop_
_atom_type_symbol
_atom_type_radius_bond
C 0.68
H 0.23
Cl 0.99
Co 1.33
N 0.68
O 0.68
loop_
_atom_site_label
_atom_site_type_symbol
_atom_site_fract_x
_atom_site_fract_y
_atom_site_fract_z
Co1 Co 0.50000 0.5001(1) 0.25000
Cl1 Cl 0.50000 0.8936(1) 0.25000
O1 O 0.6120(2) 0.5007(3) 0.4446(2)
O2 O 0.5182(4) 0.1505(3) 0.4198(5)
N1 N 0.5953(3) 0.3810(3) 0.1999(4)
N2 N 0.5961(3) 0.6196(3) 0.2015(4)
C1 C 0.7079(3) 0.3840(4) 0.3203(4)
C2 C 0.7121(2) 0.4982(4) 0.4097(3)
C3 C 0.7109(3) 0.6102(4) 0.3182(4)
H1 H 0.602(3) 0.408(4) 0.111(5)
H2 H 0.567(4) 0.312(4) 0.190(5)
H3 H 0.767(4) 0.378(4) 0.277(5)
H4 H 0.717(4) 0.305(4) 0.388(5)
H5 H 0.776(3) 0.498(4) 0.492(5)
H6 H 0.777(3) 0.610(4) 0.276(4)
H7 H 0.727(3) 0.685(4) 0.385(5)
H8 H 0.602(4) 0.603(4) 0.115(5)
H9 H 0.572(3) 0.696(4) 0.194(5)
H10 H 0.50500 0.06800 0.36200
H11 H 0.53800 0.12500 0.52400
O1B O 0.3880(2) 0.5007(3) 0.0554(2)
N1B N 0.4047(3) 0.3810(3) 0.3001(4)
N2B N 0.4039(3) 0.6196(3) 0.2985(4)
C2B C 0.2879(2) 0.4982(4) 0.0903(3)
C1B C 0.2921(3) 0.3840(4) 0.1797(4)
H1B H 0.398(3) 0.408(4) 0.389(5)
H2B H 0.433(4) 0.312(4) 0.310(5)
C3B C 0.2891(3) 0.6102(4) 0.1818(4)
H8B H 0.398(4) 0.603(4) 0.385(5)
H9B H 0.428(3) 0.696(4) 0.306(5)
H5B H 0.224(3) 0.498(4) 0.008(5)
H3B H 0.233(4) 0.378(4) 0.223(5)
H4B H 0.283(4) 0.305(4) 0.112(5)
H6B H 0.223(3) 0.610(4) 0.224(4)
H7B H 0.273(3) 0.685(4) 0.115(5)
#END
