
#######################################################################
#
#                 Cambridge Crystallographic Data Centre
#                                CCDC
#
#######################################################################
#
# If this CIF has been generated from an entry in the Cambridge
# Structural Database, then it will include bibliographic, chemical,
# crystal, experimental, refinement or atomic coordinate data resulting
# from the CCDC's data processing and validation procedures.
#
#######################################################################

data_CSD_CIF_GAQWIE
_audit_creation_date 1999-04-05
_audit_creation_method CSD-ConQuest-V1
_database_code_CSD GAQWIE
_database_code_depnum_ccdc_archive 'CCDC 1163940'
_chemical_formula_sum 'C10 H10 Mn1 N8 O6'
_chemical_formula_moiety
;
C10 H10 Mn1 N8 O6
;
_journal_coden_Cambridge 580
_journal_volume 17
_journal_year 1998
_journal_page_first 2477
_journal_name_full 'Polyhedron '
loop_
_publ_author_name
"S.Orihuela"
"M.P.Sanchez"
"M.Quiros"
"D.Martin"
"R.Faure"
_chemical_name_systematic
;
Diaqua-bis(4,5,6,7-tetrahydro-5,7-dioxo(1,2,4)triazolo(1,5-a)pyridimine)-manga
nese(ii)
;
_cell_volume    357.380
_exptl_crystal_colour 'white'
_exptl_special_details
;
Isostructural with the iron, cobalt, nickel and zinc analogues

;
_exptl_crystal_description 'prismatic'
_diffrn_ambient_temperature ?
_diffrn_special_details
;
The study was carried out at room temperature,in the range 283-303K

;
#These two values have been output from a single CSD field.
_refine_ls_R_factor_gt 0.037
_refine_ls_wR_factor_gt 0.037
_symmetry_cell_setting triclinic
_symmetry_space_group_name_H-M 'P -1'
_symmetry_Int_Tables_number 2
loop_
_symmetry_equiv_pos_site_id
_symmetry_equiv_pos_as_xyz
1 x,y,z
2 -x,-y,-z
_cell_length_a 4.984(1)
_cell_length_b 8.325(2)
_cell_length_c 9.227(2)
_cell_angle_alpha 74.15(2)
_cell_angle_beta 89.54(1)
_cell_angle_gamma 76.44(2)
_cell_formula_units_Z 1
loop_
_atom_type_symbol
_atom_type_radius_bond
C 0.68
H 0.23
Mn 1.35
N 0.68
O 0.68
loop_
_atom_site_label
_atom_site_type_symbol
_atom_site_fract_x
_atom_site_fract_y
_atom_site_fract_z
Mn1 Mn 0.00000 0.00000 0.00000
N1 N -0.1607(2) 0.0592(1) 0.2129(1)
C1 C -0.3032(2) 0.0291(1) 0.3351(1)
N2 N -0.2942(2) 0.1296(1) 0.4281(1)
C2 C -0.1338(2) 0.2296(1) 0.3568(1)
N3 N -0.0479(2) 0.3559(1) 0.3936(1)
C3 C 0.1244(3) 0.4434(1) 0.3024(1)
O1 O 0.1990(2) 0.5587(1) 0.3438(1)
C4 C 0.2062(2) 0.3975(1) 0.1686(1)
C5 C 0.1226(2) 0.2685(1) 0.1272(1)
O2 O 0.1789(2) 0.2126(1) 0.01344(9)
N4 N -0.0510(2) 0.1902(1) 0.2285(1)
O3 O 0.3515(2) -0.1829(1) 0.1387(1)
H1 H -0.407(7) -0.083(4) 0.336(4)
H2 H -0.158(8) 0.371(4) 0.476(4)
H3 H 0.343(9) 0.491(4) 0.124(4)
H4 H 0.535(8) -0.213(5) 0.083(4)
H5 H 0.337(8) -0.256(4) 0.190(4)
N1A N 0.1607(2) -0.0592(1) -0.2129(1)
C1A C 0.3032(2) -0.0291(1) -0.3351(1)
N2A N 0.2942(2) -0.1296(1) -0.4281(1)
C2A C 0.1338(2) -0.2296(1) -0.3568(1)
N3A N 0.0479(2) -0.3559(1) -0.3936(1)
C3A C -0.1244(3) -0.4434(1) -0.3024(1)
O1A O -0.1990(2) -0.5587(1) -0.3438(1)
C4A C -0.2062(2) -0.3975(1) -0.1686(1)
C5A C -0.1226(2) -0.2685(1) -0.1272(1)
O2A O -0.1789(2) -0.2126(1) -0.01344(9)
O3A O -0.3515(2) 0.1829(1) -0.1387(1)
H4A H -0.535(8) 0.213(5) -0.083(4)
H5A H -0.337(8) 0.256(4) -0.190(4)
N4A N 0.0510(2) -0.1902(1) -0.2285(1)
H3A H -0.343(9) -0.491(4) -0.124(4)
H2A H 0.158(8) -0.371(4) -0.476(4)
H1A H 0.407(7) 0.083(4) -0.336(4)
#END
