
#######################################################################
#
#                 Cambridge Crystallographic Data Centre
#                                CCDC
#
#######################################################################
#
# If this CIF has been generated from an entry in the Cambridge
# Structural Database, then it will include bibliographic, chemical,
# crystal, experimental, refinement or atomic coordinate data resulting
# from the CCDC's data processing and validation procedures.
#
#######################################################################

data_CSD_CIF_GAVDEN
_audit_creation_date 2005-12-08
_audit_creation_method CSD-ConQuest-V1
_database_code_CSD GAVDEN
_database_code_depnum_ccdc_archive 'CCDC 284006'
_chemical_formula_sum 'C12 H16 Fe1 N2 O8'
_chemical_formula_moiety
;
C12 H16 Fe1 N2 O8
;
_journal_coeditor_code "IUCr WW6414"
_journal_coden_Cambridge 1370
_journal_volume 61
_journal_year 2005
_journal_page_first m1782
_journal_name_full 'Acta Crystallogr.,Sect.E:Struct.Rep.Online '
loop_
_publ_author_name
"Yong Liang"
"Wei Li"
"Bao-Jing Guo"
_chemical_name_systematic
;
Tetraaqua-bis(pyridine-3-carboxylato-N)-iron(ii)
;
_cell_volume    739.734
_exptl_crystal_colour 'red'
_exptl_crystal_density_diffrn 1.671
_exptl_special_details
;
isostructural with the Cr, Co, Ni, Zn and Cd analogues

;
_exptl_crystal_description 'block'
_exptl_crystal_preparation 'methanol/water'
_diffrn_ambient_temperature 293
#These two values have been output from a single CSD field.
_refine_ls_R_factor_gt 0.0519
_refine_ls_wR_factor_gt 0.0519
_symmetry_cell_setting monoclinic
_symmetry_space_group_name_H-M 'C 2/m'
_symmetry_Int_Tables_number 12
loop_
_symmetry_equiv_pos_site_id
_symmetry_equiv_pos_as_xyz
1 x,y,z
2 1/2+x,1/2+y,z
3 -x,y,-z
4 1/2-x,1/2+y,-z
5 -x,-y,-z
6 -1/2-x,-1/2-y,-z
7 x,-y,z
8 -1/2+x,-1/2-y,z
_cell_length_a 14.235(4)
_cell_length_b 6.901(2)
_cell_length_c 8.538(3)
_cell_angle_alpha 90
_cell_angle_beta 118.12(1)
_cell_angle_gamma 90
_cell_formula_units_Z 2
loop_
_atom_type_symbol
_atom_type_radius_bond
C 0.68
H 0.23
Fe 1.34
N 0.68
O 0.68
loop_
_atom_site_label
_atom_site_type_symbol
_atom_site_fract_x
_atom_site_fract_y
_atom_site_fract_z
Fe1 Fe 0.00000 0.00000 0.00000
O1 O 0.1342(3) 0.00000 0.7164(5)
O2 O 0.3106(3) 0.00000 0.8836(4)
O3 O 0.06107(16) 0.2199(4) -0.1033(3)
H1 H 0.096(3) 0.170(6) -0.152(5)
H2 H 0.098(3) 0.308(4) -0.032(4)
N1 N 0.1509(3) 0.00000 0.2518(4)
C1 C 0.1482(3) 0.00000 0.4064(5)
H3 H 0.08220 0.00000 0.40410
C2 C 0.2396(3) 0.00000 0.5705(5)
C3 C 0.2273(4) 0.00000 0.7371(5)
C4 C 0.3368(3) 0.00000 0.5732(6)
H4 H 0.39940 0.00000 0.68060
C5 C 0.3406(3) 0.00000 0.4144(6)
H5 H 0.40560 0.00000 0.41320
C6 C 0.2464(3) 0.00000 0.2584(6)
H6 H 0.24940 0.00000 0.15190
O1D O -0.1342(3) 0.00000 -0.7164(5)
O2D O -0.3106(3) 0.00000 -0.8836(4)
O3F O 0.06107(16) -0.2199(4) -0.1033(3)
O3D O -0.06107(16) -0.2199(4) 0.1033(3)
O3B O -0.06107(16) 0.2199(4) 0.1033(3)
H1F H 0.096(3) -0.170(6) -0.152(5)
H1D H -0.096(3) -0.170(6) 0.152(5)
H1B H -0.096(3) 0.170(6) 0.152(5)
H2F H 0.098(3) -0.308(4) -0.032(4)
H2D H -0.098(3) -0.308(4) 0.032(4)
H2B H -0.098(3) 0.308(4) 0.032(4)
N1D N -0.1509(3) 0.00000 -0.2518(4)
C1D C -0.1482(3) 0.00000 -0.4064(5)
H3D H -0.08220 0.00000 -0.40410
C2D C -0.2396(3) 0.00000 -0.5705(5)
C3D C -0.2273(4) 0.00000 -0.7371(5)
C4D C -0.3368(3) 0.00000 -0.5732(6)
H4D H -0.39940 0.00000 -0.68060
C5D C -0.3406(3) 0.00000 -0.4144(6)
H5D H -0.40560 0.00000 -0.41320
C6D C -0.2464(3) 0.00000 -0.2584(6)
H6D H -0.24940 0.00000 -0.15190
#END
