
#######################################################################
#
#                 Cambridge Crystallographic Data Centre
#                                CCDC
#
#######################################################################
#
# If this CIF has been generated from an entry in the Cambridge
# Structural Database, then it will include bibliographic, chemical,
# crystal, experimental, refinement or atomic coordinate data resulting
# from the CCDC's data processing and validation procedures.
#
#######################################################################

data_CSD_CIF_GAYZEL
_audit_creation_date 1989-02-16
_audit_creation_method CSD-ConQuest-V1
_database_code_CSD GAYZEL
_database_code_depnum_ccdc_archive 'CCDC 1164718'
_chemical_formula_sum 'C4 H8 Fe1 N2 O6 S2'
_chemical_formula_moiety
;
C4 H8 Fe1 N2 O6 S2
;
_journal_coden_Cambridge 644
_journal_volume 40
_journal_year 1985
_journal_page_first 1068
_journal_name_full 'Z.Naturforsch.,B:Chem.Sci. '
loop_
_publ_author_name
"J.Bertels"
"R.Mattes"
_chemical_name_systematic
;
Diaqua-bis(2-thio-oxamato-O,S)-iron(ii)
;
_cell_volume    498.274
_exptl_crystal_colour 'dark red'
_exptl_crystal_density_diffrn 2.0
_exptl_special_details
;
z of O3 is 0.2236, not 0.1636

;
_diffrn_ambient_temperature ?
_diffrn_special_details
;
The study was carried out at room temperature,in the range 283-303K

;
#These two values have been output from a single CSD field.
_refine_ls_R_factor_gt 0.038
_refine_ls_wR_factor_gt 0.038
_symmetry_cell_setting monoclinic
_symmetry_space_group_name_H-M 'P 21/c'
_symmetry_Int_Tables_number 14
loop_
_symmetry_equiv_pos_site_id
_symmetry_equiv_pos_as_xyz
1 x,y,z
2 -x,1/2+y,1/2-z
3 -x,-y,-z
4 x,-1/2-y,-1/2+z
_cell_length_a 8.907(3)
_cell_length_b 8.664(3)
_cell_length_c 6.577(20)
_cell_angle_alpha 90
_cell_angle_beta 100.97(2)
_cell_angle_gamma 90
_cell_formula_units_Z 2
loop_
_atom_type_symbol
_atom_type_radius_bond
C 0.68
H 0.23
Fe 1.34
N 0.68
O 0.68
S 1.02
loop_
_atom_site_label
_atom_site_type_symbol
_atom_site_fract_x
_atom_site_fract_y
_atom_site_fract_z
Fe1 Fe 0.00000 0.00000 0.00000
S1 S 0.2589(1) 0.0823(1) 0.1918(2)
O1 O 0.3061(2) -0.3626(2) 0.1636(4)
O2 O 0.1102(2) -0.2172(2) 0.0193(3)
O3 O -0.0728(3) -0.0638(3) 0.2764(4)
N1 N 0.4862(3) -0.1150(4) 0.2408(6)
C1 C 0.3399(4) -0.0899(3) 0.1860(5)
C2 C 0.2442(3) -0.2368(3) 0.1175(4)
H1 H -0.133(6) -0.015(5) 0.306(1)
H2 H -0.033(6) -0.119(7) 0.311(9)
H3 H 0.517(5) -0.219(6) 0.226(7)
H4 H 0.576(6) -0.056(6) 0.228(8)
S1B S -0.2589(1) -0.0823(1) -0.1918(2)
O2B O -0.1102(2) 0.2172(2) -0.0193(3)
O3B O 0.0728(3) 0.0638(3) -0.2764(4)
C1B C -0.3399(4) 0.0899(3) -0.1860(5)
C2B C -0.2442(3) 0.2368(3) -0.1175(4)
H1B H 0.133(6) 0.015(5) -0.306(1)
H2B H 0.033(6) 0.119(7) -0.311(9)
N1B N -0.4862(3) 0.1150(4) -0.2408(6)
O1B O -0.3061(2) 0.3626(2) -0.1636(4)
H3B H -0.517(5) 0.219(6) -0.226(7)
H4B H -0.576(6) 0.056(6) -0.228(8)
#END
