
#######################################################################
#
#                 Cambridge Crystallographic Data Centre
#                                CCDC
#
#######################################################################
#
# If this CIF has been generated from an entry in the Cambridge
# Structural Database, then it will include bibliographic, chemical,
# crystal, experimental, refinement or atomic coordinate data resulting
# from the CCDC's data processing and validation procedures.
#
#######################################################################

data_CSD_CIF_GELZAY
_audit_creation_date 1989-04-05
_audit_creation_method CSD-ConQuest-V1
_database_code_CSD GELZAY
_chemical_formula_sum 'C16 H19 Cr1 N1 O3'
_chemical_formula_moiety
;
C16 H19 Cr1 N1 O3
;
_journal_coden_Cambridge 207
_journal_year 1988
_journal_page_first 1481
_journal_name_full 'J.Chem.Soc.,Perkin Trans.1 '
loop_
_publ_author_name
"S.J.Coote"
"S.G.Davies"
"K.H.Sutton"
_chemical_name_systematic
;
(+)-Tricarbonyl-(\h^6^-(1R,3S,4R)-1,2,3,4-tetramethyl-1,2,3,4-tetrahydroisoqui
noline)-chromium(0)
;
_chemical_melting_point 408.15
_cell_volume    770.013
_exptl_crystal_colour 'yellow'
_exptl_crystal_density_diffrn 1.4
_exptl_special_details
;
Melting point range 408.15-409.15K

;
_diffrn_ambient_temperature ?
_diffrn_special_details
;
The study was carried out at room temperature,in the range 283-303K

;
#These two values have been output from a single CSD field.
_refine_ls_R_factor_gt 0.051
_refine_ls_wR_factor_gt 0.051
_symmetry_cell_setting triclinic
_symmetry_space_group_name_H-M 'P 1'
_symmetry_Int_Tables_number 1
loop_
_symmetry_equiv_pos_site_id
_symmetry_equiv_pos_as_xyz
1 x,y,z
_cell_length_a 7.142(1)
_cell_length_b 9.668(1)
_cell_length_c 13.093(1)
_cell_angle_alpha 101.19(1)
_cell_angle_beta 90.70(1)
_cell_angle_gamma 118.96(1)
_cell_formula_units_Z 2
loop_
_atom_type_symbol
_atom_type_radius_bond
C 0.68
H 0.23
Cr 1.35
N 0.68
O 0.68
loop_
_atom_site_label
_atom_site_type_symbol
_atom_site_fract_x
_atom_site_fract_y
_atom_site_fract_z
Cr1 Cr 0.0004(2) 0.0008(1) -0.00012(8)
N1 N 0.3560(9) 0.1740(7) -0.2423(4)
O1 O 0.1407(9) -0.2350(6) -0.0963(5)
O2 O -0.216(1) -0.219(1) 0.1445(7)
O3 O 0.391(1) 0.1672(8) 0.1611(5)
C1 C 0.119(1) 0.2151(6) -0.0739(4)
C2 C 0.004(1) 0.2359(8) 0.0110(5)
C3 C -0.204(1) 0.117(1) 0.0154(5)
C4 C -0.304(1) -0.028(1) -0.0631(6)
C5 C -0.196(1) -0.0496(8) -0.1480(5)
C6 C 0.0153(9) 0.0747(7) -0.1544(4)
C7 C 0.124(1) 0.0476(7) -0.2488(5)
C8 C 0.4666(9) 0.2575(8) -0.1353(5)
C9 C 0.347(1) 0.3431(7) -0.0758(5)
C10 C 0.000(1) 0.052(1) -0.3467(5)
C11 C 0.463(1) 0.101(1) -0.3065(6)
C12 C 0.707(1) 0.377(1) -0.1379(6)
C13 C 0.363(1) 0.4794(9) -0.1203(7)
C14 C 0.087(1) -0.1445(8) -0.0579(5)
C15 C -0.134(1) -0.1334(9) 0.0902(6)
C16 C 0.236(1) 0.0997(8) 0.0983(5)
H1 H 0.078(1) 0.3379(8) 0.0674(5)
H2 H -0.287(1) 0.133(1) 0.0730(5)
H3 H -0.452(1) -0.117(1) -0.0585(6)
H4 H -0.265(1) -0.1521(8) -0.2041(5)
H5 H 0.094(1) -0.0650(7) -0.2807(5)
H6 H 0.4546(9) 0.1676(8) -0.1039(5)
H7 H 0.414(1) 0.4054(7) -0.0024(5)
H8 H -0.154(1) -0.034(1) -0.3532(5)
H9 H 0.010(1) 0.161(1) -0.3333(5)
H10 H 0.061(1) 0.034(1) -0.4132(5)
H11 H 0.382(1) 0.049(1) -0.3784(6)
H12 H 0.614(1) 0.186(1) -0.3112(6)
H13 H 0.467(1) 0.017(1) -0.2742(6)
H14 H 0.777(1) 0.318(1) -0.1763(6)
H15 H 0.718(1) 0.462(1) -0.1747(6)
H16 H 0.782(1) 0.431(1) -0.0646(6)
H17 H 0.289(1) 0.5325(9) -0.0790(7)
H18 H 0.292(1) 0.4326(9) -0.1943(7)
H19 H 0.518(1) 0.5618(9) -0.1194(7)
Cr2 Cr 0.1950(2) 0.6468(1) 0.29784(8)
N2 N -0.2498(9) 0.3408(7) 0.4698(4)
O4 O 0.400(1) 0.837(1) 0.1381(6)
O5 O -0.208(1) 0.4692(8) 0.1485(5)
O6 O 0.0562(8) 0.8888(6) 0.3836(5)
C17 C 0.1733(9) 0.5886(6) 0.4549(4)
C18 C 0.386(1) 0.7089(9) 0.4485(6)
C19 C 0.508(1) 0.687(1) 0.3684(6)
C20 C 0.410(1) 0.5398(9) 0.2902(6)
C21 C 0.195(1) 0.4202(8) 0.2956(4)
C22 C 0.0792(9) 0.4426(7) 0.3789(4)
C23 C -0.141(1) 0.3052(7) 0.3831(5)
C24 C -0.188(1) 0.5114(8) 0.5021(5)
C25 C 0.052(1) 0.6096(8) 0.5420(4)
C26 C -0.122(1) 0.1542(8) 0.3959(7)
C27 C -0.480(1) 0.234(1) 0.4404(6)
C28 C -0.320(1) 0.538(1) 0.5881(6)
C29 C 0.121(1) 0.576(1) 0.6404(5)
C30 C 0.325(1) 0.762(1) 0.1988(7)
C31 C -0.058(1) 0.5342(8) 0.2060(5)
C32 C 0.111(1) 0.7937(7) 0.3492(6)
H20 H 0.455(1) 0.8122(9) 0.5039(6)
H21 H 0.660(1) 0.771(1) 0.3656(6)
H22 H 0.490(1) 0.5213(9) 0.2317(6)
H23 H 0.126(1) 0.3165(8) 0.2406(4)
H24 H -0.229(1) 0.2966(7) 0.3196(5)
H25 H -0.225(1) 0.5317(8) 0.4347(5)
H26 H 0.103(1) 0.7284(8) 0.5651(4)
H27 H -0.046(1) 0.1290(8) 0.3377(7)
H28 H -0.038(1) 0.1786(8) 0.4649(7)
H29 H -0.269(1) 0.0585(8) 0.3918(7)
H30 H -0.511(1) 0.119(1) 0.4202(6)
H31 H -0.559(1) 0.246(1) 0.5008(6)
H32 H -0.529(1) 0.262(1) 0.3794(6)
H33 H -0.478(1) 0.474(1) 0.5629(6)
H34 H -0.272(1) 0.656(1) 0.6067(6)
H35 H -0.291(1) 0.504(1) 0.6513(6)
H36 H 0.280(1) 0.647(1) 0.6610(5)
H37 H 0.043(1) 0.601(1) 0.6980(5)
H38 H 0.081(1) 0.460(1) 0.6280(5)
#END
