
#######################################################################
#
#                 Cambridge Crystallographic Data Centre
#                                CCDC
#
#######################################################################
#
# If this CIF has been generated from an entry in the Cambridge
# Structural Database, then it will include bibliographic, chemical,
# crystal, experimental, refinement or atomic coordinate data resulting
# from the CCDC's data processing and validation procedures.
#
#######################################################################

data_CSD_CIF_GEPPEX
_audit_creation_date 2006-11-07
_audit_creation_method CSD-ConQuest-V1
_database_code_CSD GEPPEX
_database_code_depnum_ccdc_archive 'CCDC 624175'
_chemical_formula_sum 'C12 H12 Fe1 N4'
_chemical_formula_moiety
;
C12 H12 Fe1 N4
;
_journal_coeditor_code "IUCr CI2167"
_journal_coden_Cambridge 1370
_journal_volume 62
_journal_year 2006
_journal_page_first m2668
_journal_name_full 'Acta Crystallogr.,Sect.E:Struct.Rep.Online '
loop_
_publ_author_name
"Jing-Wen Ran"
"Dao-Jun Gong"
"Ya-Hong Li"
_chemical_name_systematic
;
(1,2-bis(1H-pyrrol-2-ylmethyleneamino)ethane-N,N',N'',N''')-iron(ii)
;
_cell_volume    574.348
_exptl_crystal_colour 'brown'
_exptl_crystal_density_diffrn 1.55
_exptl_crystal_description 'Block'
_exptl_crystal_preparation 'diethyl ether/acetonitrile'
_diffrn_ambient_temperature 293
#These two values have been output from a single CSD field.
_refine_ls_R_factor_gt 0.0473
_refine_ls_wR_factor_gt 0.0473
_symmetry_cell_setting triclinic
_symmetry_space_group_name_H-M 'P -1'
_symmetry_Int_Tables_number 2
loop_
_symmetry_equiv_pos_site_id
_symmetry_equiv_pos_as_xyz
1 x,y,z
2 -x,-y,-z
_cell_length_a 6.923(3)
_cell_length_b 8.828(3)
_cell_length_c 10.512(4)
_cell_angle_alpha 114.634(4)
_cell_angle_beta 92.149(4)
_cell_angle_gamma 98.351(4)
_cell_formula_units_Z 2
loop_
_atom_type_symbol
_atom_type_radius_bond
C 0.68
H 0.23
Fe 1.34
N 0.68
loop_
_atom_site_label
_atom_site_type_symbol
_atom_site_fract_x
_atom_site_fract_y
_atom_site_fract_z
Fe1 Fe 0.75616(6) 0.53637(6) 0.50806(5)
N1 N 0.8023(5) 0.5960(4) 0.3587(3)
N2 N 0.7539(5) 0.7390(4) 0.6675(3)
N3 N 0.7553(5) 0.3192(4) 0.3754(4)
N4 N 0.6994(4) 0.4354(4) 0.6265(3)
C1 C 0.7835(6) 0.3022(6) 0.2507(5)
H1 H 0.78900 0.19810 0.17700
C2 C 0.8055(6) 0.4551(6) 0.2341(4)
C3 C 0.8316(7) 0.4994(7) 0.1244(5)
H2 H 0.83930 0.42760 0.03090
C4 C 0.8440(7) 0.6751(7) 0.1828(5)
H3 H 0.86110 0.74340 0.13510
C5 C 0.8260(6) 0.7285(6) 0.3256(4)
H4 H 0.82980 0.84040 0.38940
C6 C 0.6780(6) 0.5359(6) 0.7544(5)
H5 H 0.64410 0.49680 0.82160
C7 C 0.7104(6) 0.7101(6) 0.7840(4)
C8 C 0.7018(8) 0.8602(7) 0.8977(5)
H6 H 0.67290 0.87410 0.98720
C9 C 0.7445(8) 0.9860(7) 0.8522(5)
H7 H 0.75150 1.10150 0.90580
C10 C 0.7749(6) 0.9074(6) 0.7118(5)
H8 H 0.80580 0.96370 0.65570
C11 C 0.7418(6) 0.1863(5) 0.4251(5)
H9 H 0.87060 0.15880 0.43480
H10 H 0.65570 0.08470 0.35820
C12 C 0.6615(6) 0.2507(5) 0.5646(5)
H11 H 0.52130 0.20890 0.55220
H12 H 0.72420 0.21130 0.62630
#END
