
#######################################################################
#
#                 Cambridge Crystallographic Data Centre
#                                CCDC
#
#######################################################################
#
# If this CIF has been generated from an entry in the Cambridge
# Structural Database, then it will include bibliographic, chemical,
# crystal, experimental, refinement or atomic coordinate data resulting
# from the CCDC's data processing and validation procedures.
#
#######################################################################

data_CSD_CIF_GEQTUS
_audit_creation_date 2007-02-15
_audit_creation_method CSD-ConQuest-V1
_database_code_CSD GEQTUS
_database_code_depnum_ccdc_archive 'CCDC 626975'
_chemical_formula_sum 'C12 H28 Cl2 Fe1 N2'
_chemical_formula_moiety
;
C12 H28 Cl2 Fe1 N2
;
_journal_coden_Cambridge 9
_journal_volume 45
_journal_year 2006
_journal_page_first 8003
_journal_name_full 'Inorg.Chem. '
loop_
_publ_author_name
"S.J.Friese"
"B.E.Kucera"
"L.Que Junior"
"W.B.Tolman"
_chemical_name_systematic
;
dichloro-(1,2-bis(t-butyl(methyl)amino)ethane-N,N')-iron(ii)
;
_cell_volume   1690.604
_exptl_crystal_colour 'colorless'
_exptl_crystal_density_diffrn 1.285
_exptl_crystal_description 'needle'
_diffrn_ambient_temperature 173
#These two values have been output from a single CSD field.
_refine_ls_R_factor_gt 0.0377
_refine_ls_wR_factor_gt 0.0377
_symmetry_cell_setting monoclinic
_symmetry_space_group_name_H-M 'C 2/c'
_symmetry_Int_Tables_number 15
loop_
_symmetry_equiv_pos_site_id
_symmetry_equiv_pos_as_xyz
1 x,y,z
2 1/2+x,1/2+y,z
3 -x,y,1/2-z
4 1/2-x,1/2+y,1/2-z
5 -x,-y,-z
6 -1/2-x,-1/2-y,-z
7 x,-y,-1/2+z
8 -1/2+x,-1/2-y,-1/2+z
_cell_length_a 14.905(3)
_cell_length_b 7.1436(15)
_cell_length_c 15.896(3)
_cell_angle_alpha 90
_cell_angle_beta 92.735(4)
_cell_angle_gamma 90
_cell_formula_units_Z 4
loop_
_atom_type_symbol
_atom_type_radius_bond
C 0.68
H 0.23
Cl 0.99
Fe 1.34
N 0.68
loop_
_atom_site_label
_atom_site_type_symbol
_atom_site_fract_x
_atom_site_fract_y
_atom_site_fract_z
Fe1 Fe 0.50000 0.05402(7) 0.75000
Cl1 Cl 0.40001(5) -0.12736(10) 0.67477(5)
N1 N 0.57684(16) 0.2807(3) 0.69660(15)
C1 C 0.5218(2) 0.4527(4) 0.7094(2)
H1 H 0.56090 0.56420 0.70650
H2 H 0.47500 0.46210 0.66320
C2 C 0.6610(2) 0.3003(5) 0.7515(2)
H3 H 0.69400 0.41180 0.73460
H4 H 0.69870 0.18920 0.74530
H5 H 0.64540 0.31290 0.81040
C3 C 0.5997(2) 0.2536(4) 0.60473(19)
C4 C 0.5126(2) 0.2403(5) 0.5502(2)
H6 H 0.48390 0.36360 0.54670
H7 H 0.47200 0.15080 0.57550
H8 H 0.52610 0.19790 0.49360
C5 C 0.6503(2) 0.0685(5) 0.5973(2)
H9 H 0.70860 0.07750 0.62820
H10 H 0.65950 0.04200 0.53790
H11 H 0.61510 -0.03270 0.62120
C6 C 0.6573(2) 0.4127(5) 0.5724(2)
H12 H 0.71680 0.40940 0.60150
H13 H 0.62840 0.53290 0.58320
H14 H 0.66380 0.39780 0.51170
Cl1B Cl 0.59999(5) -0.12736(10) 0.82523(5)
N1B N 0.42316(16) 0.2807(3) 0.80340(15)
C1B C 0.4782(2) 0.4527(4) 0.7906(2)
H1B H 0.43910 0.56420 0.79350
H2B H 0.52500 0.46210 0.83680
C2B C 0.3390(2) 0.3003(5) 0.7485(2)
H3B H 0.30600 0.41180 0.76540
H4B H 0.30130 0.18920 0.75470
H5B H 0.35460 0.31290 0.68960
C3B C 0.4003(2) 0.2536(4) 0.89527(19)
C4B C 0.4874(2) 0.2403(5) 0.9498(2)
H6B H 0.51610 0.36360 0.95330
H7B H 0.52800 0.15080 0.92450
H8B H 0.47390 0.19790 1.00640
C5B C 0.3497(2) 0.0685(5) 0.9027(2)
H9B H 0.29140 0.07750 0.87180
H10B H 0.34050 0.04200 0.96210
H11B H 0.38490 -0.03270 0.87880
C6B C 0.3427(2) 0.4127(5) 0.9276(2)
H12B H 0.28320 0.40940 0.89850
H13B H 0.37160 0.53290 0.91680
H14B H 0.33620 0.39780 0.98830
#END
