
#######################################################################
#
#                 Cambridge Crystallographic Data Centre
#                                CCDC
#
#######################################################################
#
# If this CIF has been generated from an entry in the Cambridge
# Structural Database, then it will include bibliographic, chemical,
# crystal, experimental, refinement or atomic coordinate data resulting
# from the CCDC's data processing and validation procedures.
#
#######################################################################

data_CSD_CIF_GEQWOO
_audit_creation_date 1999-04-16
_audit_creation_method CSD-ConQuest-V1
_database_code_CSD GEQWOO
_database_code_depnum_ccdc_archive 'CCDC 1166201; CCDC 402635'
_database_code_depnum_ccdc_fiz 'CSD 402635'
_chemical_formula_sum 'C6 H24 F8 Mn2 N2 O4'
_chemical_formula_moiety
;
C6 H16 N2 2+,2(H4 F4 Mn1 O2 1-)
;
_journal_coden_Cambridge 1267
_journal_volume 212
_journal_year 1997
_journal_page_first 199
_journal_name_full 'Z.Kristallogr.-New Cryst.Struct. '
loop_
_publ_author_name
"G.Rother"
"H.Worzala"
"U.Bentrup"
_chemical_name_systematic
;
2,5-Dimethylpiperazine-1,4-di-ium bis(diaqua-tetrafluoromanganate(iii))
;
_cell_volume    780.001
_exptl_crystal_colour 'brown'
_exptl_crystal_density_diffrn 1.917
_exptl_crystal_description 'prismatic'
_diffrn_ambient_temperature ?
_diffrn_special_details
;
The study was carried out at room temperature,in the range 283-303K

;
#These two values have been output from a single CSD field.
_refine_ls_R_factor_gt 0.0359
_refine_ls_wR_factor_gt 0.0359
_symmetry_cell_setting monoclinic
_symmetry_space_group_name_H-M 'P 21/n'
_symmetry_Int_Tables_number 14
loop_
_symmetry_equiv_pos_site_id
_symmetry_equiv_pos_as_xyz
1 x,y,z
2 1/2-x,1/2+y,1/2-z
3 -x,-y,-z
4 -1/2+x,-1/2-y,-1/2+z
_cell_length_a 7.376(3)
_cell_length_b 12.055(3)
_cell_length_c 9.266(2)
_cell_angle_alpha 90
_cell_angle_beta 108.79(3)
_cell_angle_gamma 90
_cell_formula_units_Z 2
loop_
_atom_type_symbol
_atom_type_radius_bond
C 0.68
H 0.23
F 0.64
Mn 1.35
N 0.68
O 0.68
loop_
_atom_site_label
_atom_site_type_symbol
_atom_site_fract_x
_atom_site_fract_y
_atom_site_fract_z
Mn1 Mn 0.20659(3) 0.10080(2) 0.33776(2)
F1 F 0.29672(14) 0.16955(10) 0.52267(11)
F2 F 0.1226(2) 0.03030(11) 0.15387(11)
F3 F 0.45032(14) 0.09346(11) 0.32914(13)
F4 F -0.04382(14) 0.10444(9) 0.33996(12)
O1 O 0.2292(2) -0.06652(12) 0.45269(14)
H1 H 0.3383(40) -0.0703(24) 0.5119(30)
H2 H 0.1447(51) -0.0798(31) 0.4796(40)
O2 O 0.1428(2) 0.26798(13) 0.2207(2)
H3 H 0.0374(40) 0.2744(24) 0.1565(29)
H4 H 0.2083(42) 0.3002(27) 0.1961(33)
N1 N -0.3022(2) 0.03026(12) 0.0579(2)
H5 H -0.2055(31) 0.0505(23) 0.1381(26)
H6 H -0.2472(38) 0.0147(26) -0.0136(32)
C1 C -0.4557(2) 0.11626(13) 0.0155(2)
H7 H -0.4832(32) 0.1326(22) 0.1090(26)
H8 H -0.4047(32) 0.1757(22) -0.0182(27)
C2 C -0.3694(2) -0.07544(14) 0.1098(2)
H9 H -0.4048(27) -0.0590(18) 0.2005(22)
C3 C -0.2104(3) -0.1607(2) 0.1490(2)
H10 H -0.1107(41) -0.1360(27) 0.2301(36)
H11 H -0.2556(38) -0.2302(26) 0.1755(29)
H12 H -0.1707(39) -0.1764(26) 0.0768(33)
C2B C -0.6306(2) 0.07544(14) -0.1098(2)
N1B N -0.6978(2) -0.03026(12) -0.0579(2)
H5B H -0.7945(31) -0.0505(23) -0.1381(26)
H6B H -0.7528(38) -0.0147(26) 0.0136(32)
C1B C -0.5443(2) -0.11626(13) -0.0155(2)
H7B H -0.5168(32) -0.1326(22) -0.1090(26)
H8B H -0.5953(32) -0.1757(22) 0.0182(27)
H9B H -0.5952(27) 0.0590(18) -0.2005(22)
C3B C -0.7896(3) 0.1607(2) -0.1490(2)
H10B H -0.8893(41) 0.1360(27) -0.2301(36)
H11B H -0.7444(38) 0.2302(26) -0.1755(29)
H12B H -0.8293(39) 0.1764(26) -0.0768(33)
#END
