
#######################################################################
#
#                 Cambridge Crystallographic Data Centre
#                                CCDC
#
#######################################################################
#
# If this CIF has been generated from an entry in the Cambridge
# Structural Database, then it will include bibliographic, chemical,
# crystal, experimental, refinement or atomic coordinate data resulting
# from the CCDC's data processing and validation procedures.
#
#######################################################################

data_CSD_CIF_GETNAV
_audit_creation_date 2007-02-15
_audit_creation_method CSD-ConQuest-V1
_database_code_CSD GETNAV
_database_code_depnum_ccdc_archive 'CCDC 633563'
_chemical_formula_sum 'C12 H16 Cl2 Co1 N4'
_chemical_formula_moiety
;
C12 H16 Cl2 Co1 N4
;
_journal_coden_Cambridge 444
_journal_volume 76
_journal_year 2006
_journal_page_first 828
_journal_name_full 'Zh.Obshch.Khim.(Russ.)(Russ.J.Gen.Chem.) '
loop_
_publ_author_name
"L.V.Baikalova"
"V.I.Sokol"
"I.A.Zyryanova"
"I.V.Fedyanin"
"V.N.Khrustalev"
"E.A.Zel'bst"
"O.A.Tarasova"
"V.S.Sergienko"
"B.A.Trofimov"
_chemical_name_systematic
;
Dichloro-bis(1-(isopropenyl)imidazole-N)-cobalt(ii)
;
_cell_volume    793.659
_exptl_crystal_colour 'blue'
_exptl_crystal_density_diffrn 1.448
_exptl_crystal_description 'prism'
_diffrn_ambient_temperature 295
#These two values have been output from a single CSD field.
_refine_ls_R_factor_gt 0.0356
_refine_ls_wR_factor_gt 0.0356
_symmetry_cell_setting triclinic
_symmetry_space_group_name_H-M 'P -1'
_symmetry_Int_Tables_number 2
loop_
_symmetry_equiv_pos_site_id
_symmetry_equiv_pos_as_xyz
1 x,y,z
2 -x,-y,-z
_cell_length_a 8.426(7)
_cell_length_b 8.942(16)
_cell_length_c 11.89(3)
_cell_angle_alpha 87.33(9)
_cell_angle_beta 77.49(8)
_cell_angle_gamma 65.31(7)
_cell_formula_units_Z 2
loop_
_atom_type_symbol
_atom_type_radius_bond
C 0.68
H 0.23
Cl 0.99
Co 1.33
N 0.68
loop_
_atom_site_label
_atom_site_type_symbol
_atom_site_fract_x
_atom_site_fract_y
_atom_site_fract_z
Co1 Co 0.97918(3) 0.09283(3) 0.23226(2)
Cl1 Cl 1.01358(9) 0.19229(9) 0.38930(5)
Cl2 Cl 1.23056(7) -0.08207(7) 0.11553(5)
N1 N 0.6420(2) -0.1403(2) 0.35172(14)
N2 N 0.8027(2) -0.00919(19) 0.27251(14)
N3 N 0.8497(2) 0.28749(19) 0.14167(14)
N4 N 0.7791(2) 0.46543(18) 0.00603(14)
C1 C 0.6804(5) -0.3239(5) 0.5152(3)
H1 H 0.62100 -0.38140 0.56500
H2 H 0.69620 -0.24720 0.56060
H3 H 0.79500 -0.40170 0.47420
C2 C 0.5713(3) -0.2343(3) 0.4324(2)
C3 C 0.4153(5) -0.2343(5) 0.4259(4)
H4 H 0.372(5) -0.299(5) 0.478(3)
H5 H 0.338(6) -0.172(5) 0.373(4)
C4 C 0.5920(3) -0.0841(3) 0.2492(2)
H6 H 0.50610 -0.09900 0.21920
C5 C 0.6907(3) -0.0046(3) 0.2016(2)
H7 H 0.68530 0.04610 0.13160
C6 C 0.7699(3) -0.0920(2) 0.36188(17)
H8 H 0.82690 -0.11410 0.42340
C7 C 0.6866(3) 0.4139(3) 0.1822(2)
H9 H 0.61660 0.42280 0.25580
C8 C 0.6414(3) 0.5235(3) 0.1007(2)
H10 H 0.53700 0.61980 0.10730
C9 C 0.9000(2) 0.3214(2) 0.03540(17)
H11 H 1.00630 0.25460 -0.01420
C10 C 0.7943(3) 0.5431(2) -0.10151(19)
C11 C 0.9316(5) 0.4413(3) -0.1961(2)
H12 H 0.93080 0.50450 -0.26370
H13 H 0.90910 0.34820 -0.21120
H14 H 1.04630 0.40350 -0.17630
C12 C 0.6878(4) 0.7020(3) -0.1080(3)
H15 H 0.609(5) 0.777(4) -0.041(3)
H16 H 0.700(4) 0.744(4) -0.177(3)
#END
