
#######################################################################
#
#                 Cambridge Crystallographic Data Centre
#                                CCDC
#
#######################################################################
#
# If this CIF has been generated from an entry in the Cambridge
# Structural Database, then it will include bibliographic, chemical,
# crystal, experimental, refinement or atomic coordinate data resulting
# from the CCDC's data processing and validation procedures.
#
#######################################################################

data_CSD_CIF_GEVKAW
_audit_creation_date 2018-04-19
_audit_creation_method CSD-ConQuest-V1
_database_code_CSD GEVKAW
_database_code_depnum_ccdc_archive 'CCDC 1060382'
_chemical_formula_sum 'C6 H8 Mn1 N6 O6'
_chemical_formula_moiety
;
C6 H8 Mn1 N6 O6
;
_journal_coden_Cambridge 208
_journal_volume 262
_journal_year 2018
_journal_page_first 351
_journal_name_full 'J.Solid State Chem. '
loop_
_publ_author_name
"Juan-zhi Yan"
"Li-ping Lu"
"Miao-li Zhu"
"Si-si Feng"
_chemical_name_systematic
;
diaqua-bis(1H-1,2,4-triazole-3-carboxylato)-manganese(ii)
;
_cell_volume    551.197
_exptl_crystal_colour 'colorless'
_exptl_crystal_density_diffrn 1.899
_exptl_crystal_description 'block'
_diffrn_ambient_temperature 100
_diffrn_radiation_probe x-ray
_diffrn_source synchrotron
#These two values have been output from a single CSD field.
_refine_ls_R_factor_gt 0.0372
_refine_ls_wR_factor_gt 0.0372
_symmetry_cell_setting monoclinic
_symmetry_space_group_name_H-M 'P 21/c'
_symmetry_Int_Tables_number 14
loop_
_symmetry_equiv_pos_site_id
_symmetry_equiv_pos_as_xyz
1 x,y,z
2 -x,1/2+y,1/2-z
3 -x,-y,-z
4 x,-1/2-y,-1/2+z
_cell_length_a 9.1770(18)
_cell_length_b 8.7750(18)
_cell_length_c 6.8550(14)
_cell_angle_alpha 90
_cell_angle_beta 93.13(3)
_cell_angle_gamma 90
_cell_formula_units_Z 2
loop_
_atom_type_symbol
_atom_type_radius_bond
C 0.68
H 0.23
Mn 1.61
N 0.68
O 0.68
loop_
_atom_site_label
_atom_site_type_symbol
_atom_site_fract_x
_atom_site_fract_y
_atom_site_fract_z
Mn1 Mn 0.50000 1.00000 0.00000
N1 N 0.7253(3) 0.9702(3) 0.1321(4)
N2 N 0.9349(3) 1.0974(3) 0.2024(4)
N3 N 0.9491(3) 0.9470(3) 0.2490(4)
H1 H 1.050(4) 0.912(4) 0.317(5)
C1 C 0.7214(3) 1.2485(3) 0.0651(4)
C2 C 0.7980(3) 1.1060(4) 0.1323(4)
C3 C 0.8250(4) 0.8732(4) 0.2067(5)
O1 O 0.5945(2) 1.2274(2) -0.0149(3)
O2 O 0.7815(2) 1.3745(2) 0.0941(3)
O3 O 0.4160(3) 1.0757(3) 0.2768(3)
H2 H 0.363(6) 1.012(4) 0.344(8)
H3 H 0.486(5) 1.124(5) 0.358(6)
H4 H 0.819(5) 0.755(5) 0.219(6)
N1B N 0.2747(3) 1.0298(3) -0.1321(4)
N2B N 0.0651(3) 0.9026(3) -0.2024(4)
N3B N 0.0509(3) 1.0530(3) -0.2490(4)
H1B H -0.050(4) 1.088(4) -0.317(5)
C1B C 0.2786(3) 0.7515(3) -0.0651(4)
C2B C 0.2020(3) 0.8940(4) -0.1323(4)
C3B C 0.1750(4) 1.1268(4) -0.2067(5)
O1B O 0.4055(2) 0.7726(2) 0.0149(3)
O2B O 0.2185(2) 0.6255(2) -0.0941(3)
O3B O 0.5840(3) 0.9243(3) -0.2768(3)
H2B H 0.637(6) 0.988(4) -0.344(8)
H3B H 0.514(5) 0.876(5) -0.358(6)
H4B H 0.181(5) 1.245(5) -0.219(6)
#END
