
#######################################################################
#
#                 Cambridge Crystallographic Data Centre
#                                CCDC
#
#######################################################################
#
# If this CIF has been generated from an entry in the Cambridge
# Structural Database, then it will include bibliographic, chemical,
# crystal, experimental, refinement or atomic coordinate data resulting
# from the CCDC's data processing and validation procedures.
#
#######################################################################

data_CSD_CIF_GIWNIL
_audit_creation_date 2014-01-31
_audit_creation_method CSD-ConQuest-V1
_database_code_CSD GIWNIL
_database_code_depnum_ccdc_archive 'CCDC 960198'
_chemical_formula_sum 'C13 H11 Cr1 N1 O6'
_chemical_formula_moiety
;
C13 H11 Cr1 N1 O6
;
_journal_coden_Cambridge 119
_journal_volume 1060
_journal_year 2014
_journal_page_first 111
_journal_name_full 'J.Mol.Struct. '
loop_
_publ_author_name
"S.Thompson"
"H.R.Wessels"
"R.Fraser"
"P.H.van Rooyen"
"D.C.Liles"
"M.Landman"
_chemical_name_systematic
;
Pentacarbonyl-(ethoxy(1-methyl-1H-pyrrol-2-yl)methylidene)-chromium
;
_cell_volume    715.957
_exptl_crystal_colour 'orange'
_exptl_crystal_density_diffrn 1.527
_exptl_crystal_description 'plate'
_diffrn_ambient_temperature 293
_refine_special_details
;
C10,N1 and C10A,N1A disordered over two sites with occupancies 0.967:0.033.

;
#These two values have been output from a single CSD field.
_refine_ls_R_factor_gt 0.0371
_refine_ls_wR_factor_gt 0.0371
_symmetry_cell_setting monoclinic
_symmetry_space_group_name_H-M 'P 21/m'
_symmetry_Int_Tables_number 11
loop_
_symmetry_equiv_pos_site_id
_symmetry_equiv_pos_as_xyz
1 x,y,z
2 -x,1/2+y,-z
3 -x,-y,-z
4 x,-1/2-y,z
_cell_length_a 9.5166(11)
_cell_length_b 7.8496(9)
_cell_length_c 9.6894(11)
_cell_angle_alpha 90
_cell_angle_beta 98.449(2)
_cell_angle_gamma 90
_cell_formula_units_Z 2
loop_
_atom_type_symbol
_atom_type_radius_bond
C 0.68
H 0.23
Cr 1.39
N 0.68
O 0.68
loop_
_atom_site_label
_atom_site_type_symbol
_atom_site_fract_x
_atom_site_fract_y
_atom_site_fract_z
Cr1 Cr 0.20544(4) 0.25000 0.19786(4)
C1 C 0.0515(4) 0.25000 0.0530(4)
O1 O -0.0418(3) 0.25000 -0.0362(3)
C2 C 0.1134(2) 0.0738(3) 0.2864(2)
O2 O 0.0571(2) -0.0336(3) 0.3348(2)
C3 C 0.2897(2) 0.0795(3) 0.0989(2)
O3 O 0.3331(2) -0.0235(3) 0.0334(2)
C4 C 0.3712(3) 0.25000 0.3680(3)
O4 O 0.5103(2) 0.25000 0.3639(2)
C5 C 0.3513(3) 0.25000 0.5117(3)
C6 C 0.2241(3) 0.25000 0.5684(3)
H1 H 0.13340 0.25000 0.51730
C7 C 0.2546(4) 0.25000 0.7124(4)
H2 H 0.18940 0.25000 0.77510
C8 C 0.3992(4) 0.25000 0.7446(4)
H3 H 0.44900 0.25000 0.83470
N1 N 0.4590(3) 0.25000 0.6278(3)
C9 C 0.6148(4) 0.25000 0.6307(4)
H4 H 0.66090 0.25000 0.72570
H5 H 0.64240 0.34990 0.58410
C10 C 0.5749(3) 0.25000 0.2392(4)
H6 H 0.54560 0.35020 0.18380
C11 C 0.7307(4) 0.25000 0.2795(4)
H7 H 0.77580 0.25000 0.19710
H8 H 0.75890 0.15010 0.33390
N2? N 0.625(5) 0.25000 0.457(5)
C12? C 0.757(7) 0.25000 0.401(6)
H9? H 0.64240 0.34990 0.58410
H10? H 0.54560 0.35020 0.18380
H11? H 0.75890 0.15010 0.33390
H5C H 0.64240 0.15010 0.58410
H6C H 0.54560 0.14980 0.18380
H8C H 0.75890 0.34990 0.33390
C2C C 0.1134(2) 0.4262(3) 0.2864(2)
O2C O 0.0571(2) 0.5336(3) 0.3348(2)
C3C C 0.2897(2) 0.4205(3) 0.0989(2)
O3C O 0.3331(2) 0.5235(3) 0.0334(2)
#END
