
#######################################################################
#
#                 Cambridge Crystallographic Data Centre
#                                CCDC
#
#######################################################################
#
# If this CIF has been generated from an entry in the Cambridge
# Structural Database, then it will include bibliographic, chemical,
# crystal, experimental, refinement or atomic coordinate data resulting
# from the CCDC's data processing and validation procedures.
#
#######################################################################

data_CSD_CIF_GIWPAF
_audit_creation_date 2014-01-31
_audit_creation_method CSD-ConQuest-V1
_database_code_CSD GIWPAF
_database_code_depnum_ccdc_archive 'CCDC 960200'
_chemical_formula_sum 'C11 H8 Cr1 N2 O5'
_chemical_formula_moiety
;
C11 H8 Cr1 N2 O5
;
_journal_coden_Cambridge 119
_journal_volume 1060
_journal_year 2014
_journal_page_first 111
_journal_name_full 'J.Mol.Struct. '
loop_
_publ_author_name
"S.Thompson"
"H.R.Wessels"
"R.Fraser"
"P.H.van Rooyen"
"D.C.Liles"
"M.Landman"
_chemical_name_systematic
;
Pentacarbonyl-(amino(1-methylpyrrol-2-yl)methylidene)-chromium
;
_cell_volume    650.403
_exptl_crystal_colour 'yellow'
_exptl_crystal_density_diffrn 1.533
_exptl_crystal_description 'parallelepiped'
_diffrn_ambient_temperature 293
#These two values have been output from a single CSD field.
_refine_ls_R_factor_gt 0.0364
_refine_ls_wR_factor_gt 0.0364
_symmetry_cell_setting triclinic
_symmetry_space_group_name_H-M 'P -1'
_symmetry_Int_Tables_number 2
loop_
_symmetry_equiv_pos_site_id
_symmetry_equiv_pos_as_xyz
1 x,y,z
2 -x,-y,-z
_cell_length_a 7.5681(10)
_cell_length_b 9.4560(13)
_cell_length_c 9.9896(14)
_cell_angle_alpha 102.852(2)
_cell_angle_beta 107.162(2)
_cell_angle_gamma 97.729(2)
_cell_formula_units_Z 2
loop_
_atom_type_symbol
_atom_type_radius_bond
C 0.68
H 0.23
Cr 1.39
N 0.68
O 0.68
loop_
_atom_site_label
_atom_site_type_symbol
_atom_site_fract_x
_atom_site_fract_y
_atom_site_fract_z
Cr1 Cr 0.68799(4) 0.77153(3) 0.28116(3)
C1 C 0.8366(3) 0.9093(3) 0.2284(3)
O1 O 0.9252(3) 0.9931(3) 0.1944(3)
C2 C 0.8977(3) 0.7250(2) 0.4065(2)
O2 O 1.0225(3) 0.6942(3) 0.4812(2)
C3 C 0.6978(3) 0.9266(2) 0.4403(3)
O3 O 0.7139(3) 1.0240(2) 0.5376(2)
C4 C 0.4578(3) 0.8046(3) 0.1595(3)
O4 O 0.3208(3) 0.8242(3) 0.0907(3)
C5 C 0.7097(3) 0.6256(3) 0.1245(2)
O5 O 0.7391(3) 0.5446(2) 0.0353(2)
C6 C 0.5068(3) 0.6176(2) 0.3305(2)
N1 N 0.3198(2) 0.3522(2) 0.2527(2)
C7 C 0.4851(3) 0.4579(2) 0.2849(2)
C8 C 0.6231(3) 0.3793(2) 0.2696(2)
H1 H 0.74810 0.42060 0.28360
C9 C 0.5433(4) 0.2281(3) 0.2298(3)
H2 H 0.60530 0.15070 0.21440
C10 C 0.3581(4) 0.2151(3) 0.2177(3)
H3 H 0.27060 0.12590 0.18960
C11 C 0.1271(3) 0.3748(3) 0.2273(3)
H4 H 0.11160 0.45560 0.18430
H5 H 0.10390 0.39780 0.31830
H6 H 0.03900 0.28600 0.16260
N2 N 0.3961(3) 0.6629(2) 0.4028(2)
H7 H 0.399(4) 0.751(3) 0.431(3)
H8 H 0.336(4) 0.607(3) 0.429(3)
#END
