
#######################################################################
#
#                 Cambridge Crystallographic Data Centre
#                                CCDC
#
#######################################################################
#
# If this CIF has been generated from an entry in the Cambridge
# Structural Database, then it will include bibliographic, chemical,
# crystal, experimental, refinement or atomic coordinate data resulting
# from the CCDC's data processing and validation procedures.
#
#######################################################################

data_CSD_CIF_GIWZUJ
_audit_creation_date 2014-01-31
_audit_creation_method CSD-ConQuest-V1
_database_code_CSD GIWZUJ
_database_code_depnum_ccdc_archive 'CCDC 841629'
_chemical_formula_sum 'C12 H16 Cl2 Co1 N4 O4'
_chemical_formula_moiety
;
C12 H16 Co1 N4 O4 2+,2(Cl1 1-)
;
_journal_coden_Cambridge 119
_journal_volume 1059
_journal_year 2014
_journal_page_first 108
_journal_name_full 'J.Mol.Struct. '
loop_
_publ_author_name
"Junhui Xue"
"Xiaohui Hua"
"Limin Yang"
"Weihong Li"
"Yizhuang Xu"
"Guozhong Zhao"
"Gaohui Zhang"
"Liming Liu"
"Kexin Liu"
"Jiaer Chen"
"Jinguang Wu"
_chemical_name_systematic
;
Diaqua-bis(pyridine-2-carboxamide)-cobalt(ii) dichloride
;
_cell_volume    795.430
_exptl_crystal_colour 'yellow'
_exptl_crystal_density_diffrn 1.713
_exptl_crystal_description 'block'
_diffrn_ambient_temperature 173
#These two values have been output from a single CSD field.
_refine_ls_R_factor_gt 0.0448
_refine_ls_wR_factor_gt 0.0448
_symmetry_cell_setting monoclinic
_symmetry_space_group_name_H-M 'P 21/n'
_symmetry_Int_Tables_number 14
loop_
_symmetry_equiv_pos_site_id
_symmetry_equiv_pos_as_xyz
1 x,y,z
2 1/2-x,1/2+y,1/2-z
3 -x,-y,-z
4 -1/2+x,-1/2-y,-1/2+z
_cell_length_a 6.336(3)
_cell_length_b 10.144(4)
_cell_length_c 12.412(5)
_cell_angle_alpha 90
_cell_angle_beta 94.370(7)
_cell_angle_gamma 90
_cell_formula_units_Z 2
loop_
_atom_type_symbol
_atom_type_radius_bond
C 0.68
H 0.23
Cl 0.99
Co 1.26
N 0.68
O 0.68
loop_
_atom_site_label
_atom_site_type_symbol
_atom_site_fract_x
_atom_site_fract_y
_atom_site_fract_z
Co1 Co 0.00000 1.00000 1.00000
O1 O 0.2035(3) 0.9533(2) 1.13861(16)
H1 H 0.20720 0.98960 1.19960
H2 H 0.25130 0.87790 1.15460
O2 O -0.1987(3) 0.84536(19) 1.03223(16)
N1 N 0.1351(4) 0.8461(2) 0.91965(18)
N2 N -0.2794(4) 0.6335(2) 0.9973(2)
H3 H -0.38710 0.63660 1.03800
H4 H -0.25010 0.55990 0.96400
C1 C 0.3107(4) 0.8531(3) 0.8667(2)
H5 H 0.39020 0.93250 0.86950
C2 C 0.3800(5) 0.7474(3) 0.8078(2)
H6 H 0.50420 0.75460 0.76990
C3 C 0.2649(5) 0.6313(3) 0.8052(2)
H7 H 0.30880 0.55790 0.76510
C4 C 0.0846(4) 0.6232(3) 0.8619(2)
H8 H 0.00420 0.54420 0.86200
C5 C 0.0251(4) 0.7324(3) 0.9180(2)
C6 C -0.1617(4) 0.7394(3) 0.9862(2)
Cl1 Cl 0.68058(11) 0.36287(6) 0.84491(5)
O1B O -0.2035(3) 1.0467(2) 0.86139(16)
H1B H -0.20720 1.01040 0.80040
H2B H -0.25130 1.12210 0.84540
O2B O 0.1987(3) 1.15464(19) 0.96777(16)
N1B N -0.1351(4) 1.1539(2) 1.08035(18)
N2B N 0.2794(4) 1.3665(2) 1.0027(2)
H3B H 0.38710 1.36340 0.96200
H4B H 0.25010 1.44010 1.03600
C1B C -0.3107(4) 1.1469(3) 1.1333(2)
H5B H -0.39020 1.06750 1.13050
C2B C -0.3800(5) 1.2526(3) 1.1922(2)
H6B H -0.50420 1.24540 1.23010
C3B C -0.2649(5) 1.3687(3) 1.1948(2)
H7B H -0.30880 1.44210 1.23490
C4B C -0.0846(4) 1.3768(3) 1.1381(2)
H8B H -0.00420 1.45580 1.13800
C5B C -0.0251(4) 1.2676(3) 1.0820(2)
C6B C 0.1617(4) 1.2606(3) 1.0138(2)
#END
