
#######################################################################
#
#                 Cambridge Crystallographic Data Centre
#                                CCDC
#
#######################################################################
#
# If this CIF has been generated from an entry in the Cambridge
# Structural Database, then it will include bibliographic, chemical,
# crystal, experimental, refinement or atomic coordinate data resulting
# from the CCDC's data processing and validation procedures.
#
#######################################################################

data_CSD_CIF_GIYXES
_audit_creation_date 2008-06-25
_audit_creation_method CSD-ConQuest-V1
_database_code_CSD GIYXES
_database_code_depnum_ccdc_archive 'CCDC 683717'
_chemical_formula_sum 'C19 H22 Fe1 N2 O2'
_chemical_formula_moiety
;
C19 H22 Fe1 N2 O2
;
_journal_coden_Cambridge 35
_journal_volume 73
_journal_year 2008
_journal_page_first 1508
_journal_name_full 'J.Org.Chem. '
loop_
_publ_author_name
"A.N.Patwa"
"S.Gupta"
"R.G.Gonnade"
"V.A.Kumar"
"M.M.Bhadbhade"
"K.N.Ganesh"
_chemical_name_systematic
;
1-(4-(Thyminyl)butyl)ferrocene
;
_chemical_melting_point 472.15
_cell_volume    842.426
_exptl_crystal_colour 'orange'
_exptl_crystal_density_diffrn 1.444
_exptl_special_details
;
Melting point range 472.15-473.15K

;
_exptl_crystal_description 'plate'
_diffrn_ambient_temperature 297
#These two values have been output from a single CSD field.
_refine_ls_R_factor_gt 0.0363
_refine_ls_wR_factor_gt 0.0363
_symmetry_cell_setting triclinic
_symmetry_space_group_name_H-M 'P -1'
_symmetry_Int_Tables_number 2
loop_
_symmetry_equiv_pos_site_id
_symmetry_equiv_pos_as_xyz
1 x,y,z
2 -x,-y,-z
_cell_length_a 7.588(3)
_cell_length_b 9.813(5)
_cell_length_c 12.300(6)
_cell_angle_alpha 67.192(7)
_cell_angle_beta 89.527(8)
_cell_angle_gamma 86.364(8)
_cell_formula_units_Z 2
loop_
_atom_type_symbol
_atom_type_radius_bond
C 0.68
H 0.23
Fe 1.34
N 0.68
O 0.68
loop_
_atom_site_label
_atom_site_type_symbol
_atom_site_fract_x
_atom_site_fract_y
_atom_site_fract_z
Fe1 Fe 0.50097(4) 0.38097(4) 0.25378(3)
N1 N -0.1033(3) 0.2245(2) 0.77300(17)
N2 N -0.3290(3) 0.0965(2) 0.88604(18)
O1 O -0.3332(3) 0.1617(2) 0.68750(15)
O2 O -0.3352(2) 0.0261(2) 1.08395(14)
C1 C -0.2605(3) 0.1613(3) 0.7748(2)
C2 C -0.2613(3) 0.0918(2) 0.9904(2)
C3 C -0.1021(3) 0.1680(2) 0.9809(2)
C4 C -0.0316(3) 0.2276(3) 0.8735(2)
C5 C -0.0258(4) 0.1772(3) 1.0893(2)
H1 H 0.07840 0.23190 1.06920
H2 H 0.00440 0.07910 1.14630
H3 H -0.11100 0.22660 1.12200
C6 C -0.0161(4) 0.2939(3) 0.6581(2)
C7 C 0.0861(4) 0.1859(3) 0.6191(3)
C8 C 0.1631(4) 0.2666(3) 0.4979(2)
C9 C 0.2386(4) 0.1668(3) 0.4392(3)
C10 C 0.2936(3) 0.2477(3) 0.3139(2)
C11 C 0.4110(4) 0.1921(3) 0.2485(2)
C12 C 0.4220(4) 0.3024(3) 0.1329(2)
C13 C 0.3125(4) 0.4255(3) 0.1258(2)
C14 C 0.2332(3) 0.3933(3) 0.2369(2)
C15 C 0.6434(4) 0.3689(4) 0.3963(3)
C16 C 0.5675(4) 0.5121(4) 0.3393(3)
C17 C 0.6298(4) 0.5680(3) 0.2233(3)
C18 C 0.7451(3) 0.4584(3) 0.2097(3)
C19 C 0.7541(4) 0.3345(4) 0.3157(3)
H4 H -0.411(3) 0.064(3) 0.891(2)
H5 H 0.067(4) 0.275(3) 0.860(2)
H6 H 0.055(3) 0.367(3) 0.664(2)
H7 H -0.103(4) 0.347(3) 0.605(2)
H8 H 0.168(4) 0.135(3) 0.672(3)
H9 H 0.009(4) 0.111(4) 0.618(3)
H10 H 0.246(4) 0.326(3) 0.506(2)
H11 H 0.067(4) 0.338(3) 0.442(3)
H12 H 0.336(4) 0.101(3) 0.487(3)
H13 H 0.160(4) 0.101(3) 0.437(3)
H14 H 0.465(4) 0.105(3) 0.277(2)
H15 H 0.496(4) 0.290(3) 0.074(3)
H16 H 0.298(4) 0.516(3) 0.061(3)
H17 H 0.160(3) 0.456(3) 0.255(2)
H18 H 0.624(4) 0.318(3) 0.457(3)
H19 H 0.491(5) 0.560(4) 0.367(3)
H20 H 0.598(4) 0.658(3) 0.166(3)
H21 H 0.803(4) 0.466(3) 0.145(2)
H22 H 0.813(4) 0.253(3) 0.326(2)
#END
