
#######################################################################
#
#                 Cambridge Crystallographic Data Centre
#                                CCDC
#
#######################################################################
#
# If this CIF has been generated from an entry in the Cambridge
# Structural Database, then it will include bibliographic, chemical,
# crystal, experimental, refinement or atomic coordinate data resulting
# from the CCDC's data processing and validation procedures.
#
#######################################################################

data_CSD_CIF_GIYXIW
_audit_creation_date 2008-06-25
_audit_creation_method CSD-ConQuest-V1
_database_code_CSD GIYXIW
_database_code_depnum_ccdc_archive 'CCDC 683718'
_chemical_formula_sum 'C18 H20 Fe1 N2 O2'
_chemical_formula_moiety
;
C18 H20 Fe1 N2 O2
;
_journal_coden_Cambridge 35
_journal_volume 73
_journal_year 2008
_journal_page_first 1508
_journal_name_full 'J.Org.Chem. '
loop_
_publ_author_name
"A.N.Patwa"
"S.Gupta"
"R.G.Gonnade"
"V.A.Kumar"
"M.M.Bhadbhade"
"K.N.Ganesh"
_chemical_name_systematic
;
1-(4-(Uracyl)butyl)ferrocene
;
_chemical_melting_point 419.15
_cell_volume    802.573
_exptl_crystal_colour 'orange'
_exptl_crystal_density_diffrn 1.457
_exptl_special_details
;
Melting point range 419.15-420.15K

;
_exptl_crystal_description 'plate'
_diffrn_ambient_temperature 297
#These two values have been output from a single CSD field.
_refine_ls_R_factor_gt 0.0587
_refine_ls_wR_factor_gt 0.0587
_symmetry_cell_setting triclinic
_symmetry_space_group_name_H-M 'P -1'
_symmetry_Int_Tables_number 2
loop_
_symmetry_equiv_pos_site_id
_symmetry_equiv_pos_as_xyz
1 x,y,z
2 -x,-y,-z
_cell_length_a 7.376(2)
_cell_length_b 9.785(3)
_cell_length_c 11.757(3)
_cell_angle_alpha 108.301(5)
_cell_angle_beta 94.061(6)
_cell_angle_gamma 91.481(6)
_cell_formula_units_Z 2
loop_
_atom_type_symbol
_atom_type_radius_bond
C 0.68
H 0.23
Fe 1.34
N 0.68
O 0.68
loop_
_atom_site_label
_atom_site_type_symbol
_atom_site_fract_x
_atom_site_fract_y
_atom_site_fract_z
Fe1 Fe 0.95878(8) 0.16096(7) -0.24578(5)
O1 O 0.1439(4) 0.3009(3) 0.1931(3)
O2 O 0.1773(4) 0.4794(3) 0.5991(2)
N1 N 0.3999(5) 0.2614(4) 0.2967(3)
N2 N 0.1641(4) 0.3839(3) 0.3967(3)
H1 H 0.05800 0.41780 0.39370
C1 C 0.2286(6) 0.3138(4) 0.2881(4)
C2 C 0.2479(6) 0.4069(4) 0.5098(4)
C3 C 0.4179(5) 0.3393(5) 0.5100(4)
H2 H 0.48010 0.34160 0.58220
C4 C 0.4867(6) 0.2729(5) 0.4057(4)
H3 H 0.59930 0.23270 0.40760
C5 C 0.4861(6) 0.1949(5) 0.1836(4)
H4 H 0.39520 0.13530 0.12370
H5 H 0.57960 0.13300 0.19800
C6 C 0.5699(6) 0.3052(5) 0.1353(4)
H6 H 0.66900 0.35890 0.19160
H7 H 0.47940 0.37260 0.12760
C7 C 0.6421(6) 0.2342(5) 0.0129(4)
H8 H 0.74360 0.17690 0.02320
H9 H 0.54720 0.16940 -0.03940
C8 C 0.7039(6) 0.3413(5) -0.0472(4)
H10 H 0.61020 0.41000 -0.04340
H11 H 0.81270 0.39430 -0.00190
C9 C 0.7440(5) 0.2763(5) -0.1760(4)
C10 C 0.6813(5) 0.1396(5) -0.2544(4)
H12 H 0.61120 0.06670 -0.23220
C11 C 0.7418(6) 0.1232(6) -0.3695(4)
H13 H 0.71900 0.03820 -0.44100
C12 C 0.8396(6) 0.2518(6) -0.3626(4)
H14 H 0.89670 0.27210 -0.42870
C13 C 0.8402(6) 0.3461(5) -0.2439(4)
H15 H 0.89890 0.44310 -0.21320
C14 C 1.1355(7) 0.1578(8) -0.1070(5)
H16 H 1.12400 0.20770 -0.02160
C15 C 1.2240(7) 0.2144(7) -0.1877(5)
H17 H 1.28440 0.31030 -0.16800
C16 C 1.2101(7) 0.1095(8) -0.2979(5)
H18 H 1.25830 0.11840 -0.37090
C17 C 1.1161(9) -0.0113(7) -0.2891(6)
H19 H 1.08730 -0.10170 -0.35460
C18 C 1.0702(8) 0.0178(7) -0.1716(6)
H20 H 1.00350 -0.04820 -0.13980
#END
