
#######################################################################
#
#                 Cambridge Crystallographic Data Centre
#                                CCDC
#
#######################################################################
#
# If this CIF has been generated from an entry in the Cambridge
# Structural Database, then it will include bibliographic, chemical,
# crystal, experimental, refinement or atomic coordinate data resulting
# from the CCDC's data processing and validation procedures.
#
#######################################################################

data_CSD_CIF_GOCSIA01
_audit_creation_date 2005-09-14
_audit_creation_method CSD-ConQuest-V1
_database_code_CSD GOCSIA01
_database_code_depnum_ccdc_archive 'CCDC 253077'
_chemical_formula_sum 'C12 H32 Fe1 N5 O16'
_chemical_formula_moiety
;
5(H4 N1 1+),C12 H8 Fe1 O14 5-,2(H2 O1)
;
_journal_coden_Cambridge 1220
_journal_volume 11
_journal_year 2005
_journal_page_first 2207
_journal_name_full 'Chem.-Eur.J. '
loop_
_publ_author_name
"I.Gautier-Luneau"
"C.Merle"
"D.Phanon"
"C.Lebrun"
"F.Biaso"
"G.Serratrice"
"J.-L.Pierre"
_chemical_name_systematic
;
Pentammonium bis(citrato)-iron(iii) dihydrate
;
_cell_volume    553.769
_exptl_crystal_colour 'yellow'
_exptl_crystal_density_diffrn 1.674
_exptl_special_details
;
isostructural with the Al, Ga and Mn analogues

;
_exptl_crystal_description 'parallelepiped'
_diffrn_ambient_temperature 173.2
_refine_special_details
;
The structure is disordered.

;
#These two values have been output from a single CSD field.
_refine_ls_R_factor_gt 0.0357
_refine_ls_wR_factor_gt 0.0357
_symmetry_cell_setting triclinic
_symmetry_space_group_name_H-M 'P -1'
_symmetry_Int_Tables_number 2
loop_
_symmetry_equiv_pos_site_id
_symmetry_equiv_pos_as_xyz
1 x,y,z
2 -x,-y,-z
_cell_length_a 7.239(1)
_cell_length_b 9.547(1)
_cell_length_c 9.619(1)
_cell_angle_alpha 118.45(1)
_cell_angle_beta 91.16(1)
_cell_angle_gamma 105.73(1)
_cell_formula_units_Z 1
loop_
_atom_type_symbol
_atom_type_radius_bond
C 0.68
H 0.23
Fe 1.34
N 0.68
O 0.68
loop_
_atom_site_label
_atom_site_type_symbol
_atom_site_fract_x
_atom_site_fract_y
_atom_site_fract_z
Fe1 Fe 0.00000 0.00000 0.00000
O1 O -0.0961(1) -0.0059(1) 0.1974(1)
O2 O -0.1208(1) 0.0861(1) 0.4522(1)
O3 O 0.2199(1) 0.19517(9) 0.14470(9)
O4 O 0.2001(2) 0.5187(1) 0.1101(1)
O5 O 0.5035(2) 0.6572(1) 0.2470(1)
O6 O -0.1231(1) 0.1761(1) 0.0395(1)
O7 O -0.1453(1) 0.3973(1) 0.2585(1)
C1 C -0.0488(2) 0.1079(1) 0.3456(1)
C2 C 0.1028(2) 0.2753(1) 0.3954(1)
C3 C 0.1436(1) 0.3148(1) 0.2601(1)
C4 C 0.2898(2) 0.4914(1) 0.3335(1)
C5 C 0.3339(2) 0.5553(1) 0.2166(1)
C6 C -0.0541(2) 0.3013(1) 0.1813(1)
H1 H 0.06470 0.36750 0.48760
H2 H 0.21660 0.27410 0.43770
H3 H 0.23730 0.57630 0.41990
H4 H 0.39900 0.48790 0.36870
O8 O 0.50000 0.00000 0.50000
H5 H 0.62560 0.03340 0.50840
N1 N 0.5100(2) 0.2223(1) -0.0354(1)
H6 H 0.59090 0.26860 0.02100
H7 H 0.51530 0.26700 -0.09590
H8 H 0.41240 0.22870 0.02730
H9 H 0.50700 0.12290 -0.08970
N2 N 0.0915(2) 0.2969(1) -0.2273(1)
H10 H 0.02990 0.23230 -0.32030
H11 H 0.07340 0.23650 -0.18630
H12 H 0.04620 0.36990 -0.17360
H13 H 0.20650 0.32890 -0.22220
N3 N 0.5059(5) 0.1264(4) 0.2640(4)
H14 H 0.48890 0.02650 0.19630
H15 H 0.41570 0.13510 0.22480
H16 H 0.50490 0.16800 0.35560
H17 H 0.60150 0.19120 0.25850
O9? O 0.5058(2) 0.1262(2) 0.2638(2)
H18? H 0.50180 0.11220 0.58380
O1A O 0.0961(1) 0.0059(1) -0.1974(1)
O2A O 0.1208(1) -0.0861(1) -0.4522(1)
O3A O -0.2199(1) -0.19517(9) -0.14470(9)
O4A O -0.2001(2) -0.5187(1) -0.1101(1)
O5A O -0.5035(2) -0.6572(1) -0.2470(1)
O6A O 0.1231(1) -0.1761(1) -0.0395(1)
O7A O 0.1453(1) -0.3973(1) -0.2585(1)
C1A C 0.0488(2) -0.1079(1) -0.3456(1)
C2A C -0.1028(2) -0.2753(1) -0.3954(1)
C3A C -0.1436(1) -0.3148(1) -0.2601(1)
C4A C -0.2898(2) -0.4914(1) -0.3335(1)
C5A C -0.3339(2) -0.5553(1) -0.2166(1)
C6A C 0.0541(2) -0.3013(1) -0.1813(1)
H1A H -0.06470 -0.36750 -0.48760
H2A H -0.21660 -0.27410 -0.43770
H3A H -0.23730 -0.57630 -0.41990
H4A H -0.39900 -0.48790 -0.36870
H5A H 0.37440 -0.03340 0.49160
#END
