
#######################################################################
#
#                 Cambridge Crystallographic Data Centre
#                                CCDC
#
#######################################################################
#
# If this CIF has been generated from an entry in the Cambridge
# Structural Database, then it will include bibliographic, chemical,
# crystal, experimental, refinement or atomic coordinate data resulting
# from the CCDC's data processing and validation procedures.
#
#######################################################################

data_CSD_CIF_GODDOS
_audit_creation_date 1999-05-03
_audit_creation_method CSD-ConQuest-V1
_database_code_CSD GODDOS
_database_code_depnum_ccdc_archive 'CCDC 131054'
_chemical_formula_sum 'C12 H14 Co1 N4 O6'
_chemical_formula_moiety
;
C12 H14 Co1 N4 O6
;
_journal_coeditor_code "IUCr DA1037"
_journal_coden_Cambridge 591
_journal_volume 55
_journal_year 1999
_journal_page_first 302
_journal_name_full 'Acta Crystallogr.,Sect.C:Cryst.Struct.Commun. '
loop_
_publ_author_name
"N.Okabe"
"Yu.Adachi"
_chemical_name_systematic
;
bis(2-Hydroxy-3-(1H-imidazol-4-yl)-propionato)-cobalt(ii)
;
_cell_volume    743.705
_exptl_crystal_colour 'brown'
_exptl_crystal_density_diffrn 1.649
_exptl_special_details
;
The ligand has inhibitory activity against cholinesterase and monoamine 
oxidase
;
_exptl_crystal_description 'pillar'
_diffrn_ambient_temperature ?
_diffrn_special_details
;
The study was carried out at room temperature,in the range 283-303K

;
#These two values have been output from a single CSD field.
_refine_ls_R_factor_gt 0.032
_refine_ls_wR_factor_gt 0.032
_symmetry_cell_setting orthorhombic
_symmetry_space_group_name_H-M 'P 21 21 2'
_symmetry_Int_Tables_number 18
loop_
_symmetry_equiv_pos_site_id
_symmetry_equiv_pos_as_xyz
1 x,y,z
2 -x,-y,z
3 1/2+x,1/2-y,-z
4 1/2-x,1/2+y,-z
_cell_length_a 10.735(2)
_cell_length_b 13.310(2)
_cell_length_c 5.205(1)
_cell_angle_alpha 90
_cell_angle_beta 90
_cell_angle_gamma 90
_cell_formula_units_Z 2
loop_
_atom_type_symbol
_atom_type_radius_bond
C 0.68
H 0.23
Co 1.33
N 0.68
O 0.68
loop_
_atom_site_label
_atom_site_type_symbol
_atom_site_fract_x
_atom_site_fract_y
_atom_site_fract_z
Co1 Co 0.00000 0.50000 0.24429(7)
O1 O -0.3545(2) 0.4676(1) 0.5095(4)
O2 O -0.1566(2) 0.5156(2) 0.4873(4)
O3 O -0.1520(2) 0.5129(3) -0.0075(3)
N1 N -0.0232(2) 0.1864(2) 0.3743(5)
N2 N -0.0353(2) 0.3446(1) 0.2558(4)
C1 C 0.0346(2) 0.2758(2) 0.3679(6)
C2 C -0.1453(2) 0.2964(2) 0.1871(5)
C3 C -0.1371(2) 0.1987(2) 0.2619(6)
C4 C -0.2494(2) 0.3483(2) 0.0480(5)
C5 C -0.2568(2) 0.4612(2) 0.1007(5)
C6 C -0.2584(2) 0.4831(2) 0.3898(4)
H1 H 0.00900 0.12590 0.44390
H2 H 0.11540 0.28800 0.43560
H3 H -0.19900 0.14830 0.23900
H4 H -0.23770 0.33870 -0.13090
H5 H -0.32570 0.31850 0.09980
H6 H -0.33100 0.48710 0.02620
H7 H -0.14520 0.50830 -0.17800
O2A O 0.1566(2) 0.4844(2) 0.4873(4)
C6A C 0.2584(2) 0.5169(2) 0.3898(4)
O1A O 0.3545(2) 0.5324(1) 0.5095(4)
C5A C 0.2568(2) 0.5388(2) 0.1007(5)
O3A O 0.1520(2) 0.4871(3) -0.0075(3)
N2A N 0.0353(2) 0.6554(1) 0.2558(4)
C1A C -0.0346(2) 0.7242(2) 0.3679(6)
N1A N 0.0232(2) 0.8136(2) 0.3743(5)
C3A C 0.1371(2) 0.8013(2) 0.2619(6)
C2A C 0.1453(2) 0.7036(2) 0.1871(5)
C4A C 0.2494(2) 0.6517(2) 0.0480(5)
H6A H 0.33100 0.51290 0.02620
H4A H 0.23770 0.66130 -0.13090
H5A H 0.32570 0.68150 0.09980
H3A H 0.19900 0.85170 0.23900
H1A H -0.00900 0.87410 0.44390
H2A H -0.11540 0.71200 0.43560
H7A H 0.14520 0.49170 -0.17800
#END
