
#######################################################################
#
#                 Cambridge Crystallographic Data Centre
#                                CCDC
#
#######################################################################
#
# If this CIF has been generated from an entry in the Cambridge
# Structural Database, then it will include bibliographic, chemical,
# crystal, experimental, refinement or atomic coordinate data resulting
# from the CCDC's data processing and validation procedures.
#
#######################################################################

data_CSD_CIF_GODLIV
_audit_creation_date 2008-11-13
_audit_creation_method CSD-ConQuest-V1
_database_code_CSD GODLIV
_database_code_depnum_ccdc_archive 'CCDC 649875'
_chemical_formula_sum 'C11 H7 Cr1 N1 O5'
_chemical_formula_moiety
;
C11 H7 Cr1 N1 O5
;
_journal_coden_Cambridge 1003
_journal_volume 38
_journal_year 2008
_journal_page_first 541
_journal_name_full 'J.Chem.Cryst. '
loop_
_publ_author_name
"I.A.Morkan"
"A.U.Morkan"
"C.Tuc"
"E.Kendi"
_chemical_name_systematic
;
Pentacarbonyl-(4-methylpyridine)-chromium(0)
;
_cell_volume   1277.451
_exptl_crystal_colour 'yellow'
_exptl_crystal_density_diffrn 1.467
_exptl_crystal_description 'prism'
_exptl_crystal_preparation 'dichloromethane/n-hexane'
_diffrn_ambient_temperature 291
#These two values have been output from a single CSD field.
_refine_ls_R_factor_gt 0.0601
_refine_ls_wR_factor_gt 0.0601
_symmetry_cell_setting orthorhombic
_symmetry_space_group_name_H-M 'C m c m'
_symmetry_Int_Tables_number 63
loop_
_symmetry_equiv_pos_site_id
_symmetry_equiv_pos_as_xyz
1 x,y,z
2 1/2+x,1/2+y,z
3 -x,-y,1/2+z
4 x,-y,-z
5 -x,y,1/2-z
6 1/2-x,1/2-y,1/2+z
7 1/2+x,1/2-y,-z
8 1/2-x,1/2+y,1/2-z
9 -x,-y,-z
10 -1/2-x,-1/2-y,-z
11 x,y,-1/2-z
12 -x,y,z
13 x,-y,-1/2+z
14 -1/2+x,-1/2+y,-1/2-z
15 -1/2-x,-1/2+y,z
16 -1/2+x,-1/2-y,-1/2+z
_cell_length_a 11.737(1)
_cell_length_b 12.857(2)
_cell_length_c 8.4654(10)
_cell_angle_alpha 90
_cell_angle_beta 90
_cell_angle_gamma 90
_cell_formula_units_Z 4
loop_
_atom_type_symbol
_atom_type_radius_bond
C 0.68
H 0.23
Cr 1.35
N 0.68
O 0.68
loop_
_atom_site_label
_atom_site_type_symbol
_atom_site_fract_x
_atom_site_fract_y
_atom_site_fract_z
Cr1 Cr 0.50000 0.34916(8) 0.25000
N1 N 0.50000 0.1813(4) 0.25000
C1 C 0.50000 0.4904(7) 0.25000
C2 C 0.6139(4) 0.3535(3) 0.4070(6)
O1 O 0.50000 0.5813(4) 0.25000
O2 O 0.6844(3) 0.3632(2) 0.4978(5)
C3 C 0.4059(6) 0.1262(5) 0.25000
C4 C 0.50000 -0.0370(6) 0.25000
C5 C 0.4026(6) 0.0189(5) 0.25000
C6 C 0.50000 -0.1558(6) 0.25000
H1 H 0.344(5) 0.161(3) 0.25000
H2 H 0.326(6) -0.009(6) 0.25000
C2J C 0.6139(4) 0.3535(3) 0.0930(6)
C2K C 0.3861(4) 0.3535(3) 0.4070(6)
C2D C 0.3861(4) 0.3535(3) 0.0930(6)
O2J O 0.6844(3) 0.3632(2) 0.0022(5)
O2K O 0.3156(3) 0.3632(2) 0.4978(5)
O2D O 0.3156(3) 0.3632(2) 0.0022(5)
C3K C 0.5941(6) 0.1262(5) 0.25000
C5K C 0.5974(6) 0.0189(5) 0.25000
H1K H 0.656(5) 0.161(3) 0.25000
H2K H 0.674(6) -0.009(6) 0.25000
#END
