
#######################################################################
#
#                 Cambridge Crystallographic Data Centre
#                                CCDC
#
#######################################################################
#
# If this CIF has been generated from an entry in the Cambridge
# Structural Database, then it will include bibliographic, chemical,
# crystal, experimental, refinement or atomic coordinate data resulting
# from the CCDC's data processing and validation procedures.
#
#######################################################################

data_CSD_CIF_GOGDUC
_audit_creation_date 2008-11-13
_audit_creation_method CSD-ConQuest-V1
_database_code_CSD GOGDUC
_database_code_depnum_ccdc_archive 'CCDC 705939'
_chemical_formula_sum 'C19 H15 Fe1 N1 O3'
_chemical_formula_moiety
;
C19 H15 Fe1 N1 O3
;
_journal_coeditor_code "IUCr OM2257"
_journal_coden_Cambridge 1370
_journal_volume 64
_journal_year 2008
_journal_page_first m1241
_journal_name_full 'Acta Crystallogr.,Sect.E:Struct.Rep.Online '
loop_
_publ_author_name
"Yong-Hong Liu"
"Jun Ye"
"Xiao-Lan Liu"
"Wen-Long Liu"
"Yao-Cheng Shi"
_chemical_name_systematic
;
(E)-1-Ferrocenyl-3-(3-nitrophenyl)prop-2-en-1-one
;
_chemical_melting_point 463
_cell_volume    772.992
_exptl_crystal_colour 'red'
_exptl_crystal_density_diffrn 1.552
_exptl_crystal_description 'block'
_exptl_crystal_preparation 'ethanol'
_diffrn_ambient_temperature 296
#These two values have been output from a single CSD field.
_refine_ls_R_factor_gt 0.0433
_refine_ls_wR_factor_gt 0.0433
_symmetry_cell_setting triclinic
_symmetry_space_group_name_H-M 'P -1'
_symmetry_Int_Tables_number 2
loop_
_symmetry_equiv_pos_site_id
_symmetry_equiv_pos_as_xyz
1 x,y,z
2 -x,-y,-z
_cell_length_a 5.8691(7)
_cell_length_b 10.8636(12)
_cell_length_c 12.6193(14)
_cell_angle_alpha 77.038(2)
_cell_angle_beta 81.562(2)
_cell_angle_gamma 83.565(2)
_cell_formula_units_Z 2
loop_
_atom_type_symbol
_atom_type_radius_bond
C 0.68
H 0.23
Fe 1.34
N 0.68
O 0.68
loop_
_atom_site_label
_atom_site_type_symbol
_atom_site_fract_x
_atom_site_fract_y
_atom_site_fract_z
Fe1 Fe 0.23081(5) 0.97010(3) 0.73142(2)
O1 O -0.2073(4) 0.3484(2) 1.52513(15)
O2 O 0.1462(3) 0.3394(2) 1.44848(15)
O3 O 0.5123(3) 0.67292(17) 0.89307(14)
N1 N -0.0581(4) 0.37596(19) 1.44662(16)
C1 C -0.2608(4) 0.6133(2) 1.1575(2)
H1 H -0.30720 0.66580 1.09410
C2 C -0.4195(5) 0.5856(2) 1.2499(2)
H2 H -0.57110 0.62100 1.24820
C3 C -0.3572(4) 0.5063(2) 1.3449(2)
H3 H -0.46500 0.48670 1.40670
C4 C -0.1309(5) 0.4573(2) 1.34520(18)
C5 C 0.0351(4) 0.4822(2) 1.25377(18)
H4 H 0.18600 0.44590 1.25610
C6 C -0.0307(4) 0.5631(2) 1.15843(18)
C7 C 0.1479(4) 0.5950(2) 1.06407(18)
H5 H 0.29180 0.54990 1.06830
C8 C 0.1221(4) 0.6825(2) 0.97330(19)
H6 H -0.01980 0.72940 0.96730
C9 C 0.3099(4) 0.7080(2) 0.88167(19)
C10 C 0.2434(4) 0.7779(2) 0.77460(18)
C11 C 0.0152(4) 0.8290(2) 0.74917(19)
H7 H -0.12200 0.81880 0.79630
C12 C 0.0394(4) 0.8981(2) 0.63821(19)
H8 H -0.08030 0.94110 0.60030
C13 C 0.2780(4) 0.8900(2) 0.59541(19)
H9 H 0.34060 0.92670 0.52480
C14 C 0.4033(4) 0.8164(2) 0.67886(18)
H10 H 0.56230 0.79650 0.67250
C15 C 0.3201(6) 1.0342(3) 0.8590(2)
H11 H 0.36040 0.98380 0.92450
C16 C 0.0932(5) 1.0845(2) 0.8380(2)
H12 H -0.04100 1.07320 0.88720
C17 C 0.1083(5) 1.1552(2) 0.7285(2)
H13 H -0.01510 1.19790 0.69320
C18 C 0.3411(5) 1.1497(2) 0.6821(2)
H14 H 0.39820 1.18870 0.61120
C19 C 0.4750(5) 1.0740(3) 0.7625(3)
H15 H 0.63400 1.05440 0.75350
#END
