
#######################################################################
#
#                 Cambridge Crystallographic Data Centre
#                                CCDC
#
#######################################################################
#
# If this CIF has been generated from an entry in the Cambridge
# Structural Database, then it will include bibliographic, chemical,
# crystal, experimental, refinement or atomic coordinate data resulting
# from the CCDC's data processing and validation procedures.
#
#######################################################################

data_CSD_CIF_GOGJOC
_audit_creation_date 2008-11-13
_audit_creation_method CSD-ConQuest-V1
_database_code_CSD GOGJOC
_database_code_depnum_ccdc_archive 'CCDC 706009'
_chemical_formula_sum 'C8 H18 Mn1 N8 O7'
_chemical_formula_moiety
;
C8 H14 Mn1 N8 O5,2(H2 O1)
;
_journal_coeditor_code "IUCr EZ2139"
_journal_coden_Cambridge 1370
_journal_volume 64
_journal_year 2008
_journal_page_first m1255
_journal_name_full 'Acta Crystallogr.,Sect.E:Struct.Rep.Online '
loop_
_publ_author_name
"Yuanqi Lu"
_chemical_name_systematic
;
Pentaaqua-(5,5'-(m-phenylene)ditetrazolato)-manganese(ii) dihydrate
;
_cell_volume    772.104
_exptl_crystal_colour 'yellow'
_exptl_crystal_density_diffrn 1.691
_exptl_crystal_description 'plate'
_diffrn_ambient_temperature 296
#These two values have been output from a single CSD field.
_refine_ls_R_factor_gt 0.038
_refine_ls_wR_factor_gt 0.038
_symmetry_cell_setting triclinic
_symmetry_space_group_name_H-M 'P -1'
_symmetry_Int_Tables_number 2
loop_
_symmetry_equiv_pos_site_id
_symmetry_equiv_pos_as_xyz
1 x,y,z
2 -x,-y,-z
_cell_length_a 6.5932(1)
_cell_length_b 10.0711(2)
_cell_length_c 12.9857(3)
_cell_angle_alpha 68.296(1)
_cell_angle_beta 77.213(3)
_cell_angle_gamma 77.280(5)
_cell_formula_units_Z 2
loop_
_atom_type_symbol
_atom_type_radius_bond
C 0.68
H 0.23
Mn 1.35
N 0.68
O 0.68
loop_
_atom_site_label
_atom_site_type_symbol
_atom_site_fract_x
_atom_site_fract_y
_atom_site_fract_z
Mn1 Mn 0.11390(6) 0.68638(4) 0.58413(3)
O1 O 0.3923(3) 0.7734(2) 0.57901(16)
O2 O -0.1155(4) 0.8808(2) 0.58408(19)
O3 O 0.0794(3) 0.6043(2) 0.76359(15)
O4 O -0.1679(4) 0.6027(2) 0.59456(18)
O5 O 0.3064(5) 0.4784(2) 0.5795(2)
N1 N 0.1613(3) 0.90491(19) 0.31988(14)
N2 N 0.1633(3) 0.76902(19) 0.39242(14)
N3 N 0.1980(3) 0.6792(2) 0.33621(15)
N4 N 0.2200(3) 0.75287(19) 0.22651(15)
N5 N 0.3286(3) 0.9471(2) -0.21040(15)
N6 N 0.3651(3) 0.9732(2) -0.32077(16)
N7 N 0.3610(3) 1.1128(2) -0.37435(16)
N8 N 0.3223(3) 1.1812(2) -0.29911(15)
C1 C 0.1974(3) 0.8914(2) 0.21865(17)
C2 C 0.2128(3) 1.0130(2) 0.11148(17)
C3 C 0.2001(4) 1.1526(2) 0.11091(19)
H1 H 0.17960 1.16990 0.17830
C4 C 0.2177(4) 1.2662(2) 0.0105(2)
H2 H 0.20770 1.35970 0.01050
C5 C 0.2501(4) 1.2411(2) -0.09028(19)
H3 H 0.26270 1.31780 -0.15760
C6 C 0.2640(3) 1.1024(2) -0.09143(17)
C7 C 0.2443(3) 0.9883(2) 0.00989(17)
H4 H 0.25230 0.89500 0.00980
C8 C 0.3031(3) 1.0766(2) -0.19900(17)
H5 H 0.455(5) 0.808(3) 0.519(3)
H6 H -0.180(5) 0.511(4) 0.613(3)
H7 H 0.306(6) 0.402(4) 0.620(3)
H8 H 0.378(5) 0.838(4) 0.608(3)
H9 H -0.124(5) 0.933(4) 0.614(3)
H10 H -0.018(5) 0.560(3) 0.800(3)
H11 H 0.149(5) 0.615(4) 0.806(3)
H12 H -0.261(6) 0.645(4) 0.597(3)
H13 H -0.179(7) 0.908(5) 0.539(4)
H14 H 0.396(10) 0.477(7) 0.567(5)
O6 O 0.2643(3) 0.5392(2) 0.12086(18)
H15 H 0.254(5) 0.602(4) 0.148(3)
H16 H 0.286(8) 0.554(5) 0.070(4)
O7 O 0.6605(4) 0.3559(3) 0.11514(17)
H17 H 0.659(5) 0.278(4) 0.135(3)
H18 H 0.588(10) 0.394(6) 0.126(5)
#END
