
#######################################################################
#
#                 Cambridge Crystallographic Data Centre
#                                CCDC
#
#######################################################################
#
# If this CIF has been generated from an entry in the Cambridge
# Structural Database, then it will include bibliographic, chemical,
# crystal, experimental, refinement or atomic coordinate data resulting
# from the CCDC's data processing and validation procedures.
#
#######################################################################

data_CSD_CIF_GOJFIU
_audit_creation_date 1989-06-23
_audit_creation_method CSD-ConQuest-V1
_database_code_CSD GOJFIU
_database_code_depnum_ccdc_archive 'CCDC 1169741'
_chemical_formula_sum 'C16 H16 Fe1 I1 N1 O1'
_chemical_formula_moiety
;
C16 H16 Fe1 I1 N1 O1
;
_journal_coden_Cambridge 582
_journal_volume 18
_journal_year 1988
_journal_page_first 403
_journal_name_full 'J.Crystallogr.Spectrosc.Res. '
loop_
_publ_author_name
"P.Johnston"
"L.Denner"
"C.F.Marais"
"J.C.A.Boeyens"
"N.J.Coville"
_chemical_name_systematic
;
Carbonyl-(2,6-dimethylphenylisocyanide)-iodo-(\h^5^-methyl-cyclopentadienyl)-i
ron(ii)
;
_cell_volume    800.054
_exptl_crystal_colour 'brown'
_exptl_crystal_density_diffrn 1.75
_diffrn_ambient_temperature ?
_diffrn_special_details
;
The study was carried out at room temperature,in the range 283-303K

;
#These two values have been output from a single CSD field.
_refine_ls_R_factor_gt 0.045
_refine_ls_wR_factor_gt 0.045
_symmetry_cell_setting triclinic
_symmetry_space_group_name_H-M 'P -1'
_symmetry_Int_Tables_number 2
loop_
_symmetry_equiv_pos_site_id
_symmetry_equiv_pos_as_xyz
1 x,y,z
2 -x,-y,-z
_cell_length_a 13.193(7)
_cell_length_b 8.183(5)
_cell_length_c 7.465(4)
_cell_angle_alpha 95.13(5)
_cell_angle_beta 94.39(5)
_cell_angle_gamma 91.09(5)
_cell_formula_units_Z 2
loop_
_atom_type_symbol
_atom_type_radius_bond
C 0.68
H 0.23
Fe 1.34
I 1.40
N 0.68
O 0.67
loop_
_atom_site_label
_atom_site_type_symbol
_atom_site_fract_x
_atom_site_fract_y
_atom_site_fract_z
Fe1 Fe 0.82106(9) 0.78394(14) 0.89114(15)
I1 I 0.81410(5) 0.96384(8) 0.61804(9)
O1 O 0.7543(7) 1.0613(11) 1.1042(12)
N1 N 0.6100(5) 0.6491(8) 0.7937(9)
C1 C 0.8552(8) 0.5670(13) 0.9992(16)
C2 C 0.9053(8) 0.6978(16) 1.1047(14)
C3 C 0.9735(8) 0.7720(13) 0.9963(15)
C4 C 0.9652(7) 0.6839(13) 0.8251(14)
C5 C 0.8908(7) 0.5591(12) 0.8260(15)
C6 C 1.0280(9) 0.7112(19) 0.6695(17)
C7 C 0.6910(7) 0.7054(10) 0.8278(11)
C8 C 0.5142(6) 0.5822(9) 0.744(1)
C9 C 0.4966(7) 0.412(1) 0.7588(10)
C10 C 0.3989(8) 0.3522(12) 0.7052(13)
C11 C 0.3232(8) 0.4480(13) 0.6414(14)
C12 C 0.3425(7) 0.6137(12) 0.6310(11)
C13 C 0.4387(6) 0.682(1) 0.6819(10)
C14 C 0.4597(9) 0.8626(12) 0.6709(15)
C15 C 0.5818(8) 0.3081(12) 0.8260(13)
C16 C 0.7738(8) 0.9697(16) 1.0262(13)
H1 H 1.0437(9) 0.8417(19) 0.6755(17)
H2 H 0.9836(9) 0.6716(19) 0.5451(17)
H3 H 1.0988(9) 0.6469(19) 0.6751(17)
H4 H 0.5516(8) 0.1869(12) 0.8412(13)
H5 H 0.6087(8) 0.3668(12) 0.9568(13)
H6 H 0.6441(8) 0.2983(12) 0.7401(13)
H7 H 0.2555(88) 0.407(13) 0.606(14)
H8 H 0.2824(85) 0.6742(13) 0.5898(14)
H9 H 0.4781(87) 0.9241(14) 0.7771(15)
H10 H 0.3947(86) 0.9281(13) 0.6227(14)
H11 H 0.5285(89) 0.8949(13) 0.6200(14)
H12 H 0.3900(88) 0.2509(14) 0.7056(15)
H13 H 0.8700(82) 0.4684(13) 0.7141(14)
H14 H 1.0103(84) 0.8787(13) 1.0385(14)
H15 H 0.8971(87) 0.7294(14) 1.2191(15)
H16 H 0.7926(86) 0.5120(13) 1.0349(14)
#END
