
#######################################################################
#
#                 Cambridge Crystallographic Data Centre
#                                CCDC
#
#######################################################################
#
# If this CIF has been generated from an entry in the Cambridge
# Structural Database, then it will include bibliographic, chemical,
# crystal, experimental, refinement or atomic coordinate data resulting
# from the CCDC's data processing and validation procedures.
#
#######################################################################

data_CSD_CIF_GOJNID
_audit_creation_date 2009-03-31
_audit_creation_method CSD-ConQuest-V1
_database_code_CSD GOJNID
_database_code_depnum_ccdc_archive 'CCDC 634210'
_chemical_formula_sum 'C24 H16 Mn1 N10 O2'
_chemical_formula_moiety
;
C24 H16 Mn1 N10 O2
;
_journal_coden_Cambridge 1003
_journal_volume 38
_journal_year 2008
_journal_page_first 931
_journal_name_full 'J.Chem.Cryst. '
loop_
_publ_author_name
"Duo-Zhi Wang"
"Jian-Ring Li"
"Lei Li"
"Xian-He Bu"
_chemical_name_systematic
;
bis((1,2,3)triazolo(4,5-f)(1,10)-phenanthroline)-diaqua-manganese(ii)
;
_cell_volume    521.095
_exptl_crystal_density_diffrn 1.694
_diffrn_ambient_temperature 294
#These two values have been output from a single CSD field.
_refine_ls_R_factor_gt 0.0294
_refine_ls_wR_factor_gt 0.0294
_symmetry_cell_setting triclinic
_symmetry_space_group_name_H-M 'P -1'
_symmetry_Int_Tables_number 2
loop_
_symmetry_equiv_pos_site_id
_symmetry_equiv_pos_as_xyz
1 x,y,z
2 -x,-y,-z
_cell_length_a 7.256(3)
_cell_length_b 8.380(3)
_cell_length_c 9.200(3)
_cell_angle_alpha 102.578(5)
_cell_angle_beta 104.144(5)
_cell_angle_gamma 96.550(6)
_cell_formula_units_Z 1
loop_
_atom_type_symbol
_atom_type_radius_bond
C 0.68
H 0.23
Mn 1.35
N 0.68
O 0.68
loop_
_atom_site_label
_atom_site_type_symbol
_atom_site_fract_x
_atom_site_fract_y
_atom_site_fract_z
Mn1 Mn 0.00000 1.00000 1.00000
O1 O 0.2644(2) 1.13335(18) 0.97725(16)
N1 N 0.3696(2) 0.9466(2) 1.73965(16)
N2 N 0.1020(2) 1.10989(18) 1.26091(16)
N3 N 0.1669(2) 0.81615(19) 1.10452(16)
N4 N 0.4165(2) 0.70378(19) 1.61330(17)
N5 N 0.4325(2) 0.8042(2) 1.75127(17)
C1 C 0.2938(2) 0.7370(2) 1.3420(2)
C2 C 0.3091(2) 0.9359(2) 1.58652(19)
C3 C 0.2312(2) 1.0537(2) 1.50905(19)
C4 C 0.1777(2) 1.0072(2) 1.34565(19)
C5 C 0.3387(2) 0.7848(2) 1.50789(19)
C6 C 0.2094(2) 1.2112(2) 1.5841(2)
H1 H 0.24190 1.24450 1.69180
C7 C 0.2107(2) 0.8479(2) 1.26130(19)
C8 C 0.1398(3) 1.3159(2) 1.4980(2)
H2 H 0.12840 1.42280 1.54570
C9 C 0.0862(3) 1.2593(2) 1.3371(2)
H3 H 0.03620 1.33060 1.27930
C10 C 0.2940(3) 0.5637(2) 1.0991(2)
H4 H 0.32020 0.46850 1.04000
C11 C 0.3354(3) 0.5920(2) 1.2570(2)
H5 H 0.39010 0.51630 1.30680
C12 C 0.2123(3) 0.6793(2) 1.0286(2)
H6 H 0.18790 0.65970 0.92160
H7 H 0.301(4) 1.069(3) 0.906(3)
H8 H 0.356(4) 1.163(3) 1.057(3)
O1A O -0.2644(2) 0.86665(18) 1.02275(16)
N1A N -0.3696(2) 1.0534(2) 0.26035(16)
N2A N -0.1020(2) 0.89011(18) 0.73909(16)
N3A N -0.1669(2) 1.18385(19) 0.89548(16)
N4A N -0.4165(2) 1.29622(19) 0.38670(17)
N5A N -0.4325(2) 1.1958(2) 0.24873(17)
C1A C -0.2938(2) 1.2630(2) 0.6580(2)
C2A C -0.3091(2) 1.0641(2) 0.41348(19)
C3A C -0.2312(2) 0.9463(2) 0.49095(19)
C4A C -0.1777(2) 0.9928(2) 0.65435(19)
C5A C -0.3387(2) 1.2152(2) 0.49211(19)
C6A C -0.2094(2) 0.7888(2) 0.4159(2)
H1A H -0.24190 0.75550 0.30820
C7A C -0.2107(2) 1.1521(2) 0.73870(19)
C8A C -0.1398(3) 0.6841(2) 0.5020(2)
H2A H -0.12840 0.57720 0.45430
C9A C -0.0862(3) 0.7407(2) 0.6629(2)
H3A H -0.03620 0.66940 0.72070
C10A C -0.2940(3) 1.4363(2) 0.9009(2)
H4A H -0.32020 1.53150 0.96000
C11A C -0.3354(3) 1.4080(2) 0.7430(2)
H5A H -0.39010 1.48370 0.69320
C12A C -0.2123(3) 1.3207(2) 0.9714(2)
H6A H -0.18790 1.34030 1.07840
H7A H -0.301(4) 0.931(3) 1.094(3)
H8A H -0.356(4) 0.837(3) 0.943(3)
#END
