
#######################################################################
#
#                 Cambridge Crystallographic Data Centre
#                                CCDC
#
#######################################################################
#
# If this CIF has been generated from an entry in the Cambridge
# Structural Database, then it will include bibliographic, chemical,
# crystal, experimental, refinement or atomic coordinate data resulting
# from the CCDC's data processing and validation procedures.
#
#######################################################################

data_CSD_CIF_GOJYAH
_audit_creation_date 2014-07-11
_audit_creation_method CSD-ConQuest-V1
_database_code_CSD GOJYAH
_database_code_depnum_ccdc_archive 'CCDC 842063'
_chemical_formula_sum 'C4 H10 Cl2 Mn1 N2 O2'
_chemical_formula_moiety
;
C4 H10 Cl2 Mn1 N2 O2
;
_journal_coden_Cambridge 1078
_journal_year 2011
_journal_name_full 'CSD Communication(Private Communication) '
loop_
_publ_author_name
"H.Sleem"
"P.Georghiou"
"L.N.Dawe"
_chemical_name_systematic
;
bis(Acetonitrile)-diaqua-dichloro-manganese(ii)
;
_cell_volume    510.837
_exptl_crystal_colour 'light pink'
_exptl_crystal_density_diffrn 1.586
_exptl_crystal_description 'Prism'
_diffrn_ambient_temperature 193
#These two values have been output from a single CSD field.
_refine_ls_R_factor_gt 0.0206
_refine_ls_wR_factor_gt 0.0206
_symmetry_cell_setting monoclinic
_symmetry_space_group_name_H-M 'P 21/c'
_symmetry_Int_Tables_number 14
loop_
_symmetry_equiv_pos_site_id
_symmetry_equiv_pos_as_xyz
1 x,y,z
2 -x,1/2+y,1/2-z
3 -x,-y,-z
4 x,-1/2-y,-1/2+z
_cell_length_a 7.760(2)
_cell_length_b 7.847(3)
_cell_length_c 8.4447(19)
_cell_angle_alpha 90
_cell_angle_beta 96.577(14)
_cell_angle_gamma 90
_cell_formula_units_Z 2
loop_
_atom_type_symbol
_atom_type_radius_bond
C 0.68
H 0.23
Cl 0.99
Mn 1.61
N 0.68
O 0.68
loop_
_atom_site_label
_atom_site_type_symbol
_atom_site_fract_x
_atom_site_fract_y
_atom_site_fract_z
Mn1 Mn 0.00000 0.00000 0.00000
Cl1 Cl 0.18963(4) -0.25819(3) 0.01484(3)
O1 O -0.02006(17) -0.01287(11) 0.25225(13)
N1 N 0.23771(15) 0.17535(14) 0.06137(14)
C1 C 0.33087(17) 0.27219(16) 0.12497(14)
C2 C 0.44905(16) 0.39518(18) 0.20756(15)
H1 H 0.56850 0.35390 0.20980
H2 H 0.42090 0.40980 0.31690
H3 H 0.43750 0.50470 0.15160
H4 H 0.034(2) -0.084(2) 0.318(2)
H5 H -0.058(2) 0.068(2) 0.302(2)
H6? H 0.38270 0.49170 0.24250
H7? H 0.53040 0.43580 0.13530
H8? H 0.51370 0.34090 0.30060
Cl1B Cl -0.18963(4) 0.25819(3) -0.01484(3)
O1B O 0.02006(17) 0.01287(11) -0.25225(13)
N1B N -0.23771(15) -0.17535(14) -0.06137(14)
C1B C -0.33087(17) -0.27219(16) -0.12497(14)
C2B C -0.44905(16) -0.39518(18) -0.20756(15)
H1B H -0.56850 -0.35390 -0.20980
H2B H -0.42090 -0.40980 -0.31690
H3B H -0.43750 -0.50470 -0.15160
H4B H -0.034(2) 0.084(2) -0.318(2)
H5B H 0.058(2) -0.068(2) -0.302(2)
#END
