
#######################################################################
#
#                 Cambridge Crystallographic Data Centre
#                                CCDC
#
#######################################################################
#
# If this CIF has been generated from an entry in the Cambridge
# Structural Database, then it will include bibliographic, chemical,
# crystal, experimental, refinement or atomic coordinate data resulting
# from the CCDC's data processing and validation procedures.
#
#######################################################################

data_CSD_CIF_GOMREH
_audit_creation_date 2014-07-11
_audit_creation_method CSD-ConQuest-V1
_database_code_CSD GOMREH
_database_code_depnum_ccdc_archive 'CCDC 732430'
_chemical_formula_sum 'C14 H17 B1 Mn1 N1 O6'
_chemical_formula_moiety
;
C14 H17 B1 Mn1 N1 O6
;
_journal_coden_Cambridge 1078
_journal_year 2009
_journal_name_full 'CSD Communication(Private Communication) '
loop_
_publ_author_name
"Z.Bajko"
"J.W.Kampf"
"A.J.AsheIII"
_chemical_name_systematic
;
pentacarbonyl-(2-(diisopropylamino)-2,5-dihydro-1,2-oxaborol-5-yl)-manganese
;
_cell_volume    830.447
_exptl_crystal_colour 'yellow'
_exptl_crystal_density_diffrn 1.444
_exptl_special_details
;
Department of Chemistry, University of Michigan, Ann Arbor, MI 48109-1055, 
;
_exptl_crystal_description 'plate'
_diffrn_ambient_temperature 118
#These two values have been output from a single CSD field.
_refine_ls_R_factor_gt 0.0524
_refine_ls_wR_factor_gt 0.0524
_symmetry_cell_setting triclinic
_symmetry_space_group_name_H-M 'P -1'
_symmetry_Int_Tables_number 2
loop_
_symmetry_equiv_pos_site_id
_symmetry_equiv_pos_as_xyz
1 x,y,z
2 -x,-y,-z
_cell_length_a 6.2122(8)
_cell_length_b 11.2171(15)
_cell_length_c 13.2079(16)
_cell_angle_alpha 66.330(5)
_cell_angle_beta 89.458(6)
_cell_angle_gamma 80.756(6)
_cell_formula_units_Z 2
loop_
_atom_type_symbol
_atom_type_radius_bond
C 0.68
H 0.23
B 0.83
Mn 1.61
N 0.68
O 0.68
loop_
_atom_site_label
_atom_site_type_symbol
_atom_site_fract_x
_atom_site_fract_y
_atom_site_fract_z
B1 B 0.7520(5) 0.7437(3) 0.8537(3)
N1 N 0.8634(4) 0.8100(2) 0.90035(19)
Mn1 Mn 0.68149(7) 0.67951(4) 0.57906(4)
O1 O 1.0904(4) 0.5835(2) 0.72553(19)
O2 O 0.7548(4) 0.9593(2) 0.49734(18)
O3 O 0.8932(4) 0.6374(2) 0.39075(18)
O4 O 0.2283(3) 0.7731(2) 0.47567(18)
O5 O 0.5766(4) 0.4076(2) 0.67071(19)
O6 O 0.6643(3) 0.80426(19) 0.74438(16)
C1 C 0.9370(5) 0.6202(3) 0.6687(2)
C2 C 0.7281(5) 0.8538(3) 0.5290(2)
C3 C 0.8091(5) 0.6555(3) 0.4622(2)
C4 C 0.4032(5) 0.7388(3) 0.5124(2)
C5 C 0.6171(5) 0.5114(3) 0.6374(2)
C6 C 0.5492(5) 0.7154(3) 0.7212(2)
H1 H 0.399(5) 0.756(3) 0.700(2)
C7 C 0.5696(5) 0.5967(3) 0.8255(2)
H2 H 0.502(5) 0.523(3) 0.834(3)
C8 C 0.6924(5) 0.6037(3) 0.9047(2)
H3 H 0.718(5) 0.531(4) 0.978(3)
C9 C 0.9516(5) 0.7440(3) 1.0154(2)
H4 H 0.940(5) 0.649(3) 1.040(2)
C10 C 0.8105(7) 0.7908(4) 1.0915(3)
H5 H 0.660(6) 0.774(4) 1.085(3)
H6 H 0.807(5) 0.890(4) 1.065(3)
H7 H 0.869(6) 0.756(4) 1.160(3)
C11 C 1.1905(6) 0.7547(4) 1.0285(3)
H8 H 1.246(6) 0.708(4) 1.104(3)
H9 H 1.275(6) 0.731(4) 0.982(3)
H10 H 1.196(5) 0.849(4) 1.006(3)
C12 C 0.8797(5) 0.9510(3) 0.8434(2)
H11 H 0.942(5) 0.971(3) 0.902(3)
C13 C 1.0389(6) 0.9734(4) 0.7520(3)
H12 H 1.172(5) 0.922(3) 0.780(3)
H13 H 1.056(5) 1.063(3) 0.723(2)
H14 H 0.979(5) 0.960(3) 0.694(3)
C14 C 0.6581(6) 1.0377(4) 0.8028(3)
H15 H 0.597(6) 1.025(4) 0.743(3)
H16 H 0.556(5) 1.019(3) 0.862(3)
H17 H 0.678(6) 1.121(4) 0.777(3)
#END
