
#######################################################################
#
#                 Cambridge Crystallographic Data Centre
#                                CCDC
#
#######################################################################
#
# If this CIF has been generated from an entry in the Cambridge
# Structural Database, then it will include bibliographic, chemical,
# crystal, experimental, refinement or atomic coordinate data resulting
# from the CCDC's data processing and validation procedures.
#
#######################################################################

data_CSD_CIF_GOMVEK01
_audit_creation_date 2011-07-21
_audit_creation_method CSD-ConQuest-V1
_database_code_CSD GOMVEK01
_database_code_depnum_ccdc_archive 'CCDC 798314'
_chemical_formula_sum 'C26 H24 Mn1 N6 O2 S2'
_chemical_formula_moiety
;
C26 H24 Mn1 N6 O2 S2
;
_journal_coden_Cambridge 580
_journal_volume 30
_journal_year 2011
_journal_page_first 923
_journal_name_full 'Polyhedron '
loop_
_publ_author_name
"L.M.Callejo"
"N.De La Pinta"
"G.Madariaga"
"L.Lezama"
"M.L.Fidalgo"
"R.Cortes"
_chemical_name_systematic
;
Diaqua-bis(4-(2-(pyridin-4-yl)vinyl)pyridine)-bis(isothiocyanato)-manganese(ii
)
;
_cell_volume    690.722
_exptl_crystal_colour 'yellow'
_exptl_crystal_density_diffrn 1.374
_exptl_crystal_description 'prism'
_diffrn_ambient_temperature 293
#These two values have been output from a single CSD field.
_refine_ls_R_factor_gt 0.061
_refine_ls_wR_factor_gt 0.061
loop_
_citation_database_id_CSD
_citation_special_details
WAYXUP "is a stereoisomer of this entry"
_symmetry_cell_setting triclinic
_symmetry_space_group_name_H-M 'P -1'
_symmetry_Int_Tables_number 2
loop_
_symmetry_equiv_pos_site_id
_symmetry_equiv_pos_as_xyz
1 x,y,z
2 -x,-y,-z
_cell_length_a 6.901(1)
_cell_length_b 10.1101(15)
_cell_length_c 10.6444(16)
_cell_angle_alpha 89.599(12)
_cell_angle_beta 81.540(12)
_cell_angle_gamma 70.269(13)
_cell_formula_units_Z 1
loop_
_atom_type_symbol
_atom_type_radius_bond
C 0.68
H 0.23
Mn 1.61
N 0.68
O 0.68
S 1.02
loop_
_atom_site_label
_atom_site_type_symbol
_atom_site_fract_x
_atom_site_fract_y
_atom_site_fract_z
Mn1 Mn 0.00000 1.00000 1.00000
N1 N 0.0434(3) 0.8603(2) 0.83412(19)
N2 N 0.4062(4) 0.2839(2) 0.1362(2)
N3 N 0.1364(5) 1.1350(3) 0.8686(2)
C1 C 0.0928(4) 0.7227(3) 0.8570(2)
C2 C 0.1490(4) 0.6264(3) 0.7629(2)
C3 C 0.1506(4) 0.6743(3) 0.6373(2)
C4 C 0.0966(5) 0.8180(3) 0.6128(3)
C5 C 0.0447(5) 0.9068(3) 0.7128(3)
C6 C 0.2120(4) 0.5683(3) 0.5396(2)
C7 C 0.2044(4) 0.5942(3) 0.4166(3)
C8 C 0.4044(4) 0.2451(3) 0.2595(3)
C9 C 0.3373(4) 0.3407(3) 0.3545(2)
C10 C 0.2711(4) 0.4837(3) 0.3230(2)
C11 C 0.2702(5) 0.5241(3) 0.1952(3)
C12 C 0.3391(5) 0.4209(3) 0.1072(3)
C13 C 0.2625(5) 1.1610(3) 0.7979(2)
O1 O 0.3087(3) 0.8712(3) 1.04656(19)
S1 S 0.44528(16) 1.19511(12) 0.69970(9)
H1 H 0.086(5) 0.685(3) 0.946(3)
H2 H 0.188(5) 0.521(3) 0.782(3)
H3 H 0.100(6) 0.862(4) 0.529(3)
H4 H 0.029(5) 1.001(3) 0.697(3)
H5 H 0.270(5) 0.467(3) 0.567(3)
H6 H 0.130(7) 0.689(4) 0.383(4)
H7 H 0.449(5) 0.155(3) 0.282(2)
H8 H 0.347(5) 0.307(3) 0.437(3)
H9 H 0.228(5) 0.626(3) 0.161(3)
H10 H 0.341(6) 0.444(4) 0.015(3)
H11 H 0.365(5) 0.859(4) 1.1139(19)
H12 H 0.409(4) 0.844(4) 0.984(2)
N1A N -0.0434(3) 1.1397(2) 1.16588(19)
N2A N -0.4062(4) 1.7161(2) 1.8638(2)
N3A N -0.1364(5) 0.8650(3) 1.1314(2)
C1A C -0.0928(4) 1.2773(3) 1.1430(2)
C2A C -0.1490(4) 1.3736(3) 1.2371(2)
C3A C -0.1506(4) 1.3257(3) 1.3627(2)
C4A C -0.0966(5) 1.1820(3) 1.3872(3)
C5A C -0.0447(5) 1.0932(3) 1.2872(3)
C6A C -0.2120(4) 1.4317(3) 1.4604(2)
C7A C -0.2044(4) 1.4058(3) 1.5834(3)
C8A C -0.4044(4) 1.7549(3) 1.7405(3)
C9A C -0.3373(4) 1.6593(3) 1.6455(2)
C10A C -0.2711(4) 1.5163(3) 1.6770(2)
C11A C -0.2702(5) 1.4759(3) 1.8048(3)
C12A C -0.3391(5) 1.5791(3) 1.8928(3)
C13A C -0.2625(5) 0.8390(3) 1.2021(2)
O1A O -0.3087(3) 1.1288(3) 0.95344(19)
S1A S -0.44528(16) 0.80489(12) 1.30030(9)
H1A H -0.086(5) 1.315(3) 1.054(3)
H2A H -0.188(5) 1.479(3) 1.218(3)
H3A H -0.100(6) 1.138(4) 1.471(3)
H4A H -0.029(5) 0.999(3) 1.303(3)
H5A H -0.270(5) 1.533(3) 1.433(3)
H6A H -0.130(7) 1.311(4) 1.617(4)
H7A H -0.449(5) 1.845(3) 1.718(2)
H8A H -0.347(5) 1.693(3) 1.563(3)
H9A H -0.228(5) 1.374(3) 1.839(3)
H10A H -0.341(6) 1.556(4) 1.985(3)
H11A H -0.365(5) 1.141(4) 0.8861(19)
H12A H -0.409(4) 1.156(4) 1.016(2)
#END
