
#######################################################################
#
#                 Cambridge Crystallographic Data Centre
#                                CCDC
#
#######################################################################
#
# If this CIF has been generated from an entry in the Cambridge
# Structural Database, then it will include bibliographic, chemical,
# crystal, experimental, refinement or atomic coordinate data resulting
# from the CCDC's data processing and validation procedures.
#
#######################################################################

data_CSD_CIF_GOPKIF
_audit_creation_date 1999-09-09
_audit_creation_method CSD-ConQuest-V1
_database_code_CSD GOPKIF
_database_code_depnum_ccdc_journal 440/038
_chemical_formula_sum 'C13 H15 Cr2 O4'
_chemical_formula_moiety
;
C12 H12 Cr1 1+,C1 H3 Cr1 O4 1-
;
_journal_coden_Cambridge 440
_journal_volume 22
_journal_year 1998
_journal_page_first 755
_journal_name_full 'New J.Chem. '
loop_
_publ_author_name
"D.Braga"
"F.Grepioni"
"E.Tagliavini"
"J.J.Novoa"
"F.Mota"
_chemical_name_systematic
;
bis(\h^6^-Benzene)-chromium (methyl)chromate
;
_cell_volume    654.556
_exptl_crystal_density_diffrn 1.721
_diffrn_ambient_temperature 273
#These two values have been output from a single CSD field.
_refine_ls_R_factor_gt 0.0564
_refine_ls_wR_factor_gt 0.0564
_symmetry_cell_setting triclinic
_symmetry_space_group_name_H-M 'P -1'
_symmetry_Int_Tables_number 2
loop_
_symmetry_equiv_pos_site_id
_symmetry_equiv_pos_as_xyz
1 x,y,z
2 -x,-y,-z
_cell_length_a 10.060(5)
_cell_length_b 10.510(7)
_cell_length_c 6.818(2)
_cell_angle_alpha 105.82(3)
_cell_angle_beta 109.12(3)
_cell_angle_gamma 82.37(4)
_cell_formula_units_Z 2
loop_
_atom_type_symbol
_atom_type_radius_bond
C 0.68
H 0.23
Cr 1.31
O 0.68
loop_
_atom_site_label
_atom_site_type_symbol
_atom_site_fract_x
_atom_site_fract_y
_atom_site_fract_z
Cr1 Cr 0.7615(1) 0.3123(1) 0.4603(1)
C1 C 0.8244(7) 0.4026(6) 0.2609(10)
C2 C 0.6771(7) 0.3985(7) 0.1904(10)
C3 C 0.6165(7) 0.2780(8) 0.1438(10)
C4 C 0.6965(7) 0.1640(6) 0.1669(9)
C5 C 0.8433(8) 0.1677(7) 0.2371(10)
C6 C 0.9080(7) 0.2883(7) 0.2839(10)
C7 C 0.8325(8) 0.4542(7) 0.7584(9)
C8 C 0.6864(7) 0.4546(6) 0.6966(10)
C9 C 0.6193(7) 0.3335(7) 0.6422(10)
C10 C 0.7000(8) 0.2164(6) 0.6529(10)
C11 C 0.8467(7) 0.2159(6) 0.7147(9)
C12 C 0.9141(6) 0.3358(7) 0.7707(9)
Cr2 Cr 0.7204(1) 0.8160(1) 0.3479(2)
O1 O 0.7291(5) 0.7545(5) 0.5731(7)
O2 O 0.5791(5) 0.9058(4) 0.2890(8)
O3 O 0.7209(5) 0.6873(4) 0.1553(7)
O4 O 0.8547(5) 0.9010(5) 0.4118(9)
C13 C 0.7295(9) 0.8458(7) 0.7775(12)
H1 H 0.8577(76) 0.4862(35) 0.306(12)
H2 H 0.6182(69) 0.4743(49) 0.174(13)
H3 H 0.5198(24) 0.2840(77) 0.111(13)
H4 H 0.6380(65) 0.0996(55) 0.154(13)
H5 H 0.9041(66) 0.0942(50) 0.262(13)
H6 H 1.0044(25) 0.2895(76) 0.348(12)
H7 H 0.8689(77) 0.5343(42) 0.773(14)
H8 H 0.6326(70) 0.5319(46) 0.681(13)
H9 H 0.5232(26) 0.3300(74) 0.575(12)
H10 H 0.6614(76) 0.1333(39) 0.598(12)
H11 H 0.8982(69) 0.1358(41) 0.702(13)
H12 H 1.0101(28) 0.3289(72) 0.786(13)
H13 H 0.7244(88) 0.7966(69) 0.872(11)
H14 H 0.6450(51) 0.9002(68) 0.764(14)
H15 H 0.8115(51) 0.8963(66) 0.843(13)
#END
