
#######################################################################
#
#                 Cambridge Crystallographic Data Centre
#                                CCDC
#
#######################################################################
#
# If this CIF has been generated from an entry in the Cambridge
# Structural Database, then it will include bibliographic, chemical,
# crystal, experimental, refinement or atomic coordinate data resulting
# from the CCDC's data processing and validation procedures.
#
#######################################################################

data_CSD_CIF_GORVUH
_audit_creation_date 2019-10-11
_audit_creation_method CSD-ConQuest-V1
_database_code_CSD GORVUH
_database_code_depnum_ccdc_archive 'CCDC 1900920'
_chemical_formula_sum 'C15 H15 Cr1 N1 O5'
_chemical_formula_moiety
;
C15 H15 Cr1 N1 O5
;
_journal_coden_Cambridge 367
_journal_volume 45
_journal_year 2019
_journal_page_first 680
_journal_name_full 'Koord.Khim.(Russ.)(Coord.Chem.) '
loop_
_publ_author_name
"G.K.Fukin"
"E.V.Baranov"
"A.V.Cherkasov"
"R.V.Rumyantcev"
"A.N.Artemov"
"E.V.Sazonova"
_chemical_name_systematic
;
tricarbonyl-(3-acetyl-6-phenyltetrahydro-2H-1,3-oxazine)-chromium(0)
;
_cell_volume    702.704
_exptl_crystal_colour 'yellow'
_exptl_crystal_density_diffrn 1.613
_exptl_crystal_description 'plate'
_diffrn_ambient_temperature 100
_refine_special_details
;
independent atom

;
#These two values have been output from a single CSD field.
_refine_ls_R_factor_gt 0.03
_refine_ls_wR_factor_gt 0.03
_symmetry_cell_setting triclinic
_symmetry_space_group_name_H-M 'P -1'
_symmetry_Int_Tables_number 2
loop_
_symmetry_equiv_pos_site_id
_symmetry_equiv_pos_as_xyz
1 x,y,z
2 -x,-y,-z
_cell_length_a 6.4602(2)
_cell_length_b 9.9433(4)
_cell_length_c 12.0218(4)
_cell_angle_alpha 72.683(2)
_cell_angle_beta 75.565(1)
_cell_angle_gamma 76.251(1)
_cell_formula_units_Z 2
loop_
_atom_type_symbol
_atom_type_radius_bond
C 0.68
H 0.23
Cr 1.39
N 0.68
O 0.68
loop_
_atom_site_label
_atom_site_type_symbol
_atom_site_fract_x
_atom_site_fract_y
_atom_site_fract_z
Cr1 Cr 0.51745(3) 0.28375(2) 0.38566(2)
C1 C 0.3050(2) 0.43703(15) 0.33717(12)
O1 O 0.17369(17) 0.53268(12) 0.30674(11)
C2 C 0.3240(2) 0.22490(14) 0.52437(13)
O2 O 0.20170(19) 0.18673(12) 0.60961(10)
C3 C 0.4180(2) 0.17143(14) 0.32090(12)
O3 O 0.35941(19) 0.09688(12) 0.28213(10)
C4 C 0.7324(2) 0.42225(14) 0.39858(12)
H1 H 0.66475 0.51566 0.41867
C5 C 0.7470(2) 0.29720(15) 0.49062(12)
H2 H 0.69199 0.30332 0.57475
C6 C 0.8034(2) 0.16141(15) 0.46499(13)
H3 H 0.78935 0.07278 0.53096
C7 C 0.8425(2) 0.15395(15) 0.34683(13)
H4 H 0.85484 0.05948 0.32993
C8 C 0.8255(2) 0.28050(14) 0.25306(12)
H5 H 0.82628 0.27354 0.17166
C9 C 0.7698(2) 0.41548(13) 0.27846(11)
C10 C 0.7584(2) 0.55184(14) 0.17989(11)
H6 H 0.90823 0.57431 0.14845
C11 C 0.6683(2) 0.54418(14) 0.07716(11)
H7 H 0.76752 0.47249 0.03743
H8 H 0.52533 0.51334 0.10765
C12 C 0.6433(2) 0.68902(15) -0.01174(12)
H9 H 0.78811 0.71370 -0.05134
H10 H 0.56861 0.68577 -0.07326
N1 N 0.51658(19) 0.79741(12) 0.0502(1)
C13 C 0.6183(2) 0.79903(15) 0.14479(14)
H11 H 0.76738 0.81900 0.11108
H12 H 0.53466 0.87615 0.18302
O4 O 0.62634(17) 0.66438(11) 0.23151(9)
C14 C 0.2968(2) 0.83255(14) 0.05521(12)
O5 O 0.20922(19) 0.79429(13) -0.00688(10)
C15 C 0.1663(2) 0.92337(15) 0.13788(13)
H13 H 0.02633 0.96851 0.11416
H14 H 0.24608 0.99759 0.13401
H15 H 0.14175 0.86311 0.21928
#END
