
#######################################################################
#
#                 Cambridge Crystallographic Data Centre
#                                CCDC
#
#######################################################################
#
# If this CIF has been generated from an entry in the Cambridge
# Structural Database, then it will include bibliographic, chemical,
# crystal, experimental, refinement or atomic coordinate data resulting
# from the CCDC's data processing and validation procedures.
#
#######################################################################

data_CSD_CIF_GORVUH02
_audit_creation_date 2019-10-11
_audit_creation_method CSD-ConQuest-V1
_database_code_CSD GORVUH02
_database_code_depnum_ccdc_archive 'CCDC 1900922'
_chemical_formula_sum 'C15 H15 Cr1 N1 O5'
_chemical_formula_moiety
;
C15 H15 Cr1 N1 O5
;
_journal_coden_Cambridge 367
_journal_volume 45
_journal_year 2019
_journal_page_first 680
_journal_name_full 'Koord.Khim.(Russ.)(Coord.Chem.) '
loop_
_publ_author_name
"G.K.Fukin"
"E.V.Baranov"
"A.V.Cherkasov"
"R.V.Rumyantcev"
"A.N.Artemov"
"E.V.Sazonova"
_chemical_name_systematic
;
tricarbonyl-(3-acetyl-6-phenyltetrahydro-2H-1,3-oxazine)-chromium(0)
;
_cell_volume    703.623
_exptl_crystal_colour 'yellow'
_exptl_crystal_density_diffrn 1.611
_exptl_crystal_description 'plate'
_diffrn_ambient_temperature 100
_refine_special_details
;
independent atom

;
#These two values have been output from a single CSD field.
_refine_ls_R_factor_gt 0.0365
_refine_ls_wR_factor_gt 0.0365
_symmetry_cell_setting triclinic
_symmetry_space_group_name_H-M 'P -1'
_symmetry_Int_Tables_number 2
loop_
_symmetry_equiv_pos_site_id
_symmetry_equiv_pos_as_xyz
1 x,y,z
2 -x,-y,-z
_cell_length_a 6.4624(3)
_cell_length_b 9.9490(4)
_cell_length_c 12.0279(5)
_cell_angle_alpha 72.671(1)
_cell_angle_beta 75.557(1)
_cell_angle_gamma 76.243(1)
_cell_formula_units_Z 2
loop_
_atom_type_symbol
_atom_type_radius_bond
C 0.68
H 0.23
Cr 1.39
N 0.68
O 0.68
loop_
_atom_site_label
_atom_site_type_symbol
_atom_site_fract_x
_atom_site_fract_y
_atom_site_fract_z
Cr1 Cr 0.51742(2) 0.28368(2) 0.38577(2)
C1 C 0.30493(8) 0.43689(6) 0.33726(5)
O1 O 0.17331(8) 0.53291(6) 0.30660(6)
C2 C 0.32390(9) 0.22503(6) 0.52438(5)
O2 O 0.20147(10) 0.18675(7) 0.61009(5)
C3 C 0.41777(9) 0.17135(6) 0.32102(5)
O3 O 0.35916(10) 0.09664(6) 0.28219(5)
C4 C 0.73165(8) 0.42254(5) 0.39874(4)
H1 H 0.66392 0.51595 0.41870
C5 C 0.74666(9) 0.29725(6) 0.49093(5)
H2 H 0.69128 0.30339 0.57499
C6 C 0.80336(9) 0.16150(6) 0.46549(6)
H3 H 0.78911 0.07300 0.53152
C7 C 0.84247(9) 0.15380(6) 0.34733(6)
H4 H 0.85493 0.05930 0.33055
C8 C 0.82544(8) 0.28042(5) 0.25334(5)
H5 H 0.82639 0.27334 0.17200
C9 C 0.76958(7) 0.41534(5) 0.27856(4)
C10 C 0.75829(8) 0.55179(5) 0.18006(4)
H6 H 0.90797 0.57454 0.14901
C11 C 0.66923(10) 0.54389(6) 0.07674(5)
H7 H 0.76950 0.47275 0.03684
H8 H 0.52679 0.51238 0.10686
C12 C 0.64326(10) 0.68939(7) -0.01190(5)
H9 H 0.78787 0.71433 -0.05165
H10 H 0.56830 0.68636 -0.07332
N1 N 0.51687(8) 0.79724(5) 0.05034(4)
C13 C 0.61766(10) 0.79829(6) 0.14560(6)
H11 H 0.76675 0.81842 0.11235
H12 H 0.53356 0.87507 0.18402
O4 O 0.62549(7) 0.66374(4) 0.23167(4)
C14 C 0.29696(9) 0.83267(6) 0.05529(5)
O5 O 0.20902(10) 0.79402(7) -0.00673(5)
C15 C 0.16608(10) 0.92346(7) 0.13792(6)
H13 H 0.02485 0.96676 0.11522
H14 H 0.24409 0.99905 0.13277
H15 H 0.14420 0.86361 0.21952
#END
