
#######################################################################
#
#                 Cambridge Crystallographic Data Centre
#                                CCDC
#
#######################################################################
#
# If this CIF has been generated from an entry in the Cambridge
# Structural Database, then it will include bibliographic, chemical,
# crystal, experimental, refinement or atomic coordinate data resulting
# from the CCDC's data processing and validation procedures.
#
#######################################################################

data_CSD_CIF_GORVUH01
_audit_creation_date 2019-10-11
_audit_creation_method CSD-ConQuest-V1
_database_code_CSD GORVUH01
_database_code_depnum_ccdc_archive 'CCDC 1900921'
_chemical_formula_sum 'C15 H15 Cr1 N1 O5'
_chemical_formula_moiety
;
C15 H15 Cr1 N1 O5
;
_journal_coden_Cambridge 367
_journal_volume 45
_journal_year 2019
_journal_page_first 680
_journal_name_full 'Koord.Khim.(Russ.)(Coord.Chem.) '
loop_
_publ_author_name
"G.K.Fukin"
"E.V.Baranov"
"A.V.Cherkasov"
"R.V.Rumyantcev"
"A.N.Artemov"
"E.V.Sazonova"
_chemical_name_systematic
;
tricarbonyl-(3-acetyl-6-phenyltetrahydro-2H-1,3-oxazine)-chromium(0)
;
_cell_volume    703.623
_exptl_crystal_colour 'yellow'
_exptl_crystal_density_diffrn 1.611
_exptl_crystal_description 'plate'
_diffrn_ambient_temperature 100
_refine_special_details
;
multipole

;
#These two values have been output from a single CSD field.
_refine_ls_R_factor_gt 0.0177
_refine_ls_wR_factor_gt 0.0177
_symmetry_cell_setting triclinic
_symmetry_space_group_name_H-M 'P -1'
_symmetry_Int_Tables_number 2
loop_
_symmetry_equiv_pos_site_id
_symmetry_equiv_pos_as_xyz
1 x,y,z
2 -x,-y,-z
_cell_length_a 6.4624(3)
_cell_length_b 9.9490(4)
_cell_length_c 12.0279(5)
_cell_angle_alpha 72.671(1)
_cell_angle_beta 75.557(1)
_cell_angle_gamma 76.243(1)
_cell_formula_units_Z 2
loop_
_atom_type_symbol
_atom_type_radius_bond
C 0.68
H 0.23
Cr 1.39
N 0.68
O 0.68
loop_
_atom_site_label
_atom_site_type_symbol
_atom_site_fract_x
_atom_site_fract_y
_atom_site_fract_z
Cr1 Cr 0.517381(10) 0.283632(7) 0.385822(6)
C1 C 0.30497(6) 0.43692(4) 0.33723(4)
O1 O 0.17302(7) 0.53315(5) 0.30657(6)
C2 C 0.32384(7) 0.22502(5) 0.52439(4)
O2 O 0.20129(9) 0.18670(6) 0.61049(5)
C3 C 0.41766(7) 0.17133(5) 0.32110(4)
O3 O 0.35910(9) 0.09652(5) 0.28216(4)
C4 C 0.73153(6) 0.42253(4) 0.39874(4)
H1 H 0.65720 0.52520 0.42069
C5 C 0.74647(7) 0.29727(5) 0.49109(4)
H2 H 0.68568 0.30401 0.58348
C6 C 0.80327(7) 0.16151(5) 0.46574(5)
H3 H 0.78767 0.06412 0.53817
C7 C 0.84248(7) 0.15372(4) 0.34734(5)
H4 H 0.85617 0.04986 0.32891
C8 C 0.82536(6) 0.28041(4) 0.25342(4)
H5 H 0.82648 0.27264 0.16401
C9 C 0.76952(5) 0.41533(4) 0.27858(3)
C10 C 0.75827(6) 0.55180(4) 0.18007(3)
H6 H 0.92278 0.57679 0.14594
C11 C 0.66966(8) 0.54388(5) 0.07660(4)
H7 H 0.78004 0.46531 0.03264
H8 H 0.51249 0.50920 0.10987
C12 C 0.64324(8) 0.68950(5) -0.01192(4)
H9 H 0.80279 0.71692 -0.05576
H10 H 0.56060 0.68607 -0.07965
N1 N 0.51676(6) 0.79730(4) 0.05036(4)
C13 C 0.61731(8) 0.79790(5) 0.14616(5)
H11 H 0.78139 0.82035 0.10913
H12 H 0.52484 0.88297 0.18804
O4 O 0.62497(6) 0.66309(4) 0.23187(3)
C14 C 0.29700(7) 0.83255(4) 0.05537(4)
O5 O 0.20824(9) 0.79317(6) -0.00599(5)
C15 C 0.16612(8) 0.92334(6) 0.13796(5)
H13 H 0.01095 0.97102 0.11299
H14 H 0.25175 1.00647 0.13227
H15 H 0.14202 0.85765 0.22766
#END
