
#######################################################################
#
#                 Cambridge Crystallographic Data Centre
#                                CCDC
#
#######################################################################
#
# If this CIF has been generated from an entry in the Cambridge
# Structural Database, then it will include bibliographic, chemical,
# crystal, experimental, refinement or atomic coordinate data resulting
# from the CCDC's data processing and validation procedures.
#
#######################################################################

data_CSD_CIF_GOTCAW
_audit_creation_date 2019-10-13
_audit_creation_method CSD-ConQuest-V1
_database_code_CSD GOTCAW
_database_code_depnum_ccdc_archive 'CCDC 1921464'
_chemical_formula_sum 'C16 H22 B1 Mn1 N2 O3'
_chemical_formula_moiety
;
C16 H22 B1 Mn1 N2 O3
;
_journal_coden_Cambridge 119
_journal_volume 1201
_journal_year 2020
_journal_page_first 127217
_journal_name_full 'J.Mol.Struct. '
loop_
_publ_author_name
"J.F.Van der Maelen"
"J.Brugos"
"P.Garcia-Alvarez"
"J.A.Cabeza"
_chemical_name_systematic
;
[N-(trihydridoboranyl)-N,N'-di-isopropylbenzenecarboximidamide]-tricarbonyl-ma
nganese
;
_cell_volume   1819.234
_exptl_crystal_colour 'yellow'
_exptl_crystal_density_diffrn 1.3
_diffrn_ambient_temperature 150
#These two values have been output from a single CSD field.
_refine_ls_R_factor_gt 0.0349
_refine_ls_wR_factor_gt 0.0349
_symmetry_cell_setting monoclinic
_symmetry_space_group_name_H-M 'C c'
_symmetry_Int_Tables_number 9
loop_
_symmetry_equiv_pos_site_id
_symmetry_equiv_pos_as_xyz
1 x,y,z
2 x,-y,1/2+z
3 1/2+x,1/2+y,z
4 1/2+x,1/2-y,1/2+z
_cell_length_a 10.6840(4)
_cell_length_b 15.7257(5)
_cell_length_c 12.0712(5)
_cell_angle_alpha 90
_cell_angle_beta 116.233(5)
_cell_angle_gamma 90
_cell_formula_units_Z 4
loop_
_atom_type_symbol
_atom_type_radius_bond
C 0.68
H 0.23
B 0.83
Mn 1.61
N 0.68
O 0.68
loop_
_atom_site_label
_atom_site_type_symbol
_atom_site_fract_x
_atom_site_fract_y
_atom_site_fract_z
C1 C 0.3643(5) 0.3068(4) 0.0340(5)
H1 H 0.38840 0.31290 -0.03510
H2 H 0.29820 0.35150 0.02920
H3 H 0.32170 0.25100 0.02980
C2 C 0.4689(6) 0.2989(3) 0.2670(5)
H4 H 0.43700 0.24020 0.26480
H5 H 0.39690 0.33820 0.26510
H6 H 0.55500 0.30790 0.34290
C3 C 0.4966(5) 0.3148(3) 0.1560(4)
H7 H 0.53320 0.37400 0.16210
C4 C 0.7301(4) 0.2819(3) 0.1663(3)
C5 C 0.7624(4) 0.3749(3) 0.1903(4)
C6 C 0.7275(5) 0.4321(3) 0.0927(4)
H8 H 0.68990 0.41160 0.01030
C7 C 0.7471(6) 0.5183(3) 0.1151(5)
H9 H 0.72120 0.55710 0.04830
C8 C 0.8046(6) 0.5477(3) 0.2353(6)
H10 H 0.81930 0.60700 0.25100
C9 C 0.8409(5) 0.4917(3) 0.3329(5)
H11 H 0.88040 0.51250 0.41520
C10 C 0.8197(4) 0.4052(3) 0.3105(4)
H12 H 0.84440 0.36670 0.37750
C11 C 0.9545(4) 0.2579(3) 0.1734(4)
H13 H 0.94680 0.32110 0.16340
C12 C 1.0689(5) 0.2398(3) 0.3022(5)
H14 H 1.04110 0.26200 0.36390
H15 H 1.15550 0.26740 0.31240
H16 H 1.08380 0.17830 0.31330
C13 C 0.9928(5) 0.2235(3) 0.0752(5)
H17 H 1.01160 0.16240 0.08820
H18 H 1.07630 0.25270 0.08060
H19 H 0.91530 0.23300 -0.00660
C14 C 0.7850(5) 0.0739(3) 0.0006(4)
C15 C 0.9168(5) 0.0516(3) 0.2409(4)
C16 C 0.6742(5) -0.0032(3) 0.1215(4)
N1 N 0.6046(4) 0.2548(2) 0.1565(4)
N2 N 0.8155(3) 0.2258(2) 0.1580(3)
O1 O 0.7967(5) 0.0542(3) -0.0838(4)
O2 O 1.0136(4) 0.0153(2) 0.3066(3)
O3 O 0.6217(4) -0.0681(2) 0.1127(3)
Mn1 Mn 0.75332(6) 0.09965(3) 0.13348(6)
B1 B 0.5812(5) 0.1621(3) 0.1430(5)
H20 H 0.482(5) 0.139(3) 0.134(5)
H21 H 0.613(6) 0.135(4) 0.053(5)
H22 H 0.677(5) 0.129(3) 0.214(5)
#END
