
#######################################################################
#
#                 Cambridge Crystallographic Data Centre
#                                CCDC
#
#######################################################################
#
# If this CIF has been generated from an entry in the Cambridge
# Structural Database, then it will include bibliographic, chemical,
# crystal, experimental, refinement or atomic coordinate data resulting
# from the CCDC's data processing and validation procedures.
#
#######################################################################

data_CSD_CIF_GOXXEW
_audit_creation_date 1999-09-21
_audit_creation_method CSD-ConQuest-V1
_database_code_CSD GOXXEW
_database_code_depnum_ccdc_archive 'CCDC 115817'
_chemical_formula_sum 'C12 H24 Br2 Mn1 O4'
_chemical_formula_moiety
;
C12 H24 Br2 Mn1 O4
;
_journal_coden_Cambridge 29
_journal_volume 625
_journal_year 1999
_journal_page_first 1101
_journal_name_full 'Z.Anorg.Allg.Chem. '
loop_
_publ_author_name
"O.Schneider"
"E.Gerstner"
"F.Weller"
"K.Dehnicke"
_chemical_name_systematic
;
Dibromo-bis(4-hydroxy-4-methyl-2-pentanone)-manganese(ii)
;
_cell_volume   1836.898
_exptl_crystal_colour 'colorless'
_exptl_crystal_density_diffrn 1.617
_exptl_crystal_description 'octahedral'
_diffrn_ambient_temperature ?
_diffrn_special_details
;
The study was carried out at room temperature,in the range 283-303K

;
#These two values have been output from a single CSD field.
_refine_ls_R_factor_gt 0.0256
_refine_ls_wR_factor_gt 0.0256
_symmetry_cell_setting monoclinic
_symmetry_space_group_name_H-M 'C 2/c'
_symmetry_Int_Tables_number 15
loop_
_symmetry_equiv_pos_site_id
_symmetry_equiv_pos_as_xyz
1 x,y,z
2 1/2+x,1/2+y,z
3 x,-y,1/2+z
4 1/2+x,1/2-y,1/2+z
5 -x,-y,-z
6 -1/2-x,-1/2-y,-z
7 -x,y,-1/2-z
8 -1/2-x,-1/2+y,-1/2-z
_cell_length_a 11.892(4)
_cell_length_b 13.172(3)
_cell_length_c 12.000(3)
_cell_angle_alpha 90
_cell_angle_beta 102.25(3)
_cell_angle_gamma 90
_cell_formula_units_Z 4
loop_
_atom_type_symbol
_atom_type_radius_bond
C 0.68
H 0.23
Br 1.21
Mn 1.35
O 0.68
loop_
_atom_site_label
_atom_site_type_symbol
_atom_site_fract_x
_atom_site_fract_y
_atom_site_fract_z
Br1 Br 0.05505(4) 0.35797(3) 0.60602(4)
Mn1 Mn 0.00000 0.48498(5) 0.75000
O1 O -0.1740(2) 0.50333(18) 0.6395(2)
O2 O -0.0690(3) 0.6124(2) 0.8392(3)
H1 H -0.054(4) 0.612(3) 0.898(4)
C1 C -0.1688(3) 0.6772(3) 0.8052(4)
C2 C -0.2347(3) 0.5790(3) 0.6209(3)
C3 C -0.1957(4) 0.6790(3) 0.6750(4)
C4 C -0.2684(5) 0.6350(6) 0.8518(5)
C5 C -0.1376(6) 0.7843(4) 0.8489(6)
C6 C -0.3498(5) 0.5726(5) 0.5418(8)
H2 H -0.119(4) 0.777(3) 0.930(4)
H3 H -0.081(4) 0.811(3) 0.813(4)
H4 H -0.202(4) 0.822(4) 0.827(4)
H5 H -0.238(4) 0.635(3) 0.932(4)
H6 H -0.328(4) 0.673(3) 0.831(4)
H7 H -0.286(4) 0.559(4) 0.826(5)
H8 H -0.253(3) 0.727(2) 0.655(3)
H9 H -0.127(3) 0.692(3) 0.652(3)
H10 H -0.400(4) 0.604(3) 0.578(4)
H11 H -0.351(6) 0.607(5) 0.484(6)
H12 H -0.372(4) 0.505(4) 0.516(4)
Br1F Br -0.05505(4) 0.35797(3) 0.89398(4)
O1F O 0.1740(2) 0.50333(18) 0.8605(2)
C2F C 0.2347(3) 0.5790(3) 0.8791(3)
C3F C 0.1957(4) 0.6790(3) 0.8250(4)
C1F C 0.1688(3) 0.6772(3) 0.6948(4)
O2F O 0.0690(3) 0.6124(2) 0.6608(3)
H1F H 0.054(4) 0.612(3) 0.602(4)
C4F C 0.2684(5) 0.6350(6) 0.6482(5)
H5F H 0.238(4) 0.635(3) 0.568(4)
H6F H 0.328(4) 0.673(3) 0.669(4)
H7F H 0.286(4) 0.559(4) 0.674(5)
C5F C 0.1376(6) 0.7843(4) 0.6511(6)
H2F H 0.119(4) 0.777(3) 0.570(4)
H3F H 0.081(4) 0.811(3) 0.687(4)
H4F H 0.202(4) 0.822(4) 0.673(4)
H8F H 0.253(3) 0.727(2) 0.845(3)
H9F H 0.127(3) 0.692(3) 0.848(3)
C6F C 0.3498(5) 0.5726(5) 0.9582(8)
H10F H 0.400(4) 0.604(3) 0.922(4)
H11F H 0.351(6) 0.607(5) 1.016(6)
H12F H 0.372(4) 0.505(4) 0.984(4)
#END
