
#######################################################################
#
#                 Cambridge Crystallographic Data Centre
#                                CCDC
#
#######################################################################
#
# If this CIF has been generated from an entry in the Cambridge
# Structural Database, then it will include bibliographic, chemical,
# crystal, experimental, refinement or atomic coordinate data resulting
# from the CCDC's data processing and validation procedures.
#
#######################################################################

data_CSD_CIF_GOYHIL
_audit_creation_date 1999-09-21
_audit_creation_method CSD-ConQuest-V1
_database_code_CSD GOYHIL
_database_code_depnum_ccdc_archive 'CCDC 120636'
_database_code_depnum_ccdc_journal 440/106
_chemical_formula_sum 'C10 H6 Cr1 O5'
_chemical_formula_moiety
;
C10 H6 Cr1 O5
;
_journal_coden_Cambridge 440
_journal_volume 23
_journal_year 1999
_journal_page_first 461
_journal_name_full 'New J.Chem. '
loop_
_publ_author_name
"R.Atencio"
"L.Brammer"
"Shiyue Fang"
"F.C.Pigge"
_chemical_name_systematic
;
(\h^6^-Benzoic acid)-tricarbonyl-chromium
;
_cell_volume    499.820
_exptl_crystal_colour 'orange'
_exptl_crystal_density_diffrn 1.716
_exptl_crystal_description 'plates'
_diffrn_ambient_temperature 208
#These two values have been output from a single CSD field.
_refine_ls_R_factor_gt 0.0449
_refine_ls_wR_factor_gt 0.0449
_symmetry_cell_setting triclinic
_symmetry_space_group_name_H-M 'P -1'
_symmetry_Int_Tables_number 2
loop_
_symmetry_equiv_pos_site_id
_symmetry_equiv_pos_as_xyz
1 x,y,z
2 -x,-y,-z
_cell_length_a 7.0349(3)
_cell_length_b 7.2332(3)
_cell_length_c 11.1518(5)
_cell_angle_alpha 88.710(1)
_cell_angle_beta 81.733(1)
_cell_angle_gamma 63.012(1)
_cell_formula_units_Z 2
loop_
_atom_type_symbol
_atom_type_radius_bond
C 0.68
H 0.23
Cr 1.35
O 0.68
loop_
_atom_site_label
_atom_site_type_symbol
_atom_site_fract_x
_atom_site_fract_y
_atom_site_fract_z
Cr1 Cr 0.18733(8) 0.13063(7) 0.21501(4)
O1 O -0.3657(3) 0.5841(3) 0.3815(2)
H1 H -0.5212(3) 0.6357(3) 0.4268(2)
O2 O -0.2465(4) 0.3219(4) 0.5058(2)
O3 O -0.0856(4) -0.0809(4) 0.2984(2)
C1 C 0.0231(5) -0.0032(4) 0.2652(3)
C2 C -0.2149(5) 0.4250(5) 0.4215(3)
C3 C 0.0096(5) 0.3665(4) 0.3618(3)
C4 C 0.4017(6) -0.1199(6) 0.1408(3)
O4 O 0.5298(5) -0.2772(4) 0.0967(3)
C5 C 0.1852(5) 0.1990(5) 0.4063(3)
H2 H 0.1600(5) 0.1332(5) 0.4760(3)
O5 O -0.0039(6) 0.2264(5) -0.0154(3)
C6 C 0.2606(5) 0.3996(5) 0.1979(3)
H3 H 0.2866(5) 0.4679(5) 0.1295(3)
C7 C 0.0475(5) 0.4652(5) 0.2575(3)
H4 H -0.0686(5) 0.5745(5) 0.2276(3)
C8 C 0.0706(6) 0.1884(5) 0.0729(3)
C9 C 0.4325(5) 0.2334(5) 0.2403(3)
H5 H 0.5736(5) 0.1877(5) 0.1991(3)
C10 C 0.3949(5) 0.1330(5) 0.3456(3)
H6 H 0.5113(5) 0.0223(5) 0.3745(3)
#END
