
#######################################################################
#
#                 Cambridge Crystallographic Data Centre
#                                CCDC
#
#######################################################################
#
# If this CIF has been generated from an entry in the Cambridge
# Structural Database, then it will include bibliographic, chemical,
# crystal, experimental, refinement or atomic coordinate data resulting
# from the CCDC's data processing and validation procedures.
#
#######################################################################

data_CSD_CIF_GUGDET
_audit_creation_date 2015-04-17
_audit_creation_method CSD-ConQuest-V1
_database_code_CSD GUGDET
_database_code_depnum_ccdc_archive 'CCDC 1038349'
_chemical_formula_sum 'C13 H25 Cl3 Fe1 N3 O4'
_chemical_formula_moiety
;
C13 H21 Cl2 Fe1 N3 O2 1+,2(H2 O1),Cl1 1-
;
_journal_coden_Cambridge 9
_journal_volume 54
_journal_year 2015
_journal_page_first 3352
_journal_name_full 'Inorg.Chem. '
loop_
_publ_author_name
"B.Drahos"
"R.Herchel"
"Z.Travnicek"
_chemical_name_systematic
;
dichloro-(6,9-dioxa-3,12,18-triazabicyclo[12.3.1]octadeca-1(18),14,16-triene)-
iron(iii) chloride dihydrate
;
_cell_volume   1856.394
_exptl_crystal_density_diffrn 1.609
_exptl_crystal_description 'prism'
_diffrn_ambient_temperature 120
#These two values have been output from a single CSD field.
_refine_ls_R_factor_gt 0.019
_refine_ls_wR_factor_gt 0.019
_symmetry_cell_setting monoclinic
_symmetry_space_group_name_H-M 'C 2/c'
_symmetry_Int_Tables_number 15
loop_
_symmetry_equiv_pos_site_id
_symmetry_equiv_pos_as_xyz
1 x,y,z
2 -x,y,1/2-z
3 1/2+x,1/2+y,z
4 1/2-x,1/2+y,1/2-z
5 -x,-y,-z
6 x,-y,-1/2+z
7 -1/2-x,-1/2-y,-z
8 -1/2+x,-1/2-y,-1/2+z
_cell_length_a 9.2600(2)
_cell_length_b 22.2181(6)
_cell_length_c 9.0231(2)
_cell_angle_alpha 90
_cell_angle_beta 90.231(2)
_cell_angle_gamma 90
_cell_formula_units_Z 4
loop_
_atom_type_symbol
_atom_type_radius_bond
C 0.68
H 0.23
Cl 0.99
Fe 1.52
N 0.68
O 0.68
loop_
_atom_site_label
_atom_site_type_symbol
_atom_site_fract_x
_atom_site_fract_y
_atom_site_fract_z
Fe1 Fe 0.50000 0.164554(12) 0.75000
Cl1 Cl 0.56361(4) 0.171253(15) 0.99709(4)
O1 O 0.36723(10) 0.24731(4) 0.79315(11)
N1 N 0.50000 0.06755(7) 0.75000
N2 N 0.28018(13) 0.13353(5) 0.80178(13)
C1 C 0.50000 -0.05558(9) 0.75000
C2 C 0.39358(16) -0.02451(7) 0.82575(16)
H1 H 0.32130 -0.04540 0.87960
C3 C 0.39533(15) 0.03771(6) 0.82102(15)
C4 C 0.28427(15) 0.07784(6) 0.89029(16)
H2 H 0.18850 0.05800 0.88940
H3 H 0.31090 0.08700 0.99430
C5 C 0.18681(16) 0.18081(7) 0.86402(16)
H4 H 0.20970 0.18710 0.97020
H5 H 0.08400 0.16900 0.85510
C6 C 0.21436(16) 0.23757(7) 0.77798(16)
H6 H 0.18700 0.23250 0.67250
H7 H 0.15930 0.27170 0.81990
C7 C 0.42099(18) 0.30263(7) 0.73174(18)
H8 H 0.4022(19) 0.3028(7) 0.628(2)
H9 H 0.3758(18) 0.3350(8) 0.7763(18)
H10 H 0.2486(18) 0.1228(8) 0.717(2)
H11 H 0.50000 -0.0981(12) 0.75000
O2 O 0.10512(13) 0.07551(6) 0.57760(14)
H12 H 0.083(2) 0.0673(10) 0.492(2)
H13 H 0.084(3) 0.0448(10) 0.617(3)
Cl2 Cl 0.00000 0.04222(2) 0.25000
O1A O 0.63277(10) 0.24731(4) 0.70685(11)
N2A N 0.71982(13) 0.13353(5) 0.69822(13)
C2A C 0.60642(16) -0.02451(7) 0.67425(16)
H1A H 0.67870 -0.04540 0.62040
C3A C 0.60467(15) 0.03771(6) 0.67898(15)
C4A C 0.71573(15) 0.07784(6) 0.60971(16)
H2A H 0.81150 0.05800 0.61060
H3A H 0.68910 0.08700 0.50570
C5A C 0.81319(16) 0.18081(7) 0.63598(16)
H4A H 0.79030 0.18710 0.52980
H5A H 0.91600 0.16900 0.64490
C6A C 0.78564(16) 0.23757(7) 0.72202(16)
H6A H 0.81300 0.23250 0.82750
H7A H 0.84070 0.27170 0.68010
C7A C 0.57901(18) 0.30263(7) 0.76826(18)
H8A H 0.5978(19) 0.3028(7) 0.872(2)
H9A H 0.6242(18) 0.3350(8) 0.7237(18)
H10A H 0.7514(18) 0.1228(8) 0.783(2)
Cl1A Cl 0.43639(4) 0.171253(15) 0.50291(4)
#END
