
#######################################################################
#
#                 Cambridge Crystallographic Data Centre
#                                CCDC
#
#######################################################################
#
# If this CIF has been generated from an entry in the Cambridge
# Structural Database, then it will include bibliographic, chemical,
# crystal, experimental, refinement or atomic coordinate data resulting
# from the CCDC's data processing and validation procedures.
#
#######################################################################

data_CSD_CIF_GUGTOR
_audit_creation_date 2000-03-09
_audit_creation_method CSD-ConQuest-V1
_database_code_CSD GUGTOR
_database_code_depnum_ccdc_archive 'CCDC 140923'
_chemical_formula_sum 'C13 H12 Cl2 Fe1 N3 O3'
_chemical_formula_moiety
;
C13 H12 Cl2 Fe1 N3 O3
;
_journal_coeditor_code "IUCr OA1093"
_journal_coden_Cambridge 591
_journal_volume 56
_journal_year 2000
_journal_page_first 22
_journal_name_full 'Acta Crystallogr.,Sect.C:Cryst.Struct.Commun. '
loop_
_publ_author_name
"T.Kajiwara"
"T.Ito"
_chemical_name_systematic
;
(bis(Pyridine-2-carbonyl)aminato)-dichloro-(methanol)-iron(iii)
;
_cell_volume    753.913
_exptl_crystal_colour 'yellow'
_exptl_crystal_density_diffrn 1.696
_exptl_crystal_description 'prismatic'
_diffrn_ambient_temperature 223
#These two values have been output from a single CSD field.
_refine_ls_R_factor_gt 0.035
_refine_ls_wR_factor_gt 0.035
_symmetry_cell_setting triclinic
_symmetry_space_group_name_H-M 'P -1'
_symmetry_Int_Tables_number 2
loop_
_symmetry_equiv_pos_site_id
_symmetry_equiv_pos_as_xyz
1 x,y,z
2 -x,-y,-z
_cell_length_a 8.3695(11)
_cell_length_b 8.5208(11)
_cell_length_c 11.7567(16)
_cell_angle_alpha 101.532(2)
_cell_angle_beta 97.517(2)
_cell_angle_gamma 109.958(3)
_cell_formula_units_Z 2
loop_
_atom_type_symbol
_atom_type_radius_bond
C 0.68
H 0.23
Cl 0.99
Fe 1.34
N 0.68
O 0.68
loop_
_atom_site_label
_atom_site_type_symbol
_atom_site_fract_x
_atom_site_fract_y
_atom_site_fract_z
Fe1 Fe 0.67363(5) 0.30928(5) 0.71699(3)
Cl1 Cl 0.62848(10) 0.32589(11) 0.52714(6)
Cl2 Cl 0.40061(9) 0.11938(10) 0.71164(6)
O1 O 0.8151(3) 0.5097(3) 1.08622(16)
O2 O 0.9078(3) 0.2231(3) 1.02267(17)
O3 O 0.9461(3) 0.4890(3) 0.73200(18)
N1 N 0.6293(3) 0.5291(3) 0.80433(19)
N2 N 0.7718(3) 0.3386(3) 0.89498(18)
N3 N 0.7841(3) 0.1191(3) 0.7087(2)
C1 C 0.5505(4) 0.6172(4) 0.7509(3)
C2 C 0.5200(4) 0.7541(4) 0.8151(3)
C3 C 0.5703(4) 0.8007(4) 0.9372(3)
C4 C 0.6513(4) 0.7105(4) 0.9932(3)
C5 C 0.6779(3) 0.5755(3) 0.9235(2)
C6 C 0.7636(3) 0.4699(3) 0.9783(2)
C7 C 0.8510(3) 0.2302(3) 0.9238(2)
C8 C 0.8619(3) 0.1106(3) 0.8139(2)
C9 C 0.9448(4) -0.0035(4) 0.8204(3)
C10 C 0.9462(4) -0.1118(4) 0.7174(3)
C11 C 0.8640(5) -0.1061(4) 0.6100(3)
C12 C 0.7835(4) 0.0119(4) 0.6083(3)
C13 C 1.0563(5) 0.4632(6) 0.6531(3)
H1 H 0.525(4) 0.585(4) 0.671(3)
H2 H 0.466(5) 0.805(4) 0.771(3)
H3 H 0.553(4) 0.895(4) 0.982(3)
H4 H 0.992(5) 0.516(5) 0.790(3)
H5 H 0.682(4) 0.736(4) 1.076(3)
H6 H 0.997(4) -0.004(4) 0.897(3)
H7 H 0.995(5) -0.193(5) 0.718(3)
H8 H 0.855(4) -0.188(4) 0.532(3)
H9 H 0.729(4) 0.021(4) 0.540(3)
H10 H 0.993(5) 0.413(5) 0.574(4)
H11 H 1.130(5) 0.580(5) 0.642(3)
H12 H 1.138(6) 0.417(6) 0.690(4)
#END
