
#######################################################################
#
#                 Cambridge Crystallographic Data Centre
#                                CCDC
#
#######################################################################
#
# If this CIF has been generated from an entry in the Cambridge
# Structural Database, then it will include bibliographic, chemical,
# crystal, experimental, refinement or atomic coordinate data resulting
# from the CCDC's data processing and validation procedures.
#
#######################################################################

data_CSD_CIF_GULQIP
_audit_creation_date 2015-04-21
_audit_creation_method CSD-ConQuest-V1
_database_code_CSD GULQIP
_database_code_depnum_ccdc_archive 'CCDC 1033010'
_chemical_formula_sum 'C26 H28 Co1 N2 O10'
_chemical_formula_moiety
;
C26 H28 Co1 N2 O10
;
_journal_coden_Cambridge 1500
_journal_volume 5
_journal_year 2015
_journal_page_first 35843
_journal_name_full 'RSC Advances '
loop_
_publ_author_name
"S.Tabassum"
"Ruchi Singh"
"M.Zaki"
"M.Ahmad"
"M.Afzal"
_chemical_name_systematic
;
tetra-aqua-bis(4-((pyridin-4-yl)methoxy)benzoato)-cobalt(ii)
;
_cell_volume    601.240
_exptl_crystal_colour 'red'
_exptl_crystal_density_diffrn 1.622
_exptl_crystal_description 'Block'
_diffrn_ambient_temperature 100
#These two values have been output from a single CSD field.
_refine_ls_R_factor_gt 0.0437
_refine_ls_wR_factor_gt 0.0437
_symmetry_cell_setting triclinic
_symmetry_space_group_name_H-M 'P -1'
_symmetry_Int_Tables_number 2
loop_
_symmetry_equiv_pos_site_id
_symmetry_equiv_pos_as_xyz
1 x,y,z
2 -x,-y,-z
_cell_length_a 6.270(4)
_cell_length_b 7.007(3)
_cell_length_c 15.402(5)
_cell_angle_alpha 97.886(5)
_cell_angle_beta 95.917(5)
_cell_angle_gamma 114.306(5)
_cell_formula_units_Z 1
loop_
_atom_type_symbol
_atom_type_radius_bond
C 0.68
H 0.23
Co 1.26
N 0.68
O 0.68
loop_
_atom_site_label
_atom_site_type_symbol
_atom_site_fract_x
_atom_site_fract_y
_atom_site_fract_z
Co1 Co 1.00000 0.50000 1.00000
O1 O 1.1920(4) 0.3190(4) 0.97736(15)
O2 O 0.0116(4) 0.0679(4) 0.14647(14)
O3 O 0.3821(4) 0.2314(4) 0.11962(14)
O4 O 0.6043(4) 0.2663(4) 0.53479(14)
C1 C 0.3319(6) 0.1874(5) 0.2673(2)
O5 O 1.2433(4) 0.7697(4) 0.95734(15)
C2 C 0.4600(6) 0.2549(5) 0.7607(2)
H1 H 0.29560 0.20520 0.75000
C3 C 0.1816(6) 0.1644(5) 0.3295(2)
H2 H 0.02230 0.13060 0.31060
C4 C 0.5040(6) 0.2417(5) 0.4484(2)
C5 C 0.8286(6) 0.3471(5) 0.7096(2)
H3 H 0.91800 0.36090 0.66430
C6 C 0.4499(6) 0.2443(5) 0.5987(2)
H4 H 0.32000 0.10190 0.58440
H5 H 0.38290 0.34650 0.59670
N1 N 0.8177(5) 0.3738(4) 0.86597(17)
C7 C 0.2337(6) 0.1582(5) 0.1697(2)
C8 C 0.5851(6) 0.2820(5) 0.6902(2)
C9 C 0.9362(6) 0.3910(5) 0.7977(2)
H6 H 1.09960 0.43490 0.81010
C10 C 0.5829(6) 0.3026(5) 0.8467(2)
H7 H 0.49720 0.28400 0.89320
C11 C 0.2660(6) 0.1913(5) 0.4201(2)
H8 H 0.16380 0.17570 0.46100
C12 C 0.5724(6) 0.2428(5) 0.2974(2)
H9 H 0.67600 0.26150 0.25680
C13 C 0.6566(6) 0.2696(5) 0.3866(2)
H10 H 0.81660 0.30660 0.40580
H11 H 1.250(7) 0.290(7) 1.021(2)
H12 H 1.382(4) 0.800(7) 0.945(3)
H13 H 1.117(9) 0.205(5) 0.937(2)
H14 H 1.171(9) 0.802(15) 0.917(4)
O1A O 0.8080(4) 0.6810(4) 1.02264(15)
O2A O 1.9884(4) 0.9321(4) 1.85353(14)
O3A O 1.6179(4) 0.7686(4) 1.88038(14)
O4A O 1.3957(4) 0.7337(4) 1.46521(14)
C1A C 1.6681(6) 0.8126(5) 1.7327(2)
O5A O 0.7567(4) 0.2303(4) 1.04266(15)
C2A C 1.5400(6) 0.7451(5) 1.2393(2)
H1A H 1.70440 0.79480 1.25000
C3A C 1.8184(6) 0.8356(5) 1.6705(2)
H2A H 1.97770 0.86940 1.68940
C4A C 1.4960(6) 0.7583(5) 1.5516(2)
C5A C 1.1714(6) 0.6529(5) 1.2904(2)
H3A H 1.08200 0.63910 1.33570
C6A C 1.5501(6) 0.7557(5) 1.4013(2)
H4A H 1.68000 0.89810 1.41560
H5A H 1.61710 0.65350 1.40330
N1A N 1.1823(5) 0.6262(4) 1.13403(17)
C7A C 1.7663(6) 0.8418(5) 1.8303(2)
C8A C 1.4149(6) 0.7180(5) 1.3098(2)
C9A C 1.0638(6) 0.6090(5) 1.2023(2)
H6A H 0.90040 0.56510 1.18990
C10A C 1.4171(6) 0.6974(5) 1.1533(2)
H7A H 1.50280 0.71600 1.10680
C11A C 1.7340(6) 0.8087(5) 1.5799(2)
H8A H 1.83620 0.82430 1.53900
C12A C 1.4276(6) 0.7572(5) 1.7026(2)
H9A H 1.32400 0.73850 1.74320
C13A C 1.3434(6) 0.7304(5) 1.6134(2)
H10A H 1.18340 0.69340 1.59420
H11A H 0.750(7) 0.710(7) 0.979(2)
H12A H 0.618(4) 0.200(7) 1.055(3)
H13A H 0.883(9) 0.795(5) 1.063(2)
H14A H 0.829(9) 0.198(15) 1.083(4)
#END
