
#######################################################################
#
#                 Cambridge Crystallographic Data Centre
#                                CCDC
#
#######################################################################
#
# If this CIF has been generated from an entry in the Cambridge
# Structural Database, then it will include bibliographic, chemical,
# crystal, experimental, refinement or atomic coordinate data resulting
# from the CCDC's data processing and validation procedures.
#
#######################################################################

data_CSD_CIF_GUZBUA
_audit_creation_date 2016-01-25
_audit_creation_method CSD-ConQuest-V1
_database_code_CSD GUZBUA
_database_code_depnum_ccdc_archive 'CCDC 1441575'
_chemical_formula_sum 'C17 H23 Fe1 N1 O1'
_chemical_formula_moiety
;
C17 H23 Fe1 N1 O1
;
_journal_coden_Cambridge 182
_journal_volume 52
_journal_year 2016
_journal_page_first 3163
_journal_name_full 'Chem.Commun. '
loop_
_publ_author_name
"M.Itazaki"
"S.Katsube"
"M.Kamitani"
"H.Nakazawa"
_chemical_name_systematic
;
(\h^5^-pentamethylcyclopentadienyl)-pyridine-methyl-carbonyl-iron
;
_cell_volume    788.466
_exptl_crystal_colour 'red'
_exptl_crystal_density_diffrn 1.319
_exptl_special_details
;
mounted on the CryoLoop with Palaton oil and placed in N2 stream at 200(2) K

;
_exptl_crystal_description 'Platelet'
_diffrn_ambient_temperature 200
_refine_special_details
;
O1 disordered by symmetry over two configurations with occupancy 0.50.

;
#These two values have been output from a single CSD field.
_refine_ls_R_factor_gt 0.039
_refine_ls_wR_factor_gt 0.039
_symmetry_cell_setting monoclinic
_symmetry_space_group_name_H-M 'P 21/m'
_symmetry_Int_Tables_number 11
loop_
_symmetry_equiv_pos_site_id
_symmetry_equiv_pos_as_xyz
1 x,y,z
2 -x,1/2+y,-z
3 -x,-y,-z
4 x,-1/2-y,z
_cell_length_a 7.4495(18)
_cell_length_b 13.489(3)
_cell_length_c 8.484(2)
_cell_angle_alpha 90
_cell_angle_beta 112.353(4)
_cell_angle_gamma 90
_cell_formula_units_Z 2
loop_
_atom_type_symbol
_atom_type_radius_bond
C 0.68
H 0.23
Fe 1.52
N 0.68
O 0.68
loop_
_atom_site_label
_atom_site_type_symbol
_atom_site_fract_x
_atom_site_fract_y
_atom_site_fract_z
C1 C 0.8654(3) 0.19731(14) 0.8542(2)
C2 C 0.8925(3) 0.16411(15) 0.7047(3)
C3 C 0.9118(4) 0.25000 0.6145(4)
C4 C 0.8566(3) 0.13376(17) 0.9955(3)
H1 H 0.98530 0.13090 1.08750
H2 H 0.81530 0.06670 0.95240
H3 H 0.76340 0.16200 1.03910
C5 C 0.9140(4) 0.05866(18) 0.6594(3)
H4 H 0.86670 0.05200 0.53520
H5 H 0.83830 0.01540 0.70370
H6 H 1.05110 0.03960 0.70970
C6 C 0.9470(5) 0.25000 0.4522(4)
H7 H 0.91910 0.31600 0.40010
Fe1 Fe 0.63548(5) 0.25000 0.64078(5)
C7 C 0.4753(3) 0.1490(2) 0.6660(3)
O1 O 0.3981(5) 0.0969(3) 0.7069(5)
N1 N 0.5057(3) 0.25000 0.3879(3)
C8 C 0.4693(3) 0.16518(17) 0.2977(3)
H8 H 0.49500 0.10400 0.35780
C9 C 0.3963(4) 0.1630(2) 0.1220(3)
H9 H 0.37260 0.10130 0.06360
C10 C 0.3579(5) 0.25000 0.0319(5)
H10 H 0.30630 0.25000 -0.08920
H11? H 0.53070 0.08430 0.65720
H12? H 0.34560 0.15500 0.57630
H13? H 0.46600 0.15490 0.77780
H14? H 0.86220 0.20100 0.37350
H15? H 1.08290 0.23300 0.47670
C1C C 0.8654(3) 0.30269(14) 0.8542(2)
C2C C 0.8925(3) 0.33589(15) 0.7047(3)
C4C C 0.8566(3) 0.36624(17) 0.9955(3)
H1C H 0.98530 0.36910 1.08750
H2C H 0.81530 0.43330 0.95240
H3C H 0.76340 0.33800 1.03910
C5C C 0.9140(4) 0.44134(18) 0.6594(3)
H4C H 0.86670 0.44800 0.53520
H5C H 0.83830 0.48460 0.70370
H6C H 1.05110 0.46040 0.70970
H7C H 0.91910 0.18400 0.40010
C8C C 0.4693(3) 0.33482(17) 0.2977(3)
H8C H 0.49500 0.39600 0.35780
C9C C 0.3963(4) 0.3370(2) 0.1220(3)
H9C H 0.37260 0.39870 0.06360
C7C C 0.4753(3) 0.3510(2) 0.6660(3)
O1C O 0.3981(5) 0.4031(3) 0.7069(5)
#END
