
#######################################################################
#
#                 Cambridge Crystallographic Data Centre
#                                CCDC
#
#######################################################################
#
# If this CIF has been generated from an entry in the Cambridge
# Structural Database, then it will include bibliographic, chemical,
# crystal, experimental, refinement or atomic coordinate data resulting
# from the CCDC's data processing and validation procedures.
#
#######################################################################

data_CSD_CIF_GUZFUD
_audit_creation_date 2010-11-12
_audit_creation_method CSD-ConQuest-V1
_database_code_CSD GUZFUD
_database_code_depnum_ccdc_archive 'CCDC 778121'
_chemical_formula_sum 'C12 H11 Br1 Fe1 N4 O3'
_chemical_formula_moiety
;
C10 H8 Br1 Fe1 N3 O3,C2 H3 N1
;
_journal_coden_Cambridge 179
_journal_volume 49
_journal_year 2010
_journal_page_first 7508
_journal_name_full 'Angew.Chem.,Int.Ed. '
loop_
_publ_author_name
"P.J.Turrell"
"J.A.Wright"
"J.N.T.Peck"
"V.S.Oganesyan"
"C.J.Pickett"
_chemical_name_systematic
;
(Acetonitrile)-(bromo)-dicarbonyl-(oxo((pyridin-2-yl)amino)methyl)-iron(ii) 
acetonitrile solvate
;
_cell_volume    750.067
_exptl_crystal_colour 'orange'
_exptl_crystal_density_diffrn 1.749
_exptl_crystal_description 'prism'
_diffrn_ambient_temperature 140
_refine_special_details
;
The acetonitrile solvent is disordered over two sites with occupancies of 
0.510:0.490.
;
#These two values have been output from a single CSD field.
_refine_ls_R_factor_gt 0.0242
_refine_ls_wR_factor_gt 0.0242
_symmetry_cell_setting triclinic
_symmetry_space_group_name_H-M 'P -1'
_symmetry_Int_Tables_number 2
loop_
_symmetry_equiv_pos_site_id
_symmetry_equiv_pos_as_xyz
1 x,y,z
2 -x,-y,-z
_cell_length_a 7.0927(7)
_cell_length_b 9.7730(8)
_cell_length_c 12.0713(9)
_cell_angle_alpha 108.256(7)
_cell_angle_beta 101.094(7)
_cell_angle_gamma 101.217(8)
_cell_formula_units_Z 2
loop_
_atom_type_symbol
_atom_type_radius_bond
C 0.68
H 0.23
Br 1.21
Fe 1.50
N 0.68
O 0.68
loop_
_atom_site_label
_atom_site_type_symbol
_atom_site_fract_x
_atom_site_fract_y
_atom_site_fract_z
Fe1 Fe 1.00108(5) 0.34528(4) 0.65093(3)
Br1 Br 1.28553(4) 0.24922(3) 0.71030(2)
N1 N 0.8243(3) 0.1710(2) 0.66649(17)
N2 N 0.9006(3) 0.3408(2) 0.85883(17)
H1 H 0.88920 0.37050 0.93340
N3 N 0.9660(3) 0.2338(2) 0.47290(18)
O1 O 1.1107(3) 0.56412(19) 0.89267(14)
O2 O 1.3116(3) 0.6025(2) 0.67003(16)
O3 O 0.6943(3) 0.4959(2) 0.61449(17)
C1 C 0.7393(3) 0.0326(3) 0.5836(2)
H2 H 0.75420 0.01210 0.50390
C2 C 0.6321(4) -0.0801(3) 0.6094(2)
H3 H 0.57460 -0.17730 0.54880
C3 C 0.6087(4) -0.0506(3) 0.7249(2)
H4 H 0.53270 -0.12720 0.74400
C4 C 0.6956(4) 0.0895(3) 0.8116(2)
H5 H 0.68270 0.11150 0.89180
C5 C 0.8031(3) 0.1985(3) 0.7794(2)
C6 C 1.0176(4) 0.4375(3) 0.8205(2)
C7 C 1.1889(4) 0.5019(3) 0.6600(2)
C8 C 0.8047(4) 0.4346(3) 0.6246(2)
C9 C 0.9396(4) 0.1811(3) 0.3709(2)
C10 C 0.9057(4) 0.1151(3) 0.2402(2)
H6 H 0.84510 0.17660 0.20160
H7 H 0.81590 0.01360 0.20940
H8 H 1.03340 0.11080 0.22150
C11 C 0.4067(9) 0.2164(7) 0.0438(5)
C12 C 0.351(3) 0.3556(17) 0.0679(19)
H9 H 0.22130 0.34250 0.08570
H10 H 0.34290 0.38430 -0.00330
H11 H 0.45220 0.43420 0.13770
N4 N 0.4574(8) 0.1105(7) 0.0301(4)
C13? C 0.2400(11) 0.2246(8) 0.0379(5)
C14? C 0.380(2) 0.3570(14) 0.0488(15)
H12? H 0.51540 0.34500 0.06640
H13? H 0.37080 0.44230 0.11490
H14? H 0.35090 0.37500 -0.02730
N5? N 0.1276(9) 0.1177(7) 0.0245(5)
#END
