
#######################################################################
#
#                 Cambridge Crystallographic Data Centre
#                                CCDC
#
#######################################################################
#
# If this CIF has been generated from an entry in the Cambridge
# Structural Database, then it will include bibliographic, chemical,
# crystal, experimental, refinement or atomic coordinate data resulting
# from the CCDC's data processing and validation procedures.
#
#######################################################################

data_CSD_CIF_GXMPYC10
_audit_creation_date 1976-05-27
_audit_creation_method CSD-ConQuest-V1
_database_code_CSD GXMPYC10
_chemical_formula_sum 'C14 H22 Co1 N5 O4'
_chemical_formula_moiety
;
C14 H22 Co1 N5 O4
;
_journal_coden_Cambridge 186
_journal_year 1976
_journal_page_first 96
_journal_name_full 'J.Chem.Soc.,Dalton Trans. '
loop_
_publ_author_name
"A.Bigotto"
"E.Zangrando"
"L.Randaccio"
_chemical_name_systematic
;
trans-bis(Dimethylglyoximato)methyl-pyridine-cobalt(iii)
;
_cell_volume    894.687
_exptl_crystal_density_diffrn 1.42
_diffrn_ambient_temperature ?
_diffrn_special_details
;
The study was carried out at room temperature,in the range 283-303K

;
#These two values have been output from a single CSD field.
_refine_ls_R_factor_gt 0.064
_refine_ls_wR_factor_gt 0.064
_symmetry_cell_setting triclinic
_symmetry_space_group_name_H-M 'P -1'
_symmetry_Int_Tables_number 2
loop_
_symmetry_equiv_pos_site_id
_symmetry_equiv_pos_as_xyz
1 x,y,z
2 -x,-y,-z
_cell_length_a 14.38(1)
_cell_length_b 10.02(1)
_cell_length_c 9.41(1)
_cell_angle_alpha 56.3(1)
_cell_angle_beta 127.3(1)
_cell_angle_gamma 106.6(1)
_cell_formula_units_Z 2
loop_
_atom_type_symbol
_atom_type_radius_bond
C 0.68
H 0.23
Co 1.33
N 0.68
O 0.68
loop_
_atom_site_label
_atom_site_type_symbol
_atom_site_fract_x
_atom_site_fract_y
_atom_site_fract_z
Co1 Co 0.22300 0.20370 0.37470
C1 C -0.12650 0.16380 -0.04230
C2 C 0.34470 -0.27060 0.62030
C3 C 0.29020 -0.37290 0.72320
C4 C 0.22150 -0.30850 0.72850
C5 C 0.20470 -0.14350 0.62810
C6 C 0.18750 0.44000 0.23110
C7 C 0.00200 0.18880 0.06990
C8 C 0.07480 0.22320 -0.00750
C9 C 0.02860 0.25590 -0.21840
C10 C 0.56810 0.26460 0.77840
C11 C 0.44170 0.23390 0.66740
C12 C 0.36860 0.20290 0.74410
C13 C 0.41110 0.19370 0.94220
C14 C 0.32370 -0.10710 0.52240
H1 H 0.40170 -0.31990 0.61640
H2 H -0.15510 0.17360 -0.18670
H3 H 0.30260 -0.50370 0.79830
H4 H -0.17590 0.25370 -0.07900
H5 H 0.18110 -0.38600 0.81120
H6 H -0.14100 0.04360 0.05310
H7 H 0.15030 -0.09310 0.63340
H8 H 0.24600 0.50640 0.18100
H9 H 0.19940 0.47000 0.33610
H10 H 0.09670 0.47370 0.09650
H11 H -0.06680 0.23920 -0.29800
H12 H 0.07230 0.17430 -0.20390
H13 H 0.04020 0.38020 -0.30940
H14 H 0.59670 0.25800 0.91900
H15 H 0.58020 0.38830 0.67710
H16 H 0.62140 0.17990 0.81370
H17 H 0.36000 0.30000 0.22000
H18 H 0.08000 0.14000 0.50000
H19 H 0.50780 0.21620 1.01620
H20 H 0.40300 0.07720 1.04550
H21 H 0.36700 0.28760 0.90800
H22 H 0.36310 -0.02590 0.44110
N1 N 0.06110 0.18310 0.24840
N2 N 0.18350 0.23390 0.12350
N3 N 0.38390 0.23750 0.49190
N4 N 0.26080 0.18640 0.61670
N5 N 0.25510 -0.04230 0.52510
O1 O 0.00770 0.15920 0.33780
O2 O 0.26330 0.26770 0.07810
O3 O 0.43610 0.26950 0.39610
O4 O 0.17950 0.16350 0.65610
#END
