
#######################################################################
#
#                 Cambridge Crystallographic Data Centre
#                                CCDC
#
#######################################################################
#
# If this CIF has been generated from an entry in the Cambridge
# Structural Database, then it will include bibliographic, chemical,
# crystal, experimental, refinement or atomic coordinate data resulting
# from the CCDC's data processing and validation procedures.
#
#######################################################################

data_CSD_CIF_HAGCEY
_audit_creation_date 2003-08-21
_audit_creation_method CSD-ConQuest-V1
_database_code_CSD HAGCEY
_database_code_depnum_ccdc_archive 'CCDC 194449'
_chemical_formula_sum 'C14 H10 Fe1 N2 O4 S2'
_chemical_formula_moiety
;
C14 H10 Fe1 N2 O4 S2
;
_journal_coden_Cambridge 36
_journal_volume 668
_journal_year 2003
_journal_page_first 95
_journal_name_full 'J.Organomet.Chem. '
loop_
_publ_author_name
"B.Rudolf"
"M.Makowska"
"A.Domagala"
"A.Rybarczyk-Pirek"
"J.Zakrzewski"
_chemical_name_systematic
;
Dicarbonyl-(\h^5^-cyclopentadienyl)-(4-(isothiocyanato)benzenesulfonamido-N)-i
ron
;
_cell_volume    820.028
_exptl_crystal_colour 'orange'
_exptl_crystal_density_diffrn 1.58
_exptl_crystal_description 'cubic block'
_exptl_crystal_preparation 'dichloromethane/hexane'
_diffrn_ambient_temperature 293
#These two values have been output from a single CSD field.
_refine_ls_R_factor_gt 0.0437
_refine_ls_wR_factor_gt 0.0437
_symmetry_cell_setting triclinic
_symmetry_space_group_name_H-M 'P -1'
_symmetry_Int_Tables_number 2
loop_
_symmetry_equiv_pos_site_id
_symmetry_equiv_pos_as_xyz
1 x,y,z
2 -x,-y,-z
_cell_length_a 8.5442(4)
_cell_length_b 12.953(1)
_cell_length_c 7.6173(4)
_cell_angle_alpha 94.513(5)
_cell_angle_beta 93.801(4)
_cell_angle_gamma 101.700(5)
_cell_formula_units_Z 2
loop_
_atom_type_symbol
_atom_type_radius_bond
C 0.68
H 0.23
Fe 1.34
N 0.68
O 0.68
S 1.02
loop_
_atom_site_label
_atom_site_type_symbol
_atom_site_fract_x
_atom_site_fract_y
_atom_site_fract_z
Fe1 Fe 0.33853(8) 0.17620(5) 0.29193(9)
C1 C 0.4395(7) 0.1645(5) 0.4975(7)
O1 O 0.5072(5) 0.1575(4) 0.6290(5)
C2 C 0.3199(7) 0.3065(4) 0.3486(8)
O2 O 0.3167(6) 0.3933(3) 0.3850(7)
S1 S -0.2934(2) 0.52814(13) 1.17153(19)
C3 C -0.2372(6) 0.4721(4) 1.0059(7)
N1 N -0.1950(6) 0.4339(4) 0.8809(7)
S2 S -0.03924(14) 0.12995(9) 0.33227(14)
N2 N 0.1321(4) 0.1071(3) 0.3711(5)
H1 H 0.135(4) 0.065(3) 0.455(4)
O3 O -0.1597(3) 0.0361(2) 0.3526(4)
O4 O -0.0492(3) 0.1762(2) 0.1686(4)
C4 C -0.0747(5) 0.2259(3) 0.4975(5)
C5 C -0.1123(6) 0.3190(4) 0.4521(6)
H2 H -0.11020 0.33530 0.33550
C6 C -0.1528(6) 0.3878(4) 0.5789(7)
H3 H -0.18040 0.45030 0.54800
C7 C -0.1527(6) 0.3642(4) 0.7509(7)
C8 C -0.1131(6) 0.2719(4) 0.7997(6)
H4 H -0.11250 0.25650 0.91690
C9 C -0.0744(5) 0.2030(4) 0.6707(6)
H5 H -0.04770 0.14020 0.70110
C10 C 0.2723(5) 0.1002(8) 0.0405(7)
H6 H 0.16750 0.07090 -0.00440
C11 C 0.3676(12) 0.0497(3) 0.1214(8)
H7 H 0.34160 -0.02070 0.14540
C12 C 0.5085(8) 0.1152(9) 0.1642(6)
H8 H 0.59750 0.09860 0.22340
C13 C 0.5003(9) 0.2093(6) 0.1073(10)
H9 H 0.58220 0.26940 0.11710
C14 C 0.3463(13) 0.1995(7) 0.0315(7)
H10 H 0.30290 0.25240 -0.01650
#END
