
#######################################################################
#
#                 Cambridge Crystallographic Data Centre
#                                CCDC
#
#######################################################################
#
# If this CIF has been generated from an entry in the Cambridge
# Structural Database, then it will include bibliographic, chemical,
# crystal, experimental, refinement or atomic coordinate data resulting
# from the CCDC's data processing and validation procedures.
#
#######################################################################

data_CSD_CIF_HAGPEL
_audit_creation_date 2003-08-21
_audit_creation_method CSD-ConQuest-V1
_database_code_CSD HAGPEL
_database_code_depnum_ccdc_archive 'CCDC 149588'
_chemical_formula_sum 'C18 H16 Co1 N2 S2'
_chemical_formula_moiety
;
C18 H16 Co1 N2 S2
;
_journal_coden_Cambridge 369
_journal_volume 28
_journal_year 2003
_journal_page_first 24
_journal_name_full 'Transition Met.Chem. '
loop_
_publ_author_name
"J.R.Anacona"
"M.Azocar"
"O.Nusetti"
"C.Rodriguez-Barbarin"
_chemical_name_systematic
;
bis(Quinoline)-disulfanyl-cobalt(ii)
;
_cell_volume    802.699
_exptl_crystal_colour 'blue'
_exptl_crystal_density_diffrn 1.586
_exptl_crystal_description 'prismatic'
_exptl_crystal_preparation 'methanol'
_diffrn_ambient_temperature 298
#These two values have been output from a single CSD field.
_refine_ls_R_factor_gt 0.12
_refine_ls_wR_factor_gt 0.12
_symmetry_cell_setting monoclinic
_symmetry_space_group_name_H-M 'P 2/n'
_symmetry_Int_Tables_number 13
loop_
_symmetry_equiv_pos_site_id
_symmetry_equiv_pos_as_xyz
1 x,y,z
2 1/2-x,y,1/2-z
3 -x,-y,-z
4 -1/2+x,-y,-1/2+z
_cell_length_a 7.790(2)
_cell_length_b 7.081(2)
_cell_length_c 14.552(4)
_cell_angle_alpha 90
_cell_angle_beta 90.17
_cell_angle_gamma 90
_cell_formula_units_Z 2
loop_
_atom_type_symbol
_atom_type_radius_bond
C 0.68
H 0.23
Co 1.33
N 0.68
S 0.96
loop_
_atom_site_label
_atom_site_type_symbol
_atom_site_fract_x
_atom_site_fract_y
_atom_site_fract_z
Co1 Co 0.25000 0.6924(1) 0.2500(1)
S1 S 0.0099(2) 0.8662(2) 0.2541(2)
N1 N 0.2226(4) 0.5191(4) 0.3634(3)
C1 C 0.1535(6) 0.3486(6) 0.3528(3)
C2 C 0.1234(6) 0.2230(6) 0.4248(3)
C3 C 0.1643(6) 0.2743(6) 0.5116(3)
C4 C 0.2356(5) 0.4531(6) 0.5272(2)
C5 C 0.2782(6) 0.5177(7) 0.6169(2)
C6 C 0.3393(6) 0.6948(7) 0.6300(2)
C7 C 0.3645(6) 0.8152(6) 0.5551(3)
C8 C 0.3266(6) 0.7589(6) 0.4679(3)
C9 C 0.2630(5) 0.5754(5) 0.4517(2)
H1 H -0.0670(2) 0.8634(2) 0.2181(1)
H2 H 0.1233(6) 0.3109(6) 0.2937(3)
H3 H 0.0756(6) 0.1050(6) 0.4131(3)
H4 H 0.1453(6) 0.1920(6) 0.5603(3)
H5 H 0.2641(6) 0.4378(7) 0.6670(2)
H6 H 0.3646(6) 0.7365(7) 0.6891(2)
H7 H 0.4079(6) 0.9358(6) 0.5650(3)
H8 H 0.3427(6) 0.8415(6) 0.4190(3)
S1A S 0.4901(2) 0.8662(2) 0.2459(2)
H1A H 0.5670(2) 0.8634(2) 0.2819(1)
N1A N 0.2774(4) 0.5191(4) 0.1366(3)
C1A C 0.3465(6) 0.3486(6) 0.1472(3)
C2A C 0.3766(6) 0.2230(6) 0.0752(3)
C3A C 0.3357(6) 0.2743(6) -0.0116(3)
C4A C 0.2644(5) 0.4531(6) -0.0272(2)
C5A C 0.2218(6) 0.5177(7) -0.1169(2)
C6A C 0.1607(6) 0.6948(7) -0.1300(2)
C7A C 0.1355(6) 0.8152(6) -0.0551(3)
C8A C 0.1734(6) 0.7589(6) 0.0321(3)
C9A C 0.2370(5) 0.5754(5) 0.0483(2)
H8A H 0.1573(6) 0.8415(6) 0.0810(3)
H7A H 0.0921(6) 0.9358(6) -0.0650(3)
H6A H 0.1354(6) 0.7365(7) -0.1891(2)
H5A H 0.2359(6) 0.4378(7) -0.1670(2)
H4A H 0.3547(6) 0.1920(6) -0.0603(3)
H3A H 0.4244(6) 0.1050(6) 0.0869(3)
H2A H 0.3767(6) 0.3109(6) 0.2063(3)
#END
