
#######################################################################
#
#                 Cambridge Crystallographic Data Centre
#                                CCDC
#
#######################################################################
#
# If this CIF has been generated from an entry in the Cambridge
# Structural Database, then it will include bibliographic, chemical,
# crystal, experimental, refinement or atomic coordinate data resulting
# from the CCDC's data processing and validation procedures.
#
#######################################################################

data_CSD_CIF_HAHXOE
_audit_creation_date 2005-03-15
_audit_creation_method CSD-ConQuest-V1
_database_code_CSD HAHXOE
_database_code_depnum_ccdc_archive 'CCDC 233717'
_chemical_formula_sum 'C15 H11 Br2 Mn1 N3'
_chemical_formula_moiety
;
C15 H11 Br2 Mn1 N3
;
_journal_coden_Cambridge 9
_journal_volume 43
_journal_year 2004
_journal_page_first 6455
_journal_name_full 'Inorg.Chem. '
loop_
_publ_author_name
"C.Mantel"
"C.Baffert"
"I.Romero"
"A.Deronzier"
"J.Pecaut"
"M.-N.Collomb"
"C.Duboc"
_chemical_name_systematic
;
Dibromo-(2,2':6',2''-terpyridyl)-manganese(ii)
;
_cell_volume   1509.476
_exptl_crystal_colour 'orange'
_exptl_crystal_density_diffrn 1.972
_diffrn_ambient_temperature 298
#These two values have been output from a single CSD field.
_refine_ls_R_factor_gt 0.0554
_refine_ls_wR_factor_gt 0.0554
_symmetry_cell_setting monoclinic
_symmetry_space_group_name_H-M 'C 2/c'
_symmetry_Int_Tables_number 15
loop_
_symmetry_equiv_pos_site_id
_symmetry_equiv_pos_as_xyz
1 x,y,z
2 x,-y,1/2+z
3 1/2+x,1/2+y,z
4 1/2+x,1/2-y,1/2+z
5 -x,-y,-z
6 -x,y,-1/2-z
7 -1/2-x,-1/2-y,-z
8 -1/2-x,-1/2+y,-1/2-z
_cell_length_a 17.119(6)
_cell_length_b 9.439(3)
_cell_length_c 11.612(3)
_cell_angle_alpha 90
_cell_angle_beta 126.44(2)
_cell_angle_gamma 90
_cell_formula_units_Z 4
loop_
_atom_type_symbol
_atom_type_radius_bond
C 0.68
H 0.23
Br 1.21
Mn 1.35
N 0.68
loop_
_atom_site_label
_atom_site_type_symbol
_atom_site_fract_x
_atom_site_fract_y
_atom_site_fract_z
Mn1 Mn 0.50000 0.74937(12) 0.25000
Br1 Br 0.37750(5) 0.88961(7) 0.03188(7)
N1 N 0.5906(3) 0.6761(5) 0.1805(5)
N2 N 0.50000 0.5159(6) 0.25000
C1 C 0.6351(5) 0.7655(6) 0.1459(7)
H1 H 0.627(5) 0.864(7) 0.153(9)
C2 C 0.6915(5) 0.7203(8) 0.1038(7)
H2 H 0.733(4) 0.792(6) 0.092(6)
C3 C 0.7010(5) 0.5760(8) 0.0957(7)
H3 H 0.740(4) 0.544(6) 0.066(7)
C4 C 0.6554(5) 0.4840(7) 0.1285(7)
H4 H 0.658(5) 0.392(7) 0.123(8)
C5 C 0.6012(4) 0.5361(6) 0.1717(6)
C6 C 0.5493(4) 0.4445(6) 0.2101(5)
C7 C 0.5487(5) 0.2988(6) 0.2068(7)
H5 H 0.577(5) 0.244(7) 0.173(8)
C8 C 0.50000 0.2255(9) 0.25000
H6 H 0.50000 0.123(10) 0.25000
Br1E Br 0.62250(5) 0.88961(7) 0.46812(7)
N1E N 0.4094(3) 0.6761(5) 0.3195(5)
C1E C 0.3649(5) 0.7655(6) 0.3541(7)
H1E H 0.373(5) 0.864(7) 0.347(9)
C2E C 0.3085(5) 0.7203(8) 0.3962(7)
H2E H 0.267(4) 0.792(6) 0.408(6)
C3E C 0.2990(5) 0.5760(8) 0.4043(7)
H3E H 0.260(4) 0.544(6) 0.434(7)
C4E C 0.3446(5) 0.4840(7) 0.3715(7)
H4E H 0.342(5) 0.392(7) 0.377(8)
C5E C 0.3988(4) 0.5361(6) 0.3283(6)
C6E C 0.4507(4) 0.4445(6) 0.2899(5)
C7E C 0.4513(5) 0.2988(6) 0.2932(7)
H5E H 0.423(5) 0.244(7) 0.327(8)
#END
