
#######################################################################
#
#                 Cambridge Crystallographic Data Centre
#                                CCDC
#
#######################################################################
#
# If this CIF has been generated from an entry in the Cambridge
# Structural Database, then it will include bibliographic, chemical,
# crystal, experimental, refinement or atomic coordinate data resulting
# from the CCDC's data processing and validation procedures.
#
#######################################################################

data_CSD_CIF_HAHYAR
_audit_creation_date 2005-03-15
_audit_creation_method CSD-ConQuest-V1
_database_code_CSD HAHYAR
_database_code_depnum_ccdc_archive 'CCDC 233719'
_chemical_formula_sum 'C15 H11 I2 Mn1 N3'
_chemical_formula_moiety
;
C15 H11 I2 Mn1 N3
;
_journal_coden_Cambridge 9
_journal_volume 43
_journal_year 2004
_journal_page_first 6455
_journal_name_full 'Inorg.Chem. '
loop_
_publ_author_name
"C.Mantel"
"C.Baffert"
"I.Romero"
"A.Deronzier"
"J.Pecaut"
"M.-N.Collomb"
"C.Duboc"
_chemical_name_systematic
;
Di-iodo-(2,2':6',2''-terpyridyl)-manganese(ii)
;
_cell_volume   1653.491
_exptl_crystal_colour 'yellow'
_exptl_crystal_density_diffrn 2.177
_exptl_crystal_preparation 'dichloromethane'
_diffrn_ambient_temperature 298
#These two values have been output from a single CSD field.
_refine_ls_R_factor_gt 0.0714
_refine_ls_wR_factor_gt 0.0714
_symmetry_cell_setting monoclinic
_symmetry_space_group_name_H-M 'C 2/c'
_symmetry_Int_Tables_number 15
loop_
_symmetry_equiv_pos_site_id
_symmetry_equiv_pos_as_xyz
1 x,y,z
2 1/2+x,1/2+y,z
3 x,-y,1/2+z
4 1/2+x,1/2-y,1/2+z
5 -x,-y,-z
6 -1/2-x,-1/2-y,-z
7 -x,y,-1/2-z
8 -1/2-x,-1/2+y,-1/2-z
_cell_length_a 17.430(3)
_cell_length_b 9.8244(15)
_cell_length_c 11.9284(19)
_cell_angle_alpha 90
_cell_angle_beta 125.953(2)
_cell_angle_gamma 90
_cell_formula_units_Z 4
loop_
_atom_type_symbol
_atom_type_radius_bond
C 0.68
H 0.23
I 1.40
Mn 1.35
N 0.68
loop_
_atom_site_label
_atom_site_type_symbol
_atom_site_fract_x
_atom_site_fract_y
_atom_site_fract_z
Mn1 Mn 1.00000 0.24217(13) 0.75000
I1 I 0.87159(3) 0.39234(5) 0.52309(4)
N1 N 0.9112(4) 0.1725(5) 0.8185(5)
N2 N 1.00000 0.0149(7) 0.75000
C1 C 0.8679(5) 0.2593(7) 0.8535(7)
H1 H 0.87540 0.35250 0.84930
C2 C 0.8129(5) 0.2149(9) 0.8951(7)
H2 H 0.78250 0.27700 0.91550
C3 C 0.8042(6) 0.0782(9) 0.9056(7)
H3 H 0.76960 0.04540 0.93660
C4 C 0.8485(5) -0.0121(7) 0.8687(6)
H4 H 0.84150 -0.10560 0.87160
C5 C 0.9018(4) 0.0384(7) 0.8286(6)
C6 C 0.9514(4) -0.0502(6) 0.7889(6)
C7 C 0.9504(5) -0.1912(6) 0.7900(7)
H5 H 0.91720 -0.23760 0.81710
C8 C 1.00000 -0.2628(10) 0.75000
H6 H 1.00000 -0.35740 0.75000
I1F I 1.12841(3) 0.39234(5) 0.97691(4)
N1F N 1.0888(4) 0.1725(5) 0.6815(5)
C1F C 1.1321(5) 0.2593(7) 0.6465(7)
H1F H 1.12460 0.35250 0.65070
C2F C 1.1871(5) 0.2149(9) 0.6049(7)
H2F H 1.21750 0.27700 0.58450
C3F C 1.1958(6) 0.0782(9) 0.5944(7)
H3F H 1.23040 0.04540 0.56340
C4F C 1.1515(5) -0.0121(7) 0.6313(6)
H4F H 1.15850 -0.10560 0.62840
C5F C 1.0982(4) 0.0384(7) 0.6714(6)
C6F C 1.0486(4) -0.0502(6) 0.7111(6)
C7F C 1.0496(5) -0.1912(6) 0.7100(7)
H5F H 1.08280 -0.23760 0.68290
#END
