
#######################################################################
#
#                 Cambridge Crystallographic Data Centre
#                                CCDC
#
#######################################################################
#
# If this CIF has been generated from an entry in the Cambridge
# Structural Database, then it will include bibliographic, chemical,
# crystal, experimental, refinement or atomic coordinate data resulting
# from the CCDC's data processing and validation procedures.
#
#######################################################################

data_CSD_CIF_HAJGEF
_audit_creation_date 2005-03-15
_audit_creation_method CSD-ConQuest-V1
_database_code_CSD HAJGEF
_database_code_depnum_ccdc_archive 'CCDC 248215'
_chemical_formula_sum 'C14 H16 Co1 N2 O6'
_chemical_formula_moiety
;
C14 H16 Co1 N2 O6
;
_journal_coden_Cambridge 1078
_journal_year 2004
_journal_name_full 'CSD Communication(Private Communication) '
loop_
_publ_author_name
"S.Parsons"
"E.Brechin"
"R.Winpenny"
"P.A.Wood"
_chemical_name_systematic
;
bis(Methanol)-bis(pyridine-2-carboxylato-N,O)-cobalt(ii)
;
_cell_volume    839.801
_exptl_crystal_colour 'pink'
_exptl_special_details
;
contribution from School of Chemistry, The University of Edinburgh King's 
Buildings, West Mains Road, Edinburgh, Scotland EH9 3JJ
The unit cell length a appears to be 9.9798, not 8.9798 as reported
;
_exptl_crystal_description 'tablet'
_exptl_crystal_preparation 'methanol'
_diffrn_ambient_temperature 220
#These two values have been output from a single CSD field.
_refine_ls_R_factor_gt 0.0306
_refine_ls_wR_factor_gt 0.0306
_symmetry_cell_setting monoclinic
_symmetry_space_group_name_H-M 'P 21/n'
_symmetry_Int_Tables_number 14
loop_
_symmetry_equiv_pos_site_id
_symmetry_equiv_pos_as_xyz
1 x,y,z
2 1/2-x,1/2+y,1/2-z
3 -x,-y,-z
4 -1/2+x,-1/2-y,-1/2+z
_cell_length_a 9.9798(9)
_cell_length_b 6.2014(7)
_cell_length_c 14.2304(16)
_cell_angle_alpha 90
_cell_angle_beta 107.530(8)
_cell_angle_gamma 90
_cell_formula_units_Z 2
loop_
_atom_type_symbol
_atom_type_radius_bond
C 0.68
H 0.23
Co 1.33
N 0.68
O 0.68
loop_
_atom_site_label
_atom_site_type_symbol
_atom_site_fract_x
_atom_site_fract_y
_atom_site_fract_z
Co1 Co 0.00000 0.00000 0.00000
O1 O -0.1629(2) 0.1751(2) -0.11785(11)
H1 H -0.2117(32) 0.2680(56) -0.0983(24)
C1 C -0.1271(3) 0.2541(4) -0.2029(2)
H2 H -0.0591(14) 0.3698(19) -0.1830(3)
H3 H -0.2111(4) 0.3076(27) -0.2514(6)
H4 H -0.0872(17) 0.1377(8) -0.2313(8)
N1 N 0.1780(2) 0.0062(3) -0.06741(11)
C2 C 0.2670(2) 0.1842(3) -0.04359(14)
C3 C 0.2193(2) 0.3390(3) 0.02530(15)
O2 O 0.2964(2) 0.5081(3) 0.04804(12)
O3 O 0.10609(15) 0.2835(2) 0.05481(10)
C4 C 0.3929(2) 0.2209(4) -0.0781(2)
H5 H 0.4465(2) 0.3472(4) -0.0599(2)
C5 C 0.4307(2) 0.0666(4) -0.1376(2)
H6 H 0.5099(2) 0.0825(4) -0.1597(2)
C6 C 0.3403(2) -0.1158(4) -0.1619(2)
H7 H 0.3602(2) -0.2243(4) -0.2019(2)
C7 C 0.2148(2) -0.1407(3) -0.1261(2)
H8 H 0.1585(2) -0.2642(3) -0.1451(2)
O1B O 0.1629(2) -0.1751(2) 0.11785(11)
H1B H 0.2117(32) -0.2680(56) 0.0983(24)
C1B C 0.1271(3) -0.2541(4) 0.2029(2)
H2B H 0.0591(14) -0.3698(19) 0.1830(3)
H3B H 0.2111(4) -0.3076(27) 0.2514(6)
H4B H 0.0872(17) -0.1377(8) 0.2313(8)
N1B N -0.1780(2) -0.0062(3) 0.06741(11)
C2B C -0.2670(2) -0.1842(3) 0.04359(14)
C3B C -0.2193(2) -0.3390(3) -0.02530(15)
O2B O -0.2964(2) -0.5081(3) -0.04804(12)
O3B O -0.10609(15) -0.2835(2) -0.05481(10)
C4B C -0.3929(2) -0.2209(4) 0.0781(2)
H5B H -0.4465(2) -0.3472(4) 0.0599(2)
C5B C -0.4307(2) -0.0666(4) 0.1376(2)
H6B H -0.5099(2) -0.0825(4) 0.1597(2)
C6B C -0.3403(2) 0.1158(4) 0.1619(2)
H7B H -0.3602(2) 0.2243(4) 0.2019(2)
C7B C -0.2148(2) 0.1407(3) 0.1261(2)
H8B H -0.1585(2) 0.2642(3) 0.1451(2)
#END
