
#######################################################################
#
#                 Cambridge Crystallographic Data Centre
#                                CCDC
#
#######################################################################
#
# If this CIF has been generated from an entry in the Cambridge
# Structural Database, then it will include bibliographic, chemical,
# crystal, experimental, refinement or atomic coordinate data resulting
# from the CCDC's data processing and validation procedures.
#
#######################################################################

data_CSD_CIF_HAJKIM
_audit_creation_date 1994-04-10
_audit_creation_method CSD-ConQuest-V1
_database_code_CSD HAJKIM
_database_code_depnum_ccdc_archive 'CCDC 1171676'
_chemical_formula_sum 'C8 H16 Br2 Co1 N8 O4'
_chemical_formula_moiety
;
C8 H16 Co1 N8 O4 2+,2(Br1 1-)
;
_journal_coden_Cambridge 155
_journal_volume 209
_journal_year 1993
_journal_page_first 219
_journal_name_full 'Inorg.Chim.Acta '
loop_
_publ_author_name
"M.B.Cingi"
"M.Lanfranchi"
"A.M.Manotti Lanfredi"
"S.Ferrer"
"J.G.Haasnoot"
"J.Reedijk"
_chemical_name_systematic
;
Diaqua-bis(3-acetylamino-1,2,4-triazole)-cobalt(ii) dibromide
;
_cell_volume    861.355
_exptl_crystal_density_diffrn 1.955
_exptl_special_details
;
Isomorphous with the chloro and copper analogues

;
_diffrn_ambient_temperature ?
_diffrn_special_details
;
The study was carried out at room temperature,in the range 283-303K

;
#These two values have been output from a single CSD field.
_refine_ls_R_factor_gt 0.0333
_refine_ls_wR_factor_gt 0.0333
_symmetry_cell_setting monoclinic
_symmetry_space_group_name_H-M 'P 21/a'
_symmetry_Int_Tables_number 14
loop_
_symmetry_equiv_pos_site_id
_symmetry_equiv_pos_as_xyz
1 x,y,z
2 1/2-x,1/2+y,-z
3 -x,-y,-z
4 -1/2+x,-1/2-y,z
_cell_length_a 9.686(3)
_cell_length_b 14.433(4)
_cell_length_c 6.169(2)
_cell_angle_alpha 90
_cell_angle_beta 92.84(2)
_cell_angle_gamma 90
_cell_formula_units_Z 2
loop_
_atom_type_symbol
_atom_type_radius_bond
C 0.68
H 0.23
Br 1.21
Co 1.33
N 0.68
O 0.68
loop_
_atom_site_label
_atom_site_type_symbol
_atom_site_fract_x
_atom_site_fract_y
_atom_site_fract_z
Co1 Co 0.50000 0.00000 0.00000
O1 O 0.5525(5) -0.1215(3) -0.1670(8)
O2 O 0.3765(4) -0.0781(3) 0.2025(7)
N1 N 0.1671(6) 0.0497(4) -0.4422(9)
N2 N 0.0975(5) -0.0048(4) -0.3041(9)
N3 N 0.3222(5) 0.0106(4) -0.1969(8)
N4 N 0.1704(6) -0.0849(4) 0.0130(9)
C1 C 0.1965(6) -0.0260(4) -0.1597(10)
C2 C 0.2974(7) 0.0575(5) -0.3785(11)
C3 C 0.2581(6) -0.1090(4) 0.1777(10)
C4 C 0.2031(8) -0.1771(5) 0.3327(12)
H1 H 0.1202(74) 0.0707(45) -0.557(12)
H2 H 0.3612(78) 0.0944(47) -0.457(12)
H3 H 0.0782(72) -0.1079(52) -0.013(11)
H4 H 0.0941(74) -0.1658(48) 0.321(12)
H5 H 0.1904(71) -0.2495(54) 0.282(11)
H6 H 0.2680(78) -0.1648(46) 0.470(13)
H7 H 0.6391(76) -0.1419(51) -0.128(12)
H8 H 0.5168(80) -0.1717(51) -0.150(13)
Br1 Br 0.13023(7) 0.19122(5) 0.12052(13)
O1B O 0.4475(5) 0.1215(3) 0.1670(8)
O2B O 0.6235(4) 0.0781(3) -0.2025(7)
N3B N 0.6778(5) -0.0106(4) 0.1969(8)
H7B H 0.3609(76) 0.1419(51) 0.128(12)
H8B H 0.4832(80) 0.1717(51) 0.150(13)
C3B C 0.7419(6) 0.1090(4) -0.1777(10)
C1B C 0.8035(6) 0.0260(4) 0.1597(10)
C2B C 0.7026(7) -0.0575(5) 0.3785(11)
N4B N 0.8296(6) 0.0849(4) -0.0130(9)
C4B C 0.7969(8) 0.1771(5) -0.3327(12)
N2B N 0.9025(5) 0.0048(4) 0.3041(9)
N1B N 0.8329(6) -0.0497(4) 0.4422(9)
H2B H 0.6388(78) -0.0944(47) 0.457(12)
H3B H 0.9218(72) 0.1079(52) 0.013(11)
H4B H 0.9059(74) 0.1658(48) -0.321(12)
H5B H 0.8096(71) 0.2495(54) -0.282(11)
H6B H 0.7320(78) 0.1648(46) -0.470(13)
H1B H 0.8798(74) -0.0707(45) 0.557(12)
#END
