
#######################################################################
#
#                 Cambridge Crystallographic Data Centre
#                                CCDC
#
#######################################################################
#
# If this CIF has been generated from an entry in the Cambridge
# Structural Database, then it will include bibliographic, chemical,
# crystal, experimental, refinement or atomic coordinate data resulting
# from the CCDC's data processing and validation procedures.
#
#######################################################################

data_CSD_CIF_HAKDOO
_audit_creation_date 2012-01-09
_audit_creation_method CSD-ConQuest-V1
_database_code_CSD HAKDOO
_database_code_depnum_ccdc_archive 'CCDC 853287'
_database_code_depnum_ccdc_journal 1267/3446
_chemical_formula_sum 'C20 H32 Fe1 N6 O12'
_chemical_formula_moiety
;
C14 H18 Fe1 N4 O10,2(C3 H7 N1 O1)
;
_journal_coden_Cambridge 1267
_journal_volume 226
_journal_year 2011
_journal_page_first 431
_journal_name_full 'Z.Kristallogr.-New Cryst.Struct. '
loop_
_publ_author_name
"E-Yu Ji"
"Chen Hai-Ling"
_chemical_name_systematic
;
trans-Diaqua-bis(4-carboxy-2-ethyl-1H-imidazole-5-carboxylate-N^3^,O^4^)-iron(
ii) N,N-dimethylformamide solvate
;
_cell_volume    687.211
_exptl_crystal_colour 'orange'
_exptl_crystal_density_diffrn 1.46
_exptl_crystal_description 'block'
_diffrn_ambient_temperature 298
#These two values have been output from a single CSD field.
_refine_ls_R_factor_gt 0.038
_refine_ls_wR_factor_gt 0.038
_symmetry_cell_setting triclinic
_symmetry_space_group_name_H-M 'P -1'
_symmetry_Int_Tables_number 2
loop_
_symmetry_equiv_pos_site_id
_symmetry_equiv_pos_as_xyz
1 x,y,z
2 -x,-y,-z
_cell_length_a 7.2900(7)
_cell_length_b 8.9289(9)
_cell_length_c 12.05010(14)
_cell_angle_alpha 69.578(1)
_cell_angle_beta 78.015(2)
_cell_angle_gamma 69.990(1)
_cell_formula_units_Z 1
loop_
_atom_type_symbol
_atom_type_radius_bond
C 0.68
H 0.23
Fe 1.52
N 0.68
O 0.68
loop_
_atom_site_label
_atom_site_type_symbol
_atom_site_fract_x
_atom_site_fract_y
_atom_site_fract_z
Fe1 Fe 0.50000 0.50000 0.50000
N1 N 0.6907(3) 0.3264(2) 0.40644(17)
N2 N 0.8816(3) 0.1606(2) 0.30366(18)
H1 H 0.95850 0.12860 0.24640
O1 O 0.5004(3) 0.2522(2) 0.62905(15)
O2 O 0.6025(3) -0.0196(2) 0.65435(16)
H2 H 0.67060 -0.08330 0.61640
O3 O 0.8070(3) -0.2065(2) 0.53577(16)
O4 O 0.9940(3) -0.1901(2) 0.36239(16)
O5 O 0.2616(3) 0.5064(2) 0.42545(18)
H3 H 0.22110 0.42130 0.44390
H4 H 0.16700 0.59590 0.40960
C1 C 0.5945(4) 0.1325(3) 0.5917(2)
C2 C 0.7009(3) 0.1634(3) 0.4717(2)
C3 C 0.8193(3) 0.0583(3) 0.4083(2)
C4 C 0.8800(4) -0.1270(3) 0.4356(2)
C5 C 0.8016(4) 0.3204(3) 0.3057(2)
C6 C 0.8341(5) 0.4685(4) 0.2066(3)
H5 H 0.78510 0.47270 0.13630
H6 H 0.75710 0.56870 0.22810
C7 C 1.0419(7) 0.4709(5) 0.1756(4)
H7 H 1.08660 0.48350 0.24050
H8 H 1.05110 0.56290 0.10560
H9 H 1.12210 0.36800 0.16080
N3 N 0.2946(4) 0.9193(3) 1.0035(2)
O6 O 0.1066(4) 1.1002(3) 1.1026(2)
C8 C 0.2036(5) 0.9577(5) 1.0999(3)
H10 H 0.21250 0.87160 1.17150
C9 C 0.4008(7) 0.7497(5) 1.0043(5)
H11 H 0.40640 0.67790 1.08500
H12 H 0.53160 0.74490 0.96680
H13 H 0.33500 0.71360 0.96170
C10 C 0.2878(6) 1.0479(5) 0.8888(3)
H14 H 0.21700 1.02920 0.83840
H15 H 0.41900 1.04350 0.85230
H16 H 0.22290 1.15580 0.89990
N1A N 0.3093(3) 0.6736(2) 0.59356(17)
N2A N 0.1184(3) 0.8394(2) 0.69634(18)
H1A H 0.04150 0.87140 0.75360
O1A O 0.4996(3) 0.7478(2) 0.37095(15)
O2A O 0.3975(3) 1.0196(2) 0.34565(16)
H2A H 0.32940 1.08330 0.38360
O3A O 0.1930(3) 1.2065(2) 0.46423(16)
O4A O 0.0060(3) 1.1901(2) 0.63761(16)
O5A O 0.7384(3) 0.4936(2) 0.57455(18)
H3A H 0.77890 0.57870 0.55610
H4A H 0.83300 0.40410 0.59040
C1A C 0.4055(4) 0.8675(3) 0.4083(2)
C2A C 0.2991(3) 0.8366(3) 0.5283(2)
C3A C 0.1807(3) 0.9417(3) 0.5917(2)
C4A C 0.1200(4) 1.1270(3) 0.5644(2)
C5A C 0.1984(4) 0.6796(3) 0.6943(2)
C6A C 0.1659(5) 0.5315(4) 0.7934(3)
H5A H 0.21490 0.52730 0.86370
H6A H 0.24290 0.43130 0.77190
C7A C -0.0419(7) 0.5291(5) 0.8244(4)
H7A H -0.08660 0.51650 0.75950
H8A H -0.05110 0.43710 0.89440
H9A H -0.12210 0.63200 0.83920
#END
