
#######################################################################
#
#                 Cambridge Crystallographic Data Centre
#                                CCDC
#
#######################################################################
#
# If this CIF has been generated from an entry in the Cambridge
# Structural Database, then it will include bibliographic, chemical,
# crystal, experimental, refinement or atomic coordinate data resulting
# from the CCDC's data processing and validation procedures.
#
#######################################################################

data_CSD_CIF_HAZSUW
_audit_creation_date 1994-09-08
_audit_creation_method CSD-ConQuest-V1
_database_code_CSD HAZSUW
_database_code_depnum_ccdc_archive 'CCDC 1173183'
_chemical_formula_sum 'C10 H14 Mn1 N4 O6'
_chemical_formula_moiety
;
C10 H12 Mn1 N4 O5,H2 O1
;
_journal_coden_Cambridge 580
_journal_volume 12
_journal_year 1993
_journal_page_first 1863
_journal_name_full 'Polyhedron '
loop_
_publ_author_name
"M.A.S.Goher"
"F.A.Mautner"
_chemical_name_systematic
;
Azido-(quinaldato-N,O)-triaqua-manganese(ii) monohydrate
;
_cell_volume    707.243
_exptl_crystal_colour 'yellow'
_exptl_crystal_density_diffrn 1.602
_diffrn_ambient_temperature ?
_diffrn_special_details
;
The study was carried out at room temperature,in the range 283-303K

;
#These two values have been output from a single CSD field.
_refine_ls_R_factor_gt 0.044
_refine_ls_wR_factor_gt 0.044
_symmetry_cell_setting triclinic
_symmetry_space_group_name_H-M 'P -1'
_symmetry_Int_Tables_number 2
loop_
_symmetry_equiv_pos_site_id
_symmetry_equiv_pos_as_xyz
1 x,y,z
2 -x,-y,-z
_cell_length_a 7.505(3)
_cell_length_b 7.770(5)
_cell_length_c 12.150(5)
_cell_angle_alpha 91.65(3)
_cell_angle_beta 92.01(4)
_cell_angle_gamma 92.18(3)
_cell_formula_units_Z 2
loop_
_atom_type_symbol
_atom_type_radius_bond
C 0.68
H 0.23
Mn 1.35
N 0.68
O 0.68
loop_
_atom_site_label
_atom_site_type_symbol
_atom_site_fract_x
_atom_site_fract_y
_atom_site_fract_z
Mn1 Mn 0.71222(6) 0.28012(6) 0.17593(4)
O1 O 0.48248(28) 0.42010(28) 0.12754(19)
O2 O 0.21351(28) 0.49947(30) 0.1688(2)
O3 O 0.79936(41) 0.28629(34) 0.00595(22)
O4 O 0.86728(31) 0.52184(31) 0.22122(22)
O5 O 0.55482(34) 0.03992(32) 0.13774(25)
N1 N 0.54834(32) 0.30836(30) 0.33061(22)
N2 N 0.93814(40) 0.12164(40) 0.21560(28)
N3 N 1.05354(35) 0.08367(33) 0.15889(25)
N4 N 1.16906(39) 0.04612(39) 0.10345(28)
C1 C 0.35844(40) 0.43459(37) 0.19215(28)
C2 C 0.38773(40) 0.36898(36) 0.30814(27)
C3 C 0.25504(44) 0.37942(42) 0.38575(29)
C4 C 0.29088(45) 0.32402(42) 0.48974(30)
C5 C 0.45924(44) 0.26027(40) 0.51761(28)
C6 C 0.58626(41) 0.25428(37) 0.43511(27)
C7 C 0.50657(49) 0.20392(45) 0.62411(30)
C8 C 0.67276(53) 0.14892(48) 0.64704(32)
C9 C 0.79868(51) 0.14470(46) 0.56543(32)
C10 C 0.75852(46) 0.19543(43) 0.46077(31)
H1 H 0.7972(50) 0.3786(37) -0.0404(30)
H2 H 0.8249(54) 0.1931(38) -0.0322(33)
H3 H 0.9889(33) 0.5224(50) 0.2081(36)
H4 H 0.8289(46) 0.5981(43) 0.1716(28)
H5 H 0.4396(32) 0.0398(45) 0.1215(33)
H6 H 0.6001(51) -0.0621(40) 0.1227(40)
H7 H 0.12682(44) 0.42999(42) 0.36411(29)
H8 H 0.18943(45) 0.32860(42) 0.55052(30)
H9 H 0.40946(49) 0.20486(45) 0.68773(30)
H10 H 0.70772(53) 0.10833(48) 0.72902(32)
H11 H 0.93017(51) 0.10014(46) 0.58537(32)
H12 H 0.85764(46) 0.19081(43) 0.39854(31)
O6 O 0.70475(36) 0.73629(32) 0.07361(23)
H13 H 0.6179(52) 0.6672(58) 0.0413(45)
H14 H 0.7658(63) 0.7740(65) 0.0140(34)
#END
