
#######################################################################
#
#                 Cambridge Crystallographic Data Centre
#                                CCDC
#
#######################################################################
#
# If this CIF has been generated from an entry in the Cambridge
# Structural Database, then it will include bibliographic, chemical,
# crystal, experimental, refinement or atomic coordinate data resulting
# from the CCDC's data processing and validation procedures.
#
#######################################################################

data_CSD_CIF_HEBJAC
_audit_creation_date 2017-09-19
_audit_creation_method CSD-ConQuest-V1
_database_code_CSD HEBJAC
_database_code_depnum_ccdc_archive 'CCDC 1525954'
_chemical_formula_sum 'C30 H27 Fe1 O1 P1 S1'
_chemical_formula_moiety
;
C30 H27 Fe1 O1 P1 S1
;
_journal_coden_Cambridge 1290
_journal_year 2017
_journal_page_first 4028
_journal_name_full 'Eur.J.Inorg.Chem. '
loop_
_publ_author_name
"M.Korb"
"J.Mahrholdt"
"Heinrich Lang"
_chemical_name_systematic
;
1-(2-methoxybenzyl)-2-(diphenylthiophosphoryl)ferrocene
;
_cell_volume    613.929
_exptl_crystal_colour 'orange'
_exptl_crystal_density_diffrn 1.413
_exptl_special_details
;
Absolute configuration

;
_exptl_crystal_description 'block'
_diffrn_ambient_temperature 112.5
#These two values have been output from a single CSD field.
_refine_ls_R_factor_gt 0.0463
_refine_ls_wR_factor_gt 0.0463
_symmetry_cell_setting triclinic
_symmetry_space_group_name_H-M 'P 1'
_symmetry_Int_Tables_number 1
loop_
_symmetry_equiv_pos_site_id
_symmetry_equiv_pos_as_xyz
1 x,y,z
_cell_length_a 7.7256(5)
_cell_length_b 8.4715(4)
_cell_length_c 10.1419(5)
_cell_angle_alpha 77.985(4)
_cell_angle_beta 71.170(5)
_cell_angle_gamma 83.905(5)
_cell_formula_units_Z 1
loop_
_atom_type_symbol
_atom_type_radius_bond
C 0.68
H 0.23
Fe 1.52
O 0.68
P 1.05
S 1.02
loop_
_atom_site_label
_atom_site_type_symbol
_atom_site_fract_x
_atom_site_fract_y
_atom_site_fract_z
C1 C 0.4175(8) 0.9493(7) 0.3178(6)
C2 C 0.4639(8) 1.0354(7) 0.4080(7)
C3 C 0.4355(9) 1.2029(7) 0.3577(7)
H1 H 0.45510 1.28720 0.39630
C4 C 0.3717(9) 1.2196(7) 0.2377(7)
H2 H 0.34410 1.31640 0.18420
C5 C 0.3578(8) 1.0635(7) 0.2144(7)
H3 H 0.31710 1.03930 0.14440
C6 C 0.8494(9) 0.9778(8) 0.0968(7)
H4 H 0.86120 0.86720 0.09790
C7 C 0.8877(9) 1.0555(10) 0.1928(7)
H5 H 0.92920 1.00590 0.26850
C8 C 0.8513(10) 1.2244(9) 0.1533(9)
H6 H 0.86600 1.30490 0.19820
C9 C 0.7895(10) 1.2473(9) 0.0347(8)
H7 H 0.75430 1.34590 -0.01190
C10 C 0.7899(9) 1.0954(9) -0.0019(7)
H8 H 0.75690 1.07630 -0.07750
C11 C 0.5226(9) 0.9599(7) 0.5374(7)
H9 H 0.45450 0.86350 0.58520
H10 H 0.65140 0.92720 0.50640
C12 C 0.4935(9) 1.0709(7) 0.6414(6)
C13 C 0.6274(9) 1.1774(7) 0.6283(7)
C14 C 0.5982(9) 1.2805(8) 0.7247(7)
H11 H 0.68630 1.35270 0.71450
C15 C 0.437(1) 1.2742(8) 0.8353(7)
H12 H 0.41750 1.34230 0.90010
C16 C 0.3043(10) 1.1694(9) 0.8518(7)
H13 H 0.19670 1.16550 0.92750
C17 C 0.3335(9) 1.0695(8) 0.7538(7)
H14 H 0.24310 0.99960 0.76380
C18 C 0.9298(9) 1.2701(8) 0.5047(8)
H15 H 0.88800 1.38150 0.49680
H16 H 1.02980 1.25610 0.42170
H17 H 0.96990 1.23840 0.58710
C19 C 0.3392(9) 0.6943(7) 0.2020(7)
C20 C 0.4655(9) 0.7160(8) 0.0669(7)
H18 H 0.58270 0.74750 0.05330
C21 C 0.4184(10) 0.6913(9) -0.0470(8)
H19 H 0.50310 0.70700 -0.13720
C22 C 0.2447(10) 0.6430(8) -0.0265(8)
H20 H 0.21220 0.62700 -0.10330
C23 C 0.1198(10) 0.6188(7) 0.1071(8)
H21 H 0.00400 0.58390 0.12100
C24 C 0.1667(9) 0.6463(7) 0.2203(7)
H22 H 0.08080 0.63240 0.31000
C25 C 0.2131(8) 0.6908(7) 0.5069(6)
C26 C 0.0727(9) 0.8070(8) 0.5390(7)
H23 H 0.07680 0.90560 0.47730
C27 C -0.0728(9) 0.7772(8) 0.6617(7)
H24 H -0.16510 0.85640 0.68330
C28 C -0.0815(9) 0.6284(8) 0.7534(7)
H25 H -0.17870 0.60850 0.83680
C29 C 0.0558(9) 0.5104(8) 0.7193(7)
H26 H 0.04860 0.40990 0.77860
C30 C 0.2031(9) 0.5416(7) 0.5977(7)
H27 H 0.29590 0.46280 0.57640
O1 O 0.7840(6) 1.1726(5) 0.5175(5)
P1 P 0.4100(2) 0.73262(17) 0.34706(16)
S1 S 0.6319(2) 0.60832(18) 0.36495(18)
Fe1 Fe 0.62051(7) 1.10087(6) 0.20028(6)
#END
