
#######################################################################
#
#                 Cambridge Crystallographic Data Centre
#                                CCDC
#
#######################################################################
#
# If this CIF has been generated from an entry in the Cambridge
# Structural Database, then it will include bibliographic, chemical,
# crystal, experimental, refinement or atomic coordinate data resulting
# from the CCDC's data processing and validation procedures.
#
#######################################################################

data_CSD_CIF_HECZIY
_audit_creation_date 1994-10-12
_audit_creation_method CSD-ConQuest-V1
_database_code_CSD HECZIY
_chemical_formula_sum 'C36 H44 Co1 N4'
_chemical_formula_moiety
;
C36 H44 Co1 N4
;
_journal_coden_Cambridge 9
_journal_volume 33
_journal_year 1994
_journal_page_first 1314
_journal_name_full 'Inorg.Chem. '
loop_
_publ_author_name
"W.R.Scheidt"
"I.Turowska-Tyrk"
_chemical_name_systematic
;
(Octaethylporphyrinato)-cobalt(ii)
;
_cell_volume    748.565
_exptl_crystal_colour 'black'
_exptl_crystal_density_diffrn 1.3
_exptl_special_details
;
Isomorphous with the Fe analogue

;
_diffrn_ambient_temperature 127
#These two values have been output from a single CSD field.
_refine_ls_R_factor_gt 0.039
_refine_ls_wR_factor_gt 0.039
_symmetry_cell_setting triclinic
_symmetry_space_group_name_H-M 'P -1'
_symmetry_Int_Tables_number 2
loop_
_symmetry_equiv_pos_site_id
_symmetry_equiv_pos_as_xyz
1 x,y,z
2 -x,-y,-z
_cell_length_a 13.046(15)
_cell_length_b 13.217(12)
_cell_length_c 4.742(7)
_cell_angle_alpha 90.60(6)
_cell_angle_beta 92.56(2)
_cell_angle_gamma 113.53(2)
_cell_formula_units_Z 1
loop_
_atom_type_symbol
_atom_type_radius_bond
C 0.68
H 0.23
Co 1.33
N 0.68
loop_
_atom_site_label
_atom_site_type_symbol
_atom_site_fract_x
_atom_site_fract_y
_atom_site_fract_z
Co1 Co 0.00000 0.00000 0.00000
N1 N 0.05706(15) -0.07051(14) 0.2950(4)
N2 N 0.12865(15) 0.14173(14) 0.0846(4)
C1 C 0.01335(18) -0.17900(18) 0.3691(5)
C2 C 0.15083(18) -0.02216(18) 0.4718(5)
C3 C 0.21540(18) 0.16194(17) 0.2788(5)
C4 C 0.15186(18) 0.24022(17) -0.0449(5)
C5 C 0.08085(19) -0.19982(19) 0.5893(5)
C6 C 0.16698(19) -0.10099(18) 0.6571(5)
C7 C 0.29747(19) 0.27416(18) 0.2682(5)
C8 C 0.25724(18) 0.32314(17) 0.0672(5)
C9 C 0.22470(19) 0.08690(18) 0.4653(5)
C10 C -0.08549(19) -0.25821(18) 0.2521(5)
C11 C 0.06310(21) -0.30944(19) 0.7075(5)
C12 C 0.11833(27) -0.37135(22) 0.5406(7)
C13 C 0.26278(22) -0.07751(20) 0.8638(6)
C14 C 0.36635(24) -0.07823(29) 0.7287(8)
C15 C 0.40621(20) 0.32029(19) 0.4353(6)
C16 C 0.49198(21) 0.28027(23) 0.3208(7)
C17 C 0.30841(20) 0.44023(18) -0.0267(5)
C18 C 0.26000(23) 0.51453(19) 0.1127(6)
H1 H 0.28640 0.11190 0.59910
H2 H -0.10900 -0.33040 0.32070
H3 H -0.01480 -0.35300 0.70520
H4 H 0.09360 -0.29810 0.89590
H5 H 0.24130 -0.13180 1.00250
H6 H 0.28110 -0.00710 0.95000
H7 H 0.39370 0.29840 0.62430
H8 H 0.43550 0.39820 0.42970
H9 H 0.29550 0.44020 -0.22470
H10 H 0.38640 0.46900 0.01900
H11 H 0.10470 -0.43990 0.62370
H12 H 0.08820 -0.38370 0.35180
H13 H 0.19650 -0.32900 0.54240
H14 H 0.42500 -0.06290 0.86900
H15 H 0.34940 -0.14850 0.64270
H16 H 0.38910 -0.02380 0.59020
H17 H 0.55970 0.31160 0.43310
H18 H 0.46380 0.20240 0.32640
H19 H 0.50550 0.30210 0.13200
H20 H 0.29500 0.58690 0.04640
H21 H 0.18200 0.48710 0.06760
H22 H 0.27290 0.51590 0.31110
N1A N -0.05706(15) 0.07051(14) -0.2950(4)
N2A N -0.12865(15) -0.14173(14) -0.0846(4)
C10A C 0.08549(19) 0.25821(18) -0.2521(5)
C4A C -0.15186(18) -0.24022(17) 0.0449(5)
C1A C -0.01335(18) 0.17900(18) -0.3691(5)
C2A C -0.15083(18) 0.02216(18) -0.4718(5)
C3A C -0.21540(18) -0.16194(17) -0.2788(5)
H2A H 0.10900 0.33040 -0.32070
C8A C -0.25724(18) -0.32314(17) -0.0672(5)
C5A C -0.08085(19) 0.19982(19) -0.5893(5)
C6A C -0.16698(19) 0.10099(18) -0.6571(5)
C9A C -0.22470(19) -0.08690(18) -0.4653(5)
C7A C -0.29747(19) -0.27416(18) -0.2682(5)
C17A C -0.30841(20) -0.44023(18) 0.0267(5)
C11A C -0.06310(21) 0.30944(19) -0.7075(5)
C13A C -0.26278(22) 0.07751(20) -0.8638(6)
H1A H -0.28640 -0.11190 -0.59910
C15A C -0.40621(20) -0.32029(19) -0.4353(6)
C18A C -0.26000(23) -0.51453(19) -0.1127(6)
H9A H -0.29550 -0.44020 0.22470
H10A H -0.38640 -0.46900 -0.01900
C12A C -0.11833(27) 0.37135(22) -0.5406(7)
H3A H 0.01480 0.35300 -0.70520
H4A H -0.09360 0.29810 -0.89590
C14A C -0.36635(24) 0.07823(29) -0.7287(8)
H5A H -0.24130 0.13180 -1.00250
H6A H -0.28110 0.00710 -0.95000
C16A C -0.49198(21) -0.28027(23) -0.3208(7)
H7A H -0.39370 -0.29840 -0.62430
H8A H -0.43550 -0.39820 -0.42970
H20A H -0.29500 -0.58690 -0.04640
H21A H -0.18200 -0.48710 -0.06760
H22A H -0.27290 -0.51590 -0.31110
H11A H -0.10470 0.43990 -0.62370
H12A H -0.08820 0.38370 -0.35180
H13A H -0.19650 0.32900 -0.54240
H14A H -0.42500 0.06290 -0.86900
H15A H -0.34940 0.14850 -0.64270
H16A H -0.38910 0.02380 -0.59020
H17A H -0.55970 -0.31160 -0.43310
H18A H -0.46380 -0.20240 -0.32640
H19A H -0.50550 -0.30210 -0.13200
#END
