
#######################################################################
#
#                 Cambridge Crystallographic Data Centre
#                                CCDC
#
#######################################################################
#
# If this CIF has been generated from an entry in the Cambridge
# Structural Database, then it will include bibliographic, chemical,
# crystal, experimental, refinement or atomic coordinate data resulting
# from the CCDC's data processing and validation procedures.
#
#######################################################################

data_CSD_CIF_HEDWIZ
_audit_creation_date 2017-09-20
_audit_creation_method CSD-ConQuest-V1
_database_code_CSD HEDWIZ
_database_code_depnum_ccdc_archive 'CCDC 1575499'
_chemical_formula_sum 'C6 H10 Mn1 N8 O6'
_chemical_formula_moiety
;
C6 H10 Mn1 N8 O6
;
_journal_coden_Cambridge 1078
_journal_year 2017
_journal_name_full 'CSD Communication(Private Communication) '
loop_
_publ_author_name
"Bin Wang"
_chemical_name_systematic
;
bis(5-amino-1H-1,2,4-triazole-3-carboxylato)-diaqua-manganese(ii)
;
_cell_volume    592.219
_exptl_crystal_colour 'colorless'
_exptl_crystal_density_diffrn 1.936
_exptl_special_details
;
Luminescent

;
_exptl_crystal_description 'block'
_diffrn_ambient_temperature 293
#These two values have been output from a single CSD field.
_refine_ls_R_factor_gt 0.0281
_refine_ls_wR_factor_gt 0.0281
_symmetry_cell_setting monoclinic
_symmetry_space_group_name_H-M 'P 21/c'
_symmetry_Int_Tables_number 14
loop_
_symmetry_equiv_pos_site_id
_symmetry_equiv_pos_as_xyz
1 x,y,z
2 -x,1/2+y,1/2-z
3 -x,-y,-z
4 x,-1/2-y,-1/2+z
_cell_length_a 9.4538(9)
_cell_length_b 9.3154(9)
_cell_length_c 6.7909(7)
_cell_angle_alpha 90
_cell_angle_beta 98.005(2)
_cell_angle_gamma 90
_cell_formula_units_Z 2
loop_
_atom_type_symbol
_atom_type_radius_bond
C 0.68
H 0.23
Mn 1.61
N 0.68
O 0.68
loop_
_atom_site_label
_atom_site_type_symbol
_atom_site_fract_x
_atom_site_fract_y
_atom_site_fract_z
Mn1 Mn 0.50000 0.50000 0.50000
C1 C 0.29039(9) 0.74814(9) 0.43174(13)
C2 C 0.20872(8) 0.61615(9) 0.36196(13)
C3 C 0.17692(8) 0.40197(9) 0.25894(13)
N1 N 0.27959(7) 0.49037(7) 0.34346(12)
N2 N 0.07069(8) 0.61045(9) 0.30264(14)
N3 N 0.05118(8) 0.47158(9) 0.23854(14)
H1 H -0.02920 0.44270 0.19130
N4 N 0.19303(9) 0.26945(9) 0.19067(16)
H2 H 0.11790 0.21760 0.17670
H3 H 0.27060 0.22850 0.22920
O1 O 0.23338(7) 0.86835(7) 0.40356(11)
O2 O 0.41816(7) 0.72516(7) 0.51128(10)
O3 O 0.57473(7) 0.56051(8) 0.21738(11)
H4 H 0.52470 0.61020 0.14220
H5 H 0.62220 0.50480 0.16100
C1B C 0.70961(9) 0.25186(9) 0.56826(13)
C2B C 0.79128(8) 0.38385(9) 0.63804(13)
C3B C 0.82308(8) 0.59803(9) 0.74106(13)
N1B N 0.72041(7) 0.50963(7) 0.65654(12)
N2B N 0.92931(8) 0.38955(9) 0.69736(14)
N3B N 0.94882(8) 0.52842(9) 0.76146(14)
H1B H 1.02920 0.55730 0.80870
N4B N 0.80697(9) 0.73055(9) 0.80933(16)
H2B H 0.88210 0.78240 0.82330
H3B H 0.72940 0.77150 0.77080
O1B O 0.76662(7) 0.13165(7) 0.59644(11)
O2B O 0.58184(7) 0.27484(7) 0.48872(10)
O3B O 0.42527(7) 0.43949(8) 0.78262(11)
H4B H 0.47530 0.38980 0.85780
H5B H 0.37780 0.49520 0.83900
#END
