
#######################################################################
#
#                 Cambridge Crystallographic Data Centre
#                                CCDC
#
#######################################################################
#
# If this CIF has been generated from an entry in the Cambridge
# Structural Database, then it will include bibliographic, chemical,
# crystal, experimental, refinement or atomic coordinate data resulting
# from the CCDC's data processing and validation procedures.
#
#######################################################################

data_CSD_CIF_HEPRID
_audit_creation_date 1995-03-22
_audit_creation_method CSD-ConQuest-V1
_database_code_CSD HEPRID
_chemical_formula_sum 'C11 H8 Cr1 O6'
_chemical_formula_moiety
;
C11 H8 Cr1 O6
;
_journal_coden_Cambridge 155
_journal_volume 220
_journal_year 1994
_journal_page_first 233
_journal_name_full 'Inorg.Chim.Acta '
loop_
_publ_author_name
"E.Licandro"
"S.Maiorana"
"A.Papagni"
"A.Zanotti Gerosa"
"F.Cariati"
"S.Bruni"
"M.Moret"
"A.C.Villa"
_chemical_name_systematic
;
(3,3-Dimethyl-2-oxacylopentylidene)-pentacarbonyl-chromium(0)
;
_cell_volume    652.980
_exptl_crystal_density_diffrn 1.466
_diffrn_ambient_temperature ?
_diffrn_special_details
;
The study was carried out at room temperature,in the range 283-303K

;
#These two values have been output from a single CSD field.
_refine_ls_R_factor_gt 0.033
_refine_ls_wR_factor_gt 0.033
_symmetry_cell_setting triclinic
_symmetry_space_group_name_H-M 'P -1'
_symmetry_Int_Tables_number 2
loop_
_symmetry_equiv_pos_site_id
_symmetry_equiv_pos_as_xyz
1 x,y,z
2 -x,-y,-z
_cell_length_a 6.553(1)
_cell_length_b 9.408(1)
_cell_length_c 10.620(1)
_cell_angle_alpha 92.70(1)
_cell_angle_beta 92.30(1)
_cell_angle_gamma 92.12(1)
_cell_formula_units_Z 2
loop_
_atom_type_symbol
_atom_type_radius_bond
C 0.68
H 0.23
Cr 1.35
O 0.68
loop_
_atom_site_label
_atom_site_type_symbol
_atom_site_fract_x
_atom_site_fract_y
_atom_site_fract_z
Cr1 Cr 0.19638(12) 0.14765(8) 0.21349(7)
C1 C 0.3038(7) 0.1279(5) 0.0503(5)
O1 O 0.3656(5) 0.1206(4) -0.0484(3)
C2 C 0.4482(8) 0.0963(5) 0.2901(5)
O2 O 0.5965(6) 0.0656(4) 0.3387(4)
C3 C 0.0967(8) 0.1779(6) 0.3783(5)
O3 O 0.0419(7) 0.1968(6) 0.4767(4)
C4 C -0.0524(8) 0.2027(5) 0.1410(5)
O4 O -0.2032(6) 0.2379(4) 0.0963(4)
C5 C 0.0998(7) -0.0446(5) 0.2042(5)
O5 O 0.0425(6) -0.1605(4) 0.1967(4)
O6 O 0.4096(5) 0.4151(3) 0.3109(3)
C6 C 0.2993(6) 0.3512(5) 0.2160(4)
C7 C 0.4713(8) 0.5635(5) 0.2823(5)
C8 C 0.3733(8) 0.5755(5) 0.1576(5)
C9 C 0.2765(8) 0.4548(5) 0.1198(4)
C10 C 0.3871(11) 0.6601(6) 0.3857(5)
C11 C 0.7005(10) 0.5713(6) 0.2867(7)
H1 H 0.37860 0.67230 0.10740
H2 H 0.18410 0.43110 0.03370
H3 H 0.46150 0.63340 0.47150
H4 H 0.40660 0.75520 0.36850
H5 H 0.25260 0.65410 0.38270
H6 H 0.75960 0.55110 0.37760
H7 H 0.74490 0.65430 0.26620
H8 H 0.75760 0.50450 0.22420
#END
