
#######################################################################
#
#                 Cambridge Crystallographic Data Centre
#                                CCDC
#
#######################################################################
#
# If this CIF has been generated from an entry in the Cambridge
# Structural Database, then it will include bibliographic, chemical,
# crystal, experimental, refinement or atomic coordinate data resulting
# from the CCDC's data processing and validation procedures.
#
#######################################################################

data_CSD_CIF_HESGAO
_audit_creation_date 2007-01-12
_audit_creation_method CSD-ConQuest-V1
_database_code_CSD HESGAO
_database_code_depnum_ccdc_archive 'CCDC 627329'
_chemical_formula_sum 'C16 H28 Co1 N2 O8'
_chemical_formula_moiety
;
C16 H28 Co1 N2 O8
;
_journal_coeditor_code "IUCr BI2082"
_journal_coden_Cambridge 1370
_journal_volume 62
_journal_year 2006
_journal_page_first m2928
_journal_name_full 'Acta Crystallogr.,Sect.E:Struct.Rep.Online '
loop_
_publ_author_name
"M.B.Duriska"
"S.R.Batten"
_chemical_name_systematic
;
(1,4,10,13-Tetraoxa-7,16-diazacyclooctadecane-7,16-diacetato)-cobalt(ii)
;
_cell_volume    436.502
_exptl_crystal_colour 'pale purple'
_exptl_crystal_density_diffrn 1.656
_exptl_special_details
;
isostructural with the Cu(ii) and Ni(ii) analogues

;
_exptl_crystal_description 'block'
_diffrn_ambient_temperature 123
#These two values have been output from a single CSD field.
_refine_ls_R_factor_gt 0.025
_refine_ls_wR_factor_gt 0.025
_symmetry_cell_setting triclinic
_symmetry_space_group_name_H-M 'P -1'
_symmetry_Int_Tables_number 2
loop_
_symmetry_equiv_pos_site_id
_symmetry_equiv_pos_as_xyz
1 x,y,z
2 -x,-y,-z
_cell_length_a 6.8973(5)
_cell_length_b 7.5264(5)
_cell_length_c 9.1052(7)
_cell_angle_alpha 79.851(2)
_cell_angle_beta 69.746(2)
_cell_angle_gamma 86.440(2)
_cell_formula_units_Z 1
loop_
_atom_type_symbol
_atom_type_radius_bond
C 0.68
H 0.23
Co 1.33
N 0.68
O 0.68
loop_
_atom_site_label
_atom_site_type_symbol
_atom_site_fract_x
_atom_site_fract_y
_atom_site_fract_z
Co1 Co 0.50000 0.00000 0.00000
O1 O 0.45386(15) -0.23261(12) 0.42526(11)
N1 N 0.55978(17) 0.11021(14) 0.18156(13)
C1 C 0.3334(2) -0.37202(17) 0.41396(16)
H1 H 0.24600 -0.42620 0.52230
H2 H 0.42720 -0.46740 0.36630
O2 O 0.68587(15) 0.26844(13) -0.15063(11)
C2 C 0.6458(2) -0.19912(17) 0.29804(15)
H3 H 0.63800 -0.24130 0.20320
H4 H 0.75750 -0.26690 0.32850
O3 O 0.23440(15) 0.13282(13) 0.07986(11)
C3 C 0.6940(2) -0.00040(17) 0.25936(15)
H5 H 0.67990 0.04390 0.35870
H6 H 0.83970 0.01700 0.18870
O4 O 0.04622(15) 0.28279(14) 0.27196(12)
C4 C 0.6585(2) 0.29051(17) 0.11065(15)
H7 H 0.73290 0.32280 0.17770
H8 H 0.54980 0.38250 0.10910
C5 C 0.8067(2) 0.29279(18) -0.05469(16)
H9 H 0.88140 0.40920 -0.09480
H10 H 0.90910 0.19420 -0.05700
C6 C 0.3527(2) 0.14072(17) 0.29532(15)
H11 H 0.36060 0.23780 0.35360
H12 H 0.30540 0.02930 0.37360
C7 C 0.1975(2) 0.19353(17) 0.20988(15)
C8 C 0.8035(2) 0.31109(18) -0.31712(15)
H13 H 0.88240 0.20320 -0.35330
H14 H 0.90380 0.40780 -0.33410
O1A O 0.54614(15) 0.23261(12) -0.42526(11)
N1A N 0.44022(17) -0.11021(14) -0.18156(13)
C1A C 0.6666(2) 0.37202(17) -0.41396(16)
H1A H 0.75400 0.42620 -0.52230
H2A H 0.57280 0.46740 -0.36630
O2A O 0.31413(15) -0.26844(13) 0.15063(11)
C2A C 0.3542(2) 0.19912(17) -0.29804(15)
H3A H 0.36200 0.24130 -0.20320
H4A H 0.24250 0.26690 -0.32850
O3A O 0.76560(15) -0.13282(13) -0.07986(11)
C3A C 0.3060(2) 0.00040(17) -0.25936(15)
H5A H 0.32010 -0.04390 -0.35870
H6A H 0.16030 -0.01700 -0.18870
O4A O 0.95378(15) -0.28279(14) -0.27196(12)
C4A C 0.3415(2) -0.29051(17) -0.11065(15)
H7A H 0.26710 -0.32280 -0.17770
H8A H 0.45020 -0.38250 -0.10910
C5A C 0.1933(2) -0.29279(18) 0.05469(16)
H9A H 0.11860 -0.40920 0.09480
H10A H 0.09090 -0.19420 0.05700
C6A C 0.6473(2) -0.14072(17) -0.29532(15)
H11A H 0.63940 -0.23780 -0.35360
H12A H 0.69460 -0.02930 -0.37360
C7A C 0.8025(2) -0.19353(17) -0.20988(15)
C8A C 0.1965(2) -0.31109(18) 0.31712(15)
H13A H 0.11760 -0.20320 0.35330
H14A H 0.09620 -0.40780 0.33410
#END
