
#######################################################################
#
#                 Cambridge Crystallographic Data Centre
#                                CCDC
#
#######################################################################
#
# If this CIF has been generated from an entry in the Cambridge
# Structural Database, then it will include bibliographic, chemical,
# crystal, experimental, refinement or atomic coordinate data resulting
# from the CCDC's data processing and validation procedures.
#
#######################################################################

data_CSD_CIF_HEVKIF
_audit_creation_date 2018-02-06
_audit_creation_method CSD-ConQuest-V1
_database_code_CSD HEVKIF
_database_code_depnum_ccdc_archive 'CCDC 1570648'
_chemical_formula_sum 'C16 H22 B1 Mn1 N2 O2 Te1'
_chemical_formula_moiety
;
C16 H22 B1 Mn1 N2 O2 Te1
;
_journal_coden_Cambridge 179
_journal_volume 56
_journal_year 2017
_journal_page_first 15760
_journal_name_full 'Angew.Chem.,Int.Ed. '
loop_
_publ_author_name
"Siyuan Liu"
"M.-A.Legare"
"D.Auerhammer"
"A.Hofmann"
"H.Braunschweig"
_chemical_name_systematic
;
((1,3-diemthylimidazol-2-ylidene)(t-butyl)boroyltellenyl)-(\h^5^-cyclopentadie
nyl)-dicarbonyl-manganese
;
_cell_volume    922.311
_exptl_crystal_colour 'red'
_exptl_crystal_density_diffrn 1.684
_exptl_crystal_description 'needle'
_diffrn_ambient_temperature 100
#These two values have been output from a single CSD field.
_refine_ls_R_factor_gt 0.0246
_refine_ls_wR_factor_gt 0.0246
_symmetry_cell_setting triclinic
_symmetry_space_group_name_H-M 'P -1'
_symmetry_Int_Tables_number 2
loop_
_symmetry_equiv_pos_site_id
_symmetry_equiv_pos_as_xyz
1 x,y,z
2 -x,-y,-z
_cell_length_a 8.0578(20)
_cell_length_b 10.053(5)
_cell_length_c 12.691(8)
_cell_angle_alpha 97.22(3)
_cell_angle_beta 99.097(17)
_cell_angle_gamma 111.929(18)
_cell_formula_units_Z 2
loop_
_atom_type_symbol
_atom_type_radius_bond
C 0.68
H 0.23
B 0.83
Mn 1.61
N 0.68
O 0.68
Te 1.47
loop_
_atom_site_label
_atom_site_type_symbol
_atom_site_fract_x
_atom_site_fract_y
_atom_site_fract_z
Te1 Te 0.54353(3) 0.42616(2) 0.80640(2)
O1 O -0.0386(3) 0.2317(3) 0.7318(2)
C1 C 0.0947(5) 0.2242(3) 0.7131(3)
Mn1 Mn 0.28443(6) 0.19885(5) 0.67458(4)
B1 B 0.5089(5) 0.6238(3) 0.8133(3)
C2 C 0.2695(4) 0.2952(3) 0.5700(3)
O2 O 0.2515(3) 0.3524(2) 0.49632(19)
C3 C 0.4506(5) 0.0841(3) 0.6316(3)
H1 H 0.56780 0.12630 0.60670
C4 C 0.2718(5) 0.0164(4) 0.5643(3)
H2 H 0.24050 0.00060 0.48300
C5 C 0.1462(5) -0.0329(3) 0.6313(3)
H3 H 0.01070 -0.08950 0.60560
C6 C 0.2474(5) 0.0038(3) 0.7407(3)
H4 H 0.19510 -0.01990 0.80580
C7 C 0.4338(5) 0.0761(3) 0.7412(3)
H5 H 0.53750 0.11390 0.80690
C8 C 0.6626(4) 0.7776(3) 0.8808(3)
C9 C 0.7469(5) 0.8722(4) 0.8011(3)
H6 H 0.84300 0.96560 0.84220
H7 H 0.65120 0.89050 0.75500
H8 H 0.80010 0.82060 0.75520
C10 C 0.8175(5) 0.7634(4) 0.9591(3)
H9 H 0.90940 0.86120 0.99530
H10 H 0.87520 0.71040 0.91820
H11 H 0.76730 0.70960 1.01390
C11 C 0.5747(5) 0.8603(4) 0.9486(3)
H12 H 0.66640 0.95890 0.98300
H13 H 0.53050 0.80710 1.00500
H14 H 0.47150 0.86750 0.90080
C12 C 0.3204(4) 0.6186(3) 0.7494(2)
N1 N 0.1640(3) 0.5840(3) 0.7860(2)
C13 C 0.0260(4) 0.5875(3) 0.7086(3)
H15 H -0.09670 0.56720 0.71460
N2 N 0.2791(3) 0.6435(3) 0.6491(2)
C14 C 0.0985(4) 0.6252(3) 0.6229(3)
H16 H 0.03680 0.63690 0.55680
C15 C 0.1443(5) 0.5493(4) 0.8936(3)
H17 H 0.02460 0.46930 0.88660
H18 H 0.15310 0.63600 0.94300
H19 H 0.24190 0.51940 0.92290
C16 C 0.4047(5) 0.6852(3) 0.5757(3)
H20 H 0.34100 0.63090 0.50130
H21 H 0.51090 0.66200 0.59930
H22 H 0.44640 0.79050 0.57740
#END
