
#######################################################################
#
#                 Cambridge Crystallographic Data Centre
#                                CCDC
#
#######################################################################
#
# If this CIF has been generated from an entry in the Cambridge
# Structural Database, then it will include bibliographic, chemical,
# crystal, experimental, refinement or atomic coordinate data resulting
# from the CCDC's data processing and validation procedures.
#
#######################################################################

data_CSD_CIF_HEVKOL
_audit_creation_date 2018-02-06
_audit_creation_method CSD-ConQuest-V1
_database_code_CSD HEVKOL
_database_code_depnum_ccdc_archive 'CCDC 1570649'
_chemical_formula_sum 'C16 H22 B1 Mn1 N2 O2 S1'
_chemical_formula_moiety
;
C16 H22 B1 Mn1 N2 O2 S1
;
_journal_coden_Cambridge 179
_journal_volume 56
_journal_year 2017
_journal_page_first 15760
_journal_name_full 'Angew.Chem.,Int.Ed. '
loop_
_publ_author_name
"Siyuan Liu"
"M.-A.Legare"
"D.Auerhammer"
"A.Hofmann"
"H.Braunschweig"
_chemical_name_systematic
;
((1,3-diemthylimidazol-2-ylidene)(t-butyl)boroylsulfanyl)-(\h^5^-cyclopentadie
nyl)-dicarbonyl-manganese
;
_cell_volume    878.712
_exptl_crystal_colour 'yellow'
_exptl_crystal_density_diffrn 1.407
_exptl_crystal_description 'needle'
_diffrn_ambient_temperature 100
#These two values have been output from a single CSD field.
_refine_ls_R_factor_gt 0.0462
_refine_ls_wR_factor_gt 0.0462
_symmetry_cell_setting triclinic
_symmetry_space_group_name_H-M 'P -1'
_symmetry_Int_Tables_number 2
loop_
_symmetry_equiv_pos_site_id
_symmetry_equiv_pos_as_xyz
1 x,y,z
2 -x,-y,-z
_cell_length_a 7.731(6)
_cell_length_b 9.164(8)
_cell_length_c 13.476(10)
_cell_angle_alpha 78.351(15)
_cell_angle_beta 87.43(3)
_cell_angle_gamma 70.06(2)
_cell_formula_units_Z 2
loop_
_atom_type_symbol
_atom_type_radius_bond
C 0.68
H 0.23
B 0.83
Mn 1.61
N 0.68
O 0.68
S 1.02
loop_
_atom_site_label
_atom_site_type_symbol
_atom_site_fract_x
_atom_site_fract_y
_atom_site_fract_z
Mn1 Mn 0.45575(6) 0.78806(5) 0.67292(3)
O1 O 0.8144(3) 0.8140(2) 0.70491(16)
C1 C 0.6751(4) 0.7946(3) 0.6969(2)
S1 S 0.45898(10) 0.56584(8) 0.79504(5)
B1 B 0.6538(5) 0.3952(4) 0.8191(2)
C2 C 0.5466(4) 0.6883(3) 0.5739(2)
O2 O 0.6104(3) 0.6314(2) 0.50392(14)
C3 C 0.6615(4) 0.2410(3) 0.9010(2)
C4 C 0.7184(5) 0.0946(3) 0.8517(2)
H1 H 0.72750 0.00030 0.90360
H2 H 0.83800 0.08170 0.82010
H3 H 0.62590 0.10860 0.79990
C5 C 0.8095(4) 0.2115(4) 0.9837(2)
H4 H 0.81640 0.11590 1.03380
H5 H 0.77630 0.30250 1.01720
H6 H 0.92940 0.19760 0.95230
C6 C 0.4774(4) 0.2547(4) 0.9531(2)
H7 H 0.49020 0.15650 1.00210
H8 H 0.38210 0.27240 0.90210
H9 H 0.44240 0.34380 0.98830
C7 C 0.1694(4) 0.8971(3) 0.6235(2)
H10 H 0.09520 0.84760 0.59150
C8 C 0.1806(4) 0.8974(3) 0.7275(2)
H11 H 0.11800 0.84460 0.78250
C9 C 0.2934(4) 0.9838(3) 0.7416(2)
H12 H 0.32190 1.00610 0.80740
C10 C 0.3547(4) 1.0381(3) 0.6448(2)
H13 H 0.43070 1.10880 0.63010
C11 C 0.2783(4) 0.9842(3) 0.5724(2)
H14 H 0.29120 1.00990 0.49730
N1 N 0.9639(3) 0.4518(3) 0.77911(17)
C12 C 0.8332(4) 0.3961(3) 0.7570(2)
N2 N 0.8800(3) 0.3522(3) 0.66676(16)
C13 C 1.0376(4) 0.3818(3) 0.6330(2)
H15 H 1.09780 0.36170 0.57170
C14 C 0.9692(4) 0.5143(4) 0.8705(2)
H16 H 1.03250 0.59220 0.85620
H17 H 1.03540 0.42730 0.92530
H18 H 0.84330 0.56520 0.89100
C15 C 0.7777(4) 0.2821(3) 0.6129(2)
H19 H 0.77480 0.32540 0.54000
H20 H 0.65160 0.30720 0.63730
H21 H 0.83850 0.16690 0.62530
C16 C 1.0904(4) 0.4446(3) 0.7031(2)
H22 H 1.19470 0.47750 0.70080
#END
