
#######################################################################
#
#                 Cambridge Crystallographic Data Centre
#                                CCDC
#
#######################################################################
#
# If this CIF has been generated from an entry in the Cambridge
# Structural Database, then it will include bibliographic, chemical,
# crystal, experimental, refinement or atomic coordinate data resulting
# from the CCDC's data processing and validation procedures.
#
#######################################################################

data_CSD_CIF_HEVKEB
_audit_creation_date 2018-02-06
_audit_creation_method CSD-ConQuest-V1
_database_code_CSD HEVKEB
_database_code_depnum_ccdc_archive 'CCDC 1570647'
_chemical_formula_sum 'C16 H22 B1 Mn1 N2 O2 Se1'
_chemical_formula_moiety
;
C16 H22 B1 Mn1 N2 O2 Se1
;
_journal_coden_Cambridge 179
_journal_volume 56
_journal_year 2017
_journal_page_first 15760
_journal_name_full 'Angew.Chem.,Int.Ed. '
loop_
_publ_author_name
"Siyuan Liu"
"M.-A.Legare"
"D.Auerhammer"
"A.Hofmann"
"H.Braunschweig"
_chemical_name_systematic
;
((1,3-diemthylimidazol-2-ylidene)(t-butyl)boroylselenyl)-(\h^5^-cyclopentadien
yl)-dicarbonyl-manganese
;
_cell_volume    898.250
_exptl_crystal_colour 'red'
_exptl_crystal_density_diffrn 1.55
_exptl_crystal_description 'needle'
_diffrn_ambient_temperature 100
#These two values have been output from a single CSD field.
_refine_ls_R_factor_gt 0.0285
_refine_ls_wR_factor_gt 0.0285
_symmetry_cell_setting triclinic
_symmetry_space_group_name_H-M 'P -1'
_symmetry_Int_Tables_number 2
loop_
_symmetry_equiv_pos_site_id
_symmetry_equiv_pos_as_xyz
1 x,y,z
2 -x,-y,-z
_cell_length_a 7.899(4)
_cell_length_b 9.930(4)
_cell_length_c 12.903(8)
_cell_angle_alpha 98.51(3)
_cell_angle_beta 97.98(4)
_cell_angle_gamma 113.18(2)
_cell_formula_units_Z 2
loop_
_atom_type_symbol
_atom_type_radius_bond
C 0.68
H 0.23
B 0.83
Mn 1.61
N 0.68
O 0.68
Se 1.22
loop_
_atom_site_label
_atom_site_type_symbol
_atom_site_fract_x
_atom_site_fract_y
_atom_site_fract_z
Se1 Se 0.46755(3) 0.56708(3) 0.19556(2)
O1 O 0.7479(3) 0.6525(2) 0.50231(15)
C1 C 0.7269(3) 0.7029(3) 0.4271(2)
Mn1 Mn 0.70938(5) 0.79278(4) 0.32178(3)
B1 B 0.4968(4) 0.3869(3) 0.1859(2)
C2 C 0.9129(4) 0.7804(3) 0.2877(2)
O2 O 1.0561(3) 0.7827(2) 0.27254(19)
C3 C 0.3396(4) 0.2279(3) 0.1169(2)
C4 C 0.1881(4) 0.2429(3) 0.0364(3)
H1 H 0.09620 0.14280 -0.00400
H2 H 0.24810 0.30210 -0.01340
H3 H 0.12360 0.29340 0.07540
C5 C 0.4288(4) 0.1409(3) 0.0528(2)
H4 H 0.33190 0.04060 0.01650
H5 H 0.52830 0.13170 0.10170
H6 H 0.48310 0.19500 -0.00080
C6 C 0.2431(4) 0.1328(3) 0.1939(2)
H7 H 0.13960 0.03860 0.15210
H8 H 0.19310 0.18890 0.23990
H9 H 0.33530 0.11050 0.23850
C7 C 0.5352(4) 0.9025(3) 0.3681(2)
H10 H 0.41820 0.85720 0.39610
C8 C 0.5436(4) 0.9065(3) 0.2599(2)
H11 H 0.43300 0.86100 0.19770
C9 C 0.7327(4) 0.9854(3) 0.2541(2)
H12 H 0.77950 1.00760 0.18760
C10 C 0.8454(4) 1.0311(3) 0.3606(2)
H13 H 0.98460 1.09410 0.38240
C11 C 0.7227(4) 0.9801(3) 0.4305(2)
H14 H 0.76040 1.00090 0.51050
C12 C 0.6892(3) 0.3920(3) 0.2475(2)
N1 N 0.7306(3) 0.3635(2) 0.34399(17)
C13 C 0.9169(4) 0.3850(3) 0.3674(2)
H15 H 0.98050 0.37240 0.43080
N2 N 0.8490(3) 0.4299(2) 0.21023(18)
C14 C 0.9904(4) 0.4266(3) 0.2841(2)
H16 H 1.11630 0.44970 0.27700
C15 C 0.8701(4) 0.4678(3) 0.1056(2)
H17 H 0.99100 0.55440 0.11410
H18 H 0.76680 0.49250 0.07730
H19 H 0.86640 0.38170 0.05560
C16 C 0.6000(4) 0.3150(3) 0.4152(2)
H20 H 0.66430 0.36900 0.48930
H21 H 0.55710 0.20670 0.40980
H22 H 0.49100 0.33680 0.39390
#END
