
#######################################################################
#
#                 Cambridge Crystallographic Data Centre
#                                CCDC
#
#######################################################################
#
# If this CIF has been generated from an entry in the Cambridge
# Structural Database, then it will include bibliographic, chemical,
# crystal, experimental, refinement or atomic coordinate data resulting
# from the CCDC's data processing and validation procedures.
#
#######################################################################

data_CSD_CIF_HEWBOB
_audit_creation_date 2007-04-19
_audit_creation_method CSD-ConQuest-V1
_database_code_CSD HEWBOB
_database_code_depnum_ccdc_archive 'CCDC 620812'
_chemical_formula_sum 'C24 H22 Co1 N4 O10'
_chemical_formula_moiety
;
C24 H22 Co1 N4 O10
;
_journal_coden_Cambridge 1290
_journal_year 2007
_journal_page_first 643
_journal_name_full 'Eur.J.Inorg.Chem. '
loop_
_publ_author_name
"A.Karmakar"
"R.J.Sarma"
"J.B.Baruah"
_chemical_name_systematic
;
Diaqua-bis(2-nitrobenzoato-O)-bis(pyridine-N)-cobalt(ii)
;
_cell_volume    628.588
_exptl_crystal_colour 'orange'
_exptl_crystal_density_diffrn 1.546
_exptl_crystal_description 'plates'
_diffrn_ambient_temperature 296
#These two values have been output from a single CSD field.
_refine_ls_R_factor_gt 0.0254
_refine_ls_wR_factor_gt 0.0254
_symmetry_cell_setting triclinic
_symmetry_space_group_name_H-M 'P -1'
_symmetry_Int_Tables_number 2
loop_
_symmetry_equiv_pos_site_id
_symmetry_equiv_pos_as_xyz
1 x,y,z
2 -x,-y,-z
_cell_length_a 7.2206(5)
_cell_length_b 8.5518(6)
_cell_length_c 11.0026(7)
_cell_angle_alpha 97.169(1)
_cell_angle_beta 98.233(1)
_cell_angle_gamma 108.126(1)
_cell_formula_units_Z 1
loop_
_atom_type_symbol
_atom_type_radius_bond
C 0.68
H 0.23
Co 1.33
N 0.68
O 0.68
loop_
_atom_site_label
_atom_site_type_symbol
_atom_site_fract_x
_atom_site_fract_y
_atom_site_fract_z
Co1 Co 0.50000 0.50000 0.50000
O1 O 0.7616(2) 0.45282(18) 0.57648(13)
O2 O 0.58207(17) 0.48984(15) 0.32557(10)
O3 O 0.82720(18) 0.38075(16) 0.34686(10)
O4 O 0.5713(3) 0.0937(2) 0.16265(17)
O5 O 0.8087(3) 0.0722(3) 0.0725(2)
N1 N 0.3483(2) 0.23593(18) 0.45622(13)
N2 N 0.7002(3) 0.1472(2) 0.10409(16)
C1 C 0.3474(3) 0.1385(2) 0.54288(19)
H1 H 0.41870 0.18710 0.62330
C2 C 0.2450(3) -0.0309(3) 0.5172(2)
H2 H 0.24810 -0.09520 0.57920
C3 C 0.1384(3) -0.1035(3) 0.3995(3)
H3 H 0.06740 -0.21760 0.38050
C4 C 0.1378(3) -0.0059(3) 0.3101(2)
H4 H 0.06680 -0.05240 0.22930
C5 C 0.2439(3) 0.1619(2) 0.34171(18)
H5 H 0.24320 0.22760 0.28040
C6 C 0.7082(2) 0.4351(2) 0.28541(14)
C7 C 0.7211(2) 0.4429(2) 0.15021(14)
C8 C 0.7243(3) 0.3095(2) 0.06589(15)
C9 C 0.7409(3) 0.3209(3) -0.05665(17)
H6 H 0.74120 0.22910 -0.11160
C10 C 0.7571(3) 0.4705(3) -0.09600(18)
H7 H 0.76810 0.47990 -0.17820
C11 C 0.7570(3) 0.6059(3) -0.01436(19)
H8 H 0.76960 0.70700 -0.04110
C12 C 0.7381(3) 0.5920(2) 0.10751(17)
H9 H 0.73670 0.68400 0.16180
H10 H 0.791(3) 0.420(3) 0.513(2)
H11 H 0.865(4) 0.521(3) 0.617(2)
O1A O 0.2384(2) 0.54718(18) 0.42352(13)
O2A O 0.41793(17) 0.51016(15) 0.67443(10)
O3A O 0.17280(18) 0.61925(16) 0.65314(10)
O4A O 0.4287(3) 0.9063(2) 0.83735(17)
O5A O 0.1913(3) 0.9278(3) 0.9275(2)
N1A N 0.6517(2) 0.76407(18) 0.54378(13)
N2A N 0.2998(3) 0.8528(2) 0.89591(16)
C1A C 0.6526(3) 0.8615(2) 0.45712(19)
H1A H 0.58130 0.81290 0.37670
C2A C 0.7550(3) 1.0309(3) 0.4828(2)
H2A H 0.75190 1.09520 0.42080
C3A C 0.8616(3) 1.1035(3) 0.6005(3)
H3A H 0.93260 1.21760 0.61950
C4A C 0.8622(3) 1.0059(3) 0.6899(2)
H4A H 0.93320 1.05240 0.77070
C5A C 0.7561(3) 0.8381(2) 0.65829(18)
H5A H 0.75680 0.77240 0.71960
C6A C 0.2918(2) 0.5649(2) 0.71459(14)
C7A C 0.2789(2) 0.5571(2) 0.84979(14)
C8A C 0.2757(3) 0.6905(2) 0.93411(15)
C9A C 0.2591(3) 0.6791(3) 1.05665(17)
H6A H 0.25880 0.77090 1.11160
C10A C 0.2429(3) 0.5295(3) 1.09600(18)
H7A H 0.23190 0.52010 1.17820
C11A C 0.2430(3) 0.3941(3) 1.01436(19)
H8A H 0.23040 0.29300 1.04110
C12A C 0.2619(3) 0.4080(2) 0.89249(17)
H9A H 0.26330 0.31600 0.83820
H10A H 0.209(3) 0.580(3) 0.487(2)
H11A H 0.135(4) 0.479(3) 0.383(2)
#END
