
#######################################################################
#
#                 Cambridge Crystallographic Data Centre
#                                CCDC
#
#######################################################################
#
# If this CIF has been generated from an entry in the Cambridge
# Structural Database, then it will include bibliographic, chemical,
# crystal, experimental, refinement or atomic coordinate data resulting
# from the CCDC's data processing and validation procedures.
#
#######################################################################

data_CSD_CIF_HEXRAD
_audit_creation_date 1995-09-08
_audit_creation_method CSD-ConQuest-V1
_database_code_CSD HEXRAD
_chemical_formula_sum 'C19 H22 Cr1 O3'
_chemical_formula_moiety
;
C19 H22 Cr1 O3
;
_journal_coden_Cambridge 36
_journal_volume 475
_journal_year 1994
_journal_page_first 267
_journal_name_full 'J.Organomet.Chem. '
loop_
_publ_author_name
"C.Bonifaci"
"A.Ceccon"
"A.Gambaro"
"P.Ganis"
"L.Mantovani"
"S.Santi"
"A.Venzo"
_chemical_name_systematic
;
(1-exo)-(\h^6^,-1,2,3,4,5,6,7-Heptamethylindene)-tricarbonyl-chromium
;
_chemical_melting_point 388.15
_cell_volume    870.114
_exptl_special_details
;
Melting point range 388.15-392.15K
Dx given as 1.37, we find 1.34

;
_diffrn_ambient_temperature ?
_diffrn_special_details
;
The study was carried out at room temperature,in the range 283-303K

;
#These two values have been output from a single CSD field.
_refine_ls_R_factor_gt 0.055
_refine_ls_wR_factor_gt 0.055
_symmetry_cell_setting triclinic
_symmetry_space_group_name_H-M 'P -1'
_symmetry_Int_Tables_number 2
loop_
_symmetry_equiv_pos_site_id
_symmetry_equiv_pos_as_xyz
1 x,y,z
2 -x,-y,-z
_cell_length_a 9.093(5)
_cell_length_b 9.812(5)
_cell_length_c 10.847(5)
_cell_angle_alpha 66.2(1)
_cell_angle_beta 79.8(2)
_cell_angle_gamma 83.0(2)
_cell_formula_units_Z 2
loop_
_atom_type_symbol
_atom_type_radius_bond
C 0.68
H 0.23
Cr 1.35
O 0.68
loop_
_atom_site_label
_atom_site_type_symbol
_atom_site_fract_x
_atom_site_fract_y
_atom_site_fract_z
Cr1 Cr 0.3203(1) 0.1876(1) 0.2487(1)
O1 O 0.5898(7) 0.3024(7) 0.2881(6)
O2 O 0.1432(8) 0.4619(7) 0.2496(8)
O3 O 0.2384(6) 0.0323(7) 0.5481(5)
C1 C 0.4851(8) 0.2588(8) 0.2748(7)
C2 C 0.2120(9) 0.3565(9) 0.2517(9)
C3 C 0.2707(8) 0.0915(8) 0.4333(8)
C4 C 0.1201(7) -0.1166(8) 0.3210(7)
C5 C 0.2394(8) -0.2292(8) 0.3887(7)
C6 C 0.3774(8) -0.1828(8) 0.3353(7)
C7 C 0.3653(4) -0.0291(4) 0.2237(4)
C8 C 0.4709(4) 0.0699(4) 0.1340(4)
C9 C 0.4241(4) 0.2089(4) 0.0421(4)
C10 C 0.2717(4) 0.2488(4) 0.0399(4)
C11 C 0.1661(4) 0.1497(4) 0.1295(4)
C12 C 0.2129(4) 0.0108(4) 0.2215(4)
C13 C 0.5215(8) -0.2686(8) 0.3799(9)
C14 C 0.195(1) -0.373(1) 0.5047(9)
C15 C 0.0298(8) -0.1791(9) 0.2503(9)
C16 C -0.0037(7) 0.1955(8) 0.1327(8)
C17 C 0.2183(9) 0.3980(9) -0.0670(8)
C18 C 0.5409(8) 0.3170(9) -0.0567(8)
C19 C 0.6413(7) 0.0262(9) 0.1354(7)
H1 H 0.04326 -0.08280 0.39492
H2 H 0.61659 -0.20528 0.31898
H3 H 0.53059 -0.37447 0.36745
H4 H 0.52379 -0.29215 0.48607
H5 H 0.07463 -0.37859 0.52480
H6 H 0.23551 -0.38176 0.59614
H7 H 0.24371 -0.46720 0.47968
H8 H -0.05572 -0.09725 0.20222
H9 H -0.02273 -0.27935 0.32244
H10 H 0.10465 -0.20614 0.17189
H11 H 0.65864 -0.08421 0.21194
H12 H 0.69536 0.10526 0.15721
H13 H 0.69343 0.02761 0.03654
H14 H -0.02192 0.30567 0.05607
H15 H -0.05084 0.19617 0.23228
H16 H -0.06193 0.11652 0.11488
H17 H 0.31347 0.46214 -0.12815
H18 H 0.14753 0.46352 -0.01623
H19 H 0.15463 0.37860 -0.13294
H20 H 0.48634 0.41889 -0.12072
H21 H 0.61027 0.26597 -0.12083
H22 H 0.61224 0.34363 -0.00018
#END
