
#######################################################################
#
#                 Cambridge Crystallographic Data Centre
#                                CCDC
#
#######################################################################
#
# If this CIF has been generated from an entry in the Cambridge
# Structural Database, then it will include bibliographic, chemical,
# crystal, experimental, refinement or atomic coordinate data resulting
# from the CCDC's data processing and validation procedures.
#
#######################################################################

data_CSD_CIF_HEYNEE
_audit_creation_date 1995-09-14
_audit_creation_method CSD-ConQuest-V1
_database_code_CSD HEYNEE
_database_code_depnum_ccdc_fiz 'CSD 400588'
_chemical_formula_sum 'C16 H18 Fe1 I2 S4'
_chemical_formula_moiety
;
C16 H18 Fe1 I2 S4
;
_journal_coden_Cambridge 155
_journal_volume 224
_journal_year 1994
_journal_page_first 45
_journal_name_full 'Inorg.Chim.Acta '
loop_
_publ_author_name
"D.Sellmann"
"G.Mahr"
"F.Knoch"
"M.Moll"
_chemical_name_systematic
;
(1,2-bis(2-(Methylthio)phenylthio)ethane-S,S',S'',S''')-di-iodo-iron(ii)
;
_cell_volume   2148.762
_exptl_crystal_colour 'brown'
_exptl_crystal_density_diffrn 2.0
_diffrn_ambient_temperature ?
_diffrn_special_details
;
The study was carried out at room temperature,in the range 283-303K

;
#These two values have been output from a single CSD field.
_refine_ls_R_factor_gt 0.045
_refine_ls_wR_factor_gt 0.045
_symmetry_cell_setting monoclinic
_symmetry_space_group_name_H-M 'C 2/c'
_symmetry_Int_Tables_number 15
loop_
_symmetry_equiv_pos_site_id
_symmetry_equiv_pos_as_xyz
1 x,y,z
2 -x,y,1/2-z
3 1/2+x,1/2+y,z
4 1/2-x,1/2+y,1/2-z
5 -x,-y,-z
6 x,-y,-1/2+z
7 -1/2-x,-1/2-y,-z
8 -1/2+x,-1/2-y,-1/2+z
_cell_length_a 16.574(5)
_cell_length_b 8.823(2)
_cell_length_c 14.870(3)
_cell_angle_alpha 90
_cell_angle_beta 98.82(2)
_cell_angle_gamma 90
_cell_formula_units_Z 4
loop_
_atom_type_symbol
_atom_type_radius_bond
C 0.68
H 0.23
Fe 1.34
I 1.40
S 1.02
loop_
_atom_site_label
_atom_site_type_symbol
_atom_site_fract_x
_atom_site_fract_y
_atom_site_fract_z
Fe1 Fe 0.00000 0.36542(22) 0.25000
I1 I -0.12605(5) 0.56076(9) 0.25387(5)
S1 S 0.03266(21) 0.34363(29) 0.41855(17)
S2 S 0.10242(21) 0.14485(31) 0.25833(17)
C1 C 0.13446(63) 0.1122(11) 0.37590(65)
C2 C 0.19537(78) 0.0059(14) 0.40150(75)
C3 C 0.22732(81) -0.0191(15) 0.49184(84)
C4 C 0.19806(79) 0.0667(16) 0.55668(75)
C5 C 0.13895(77) 0.1734(14) 0.53529(70)
C6 C 0.10874(68) 0.1989(13) 0.44410(67)
C7 C 0.03849(92) -0.0175(11) 0.22863(72)
C8 C -0.04652(75) 0.2726(15) 0.47409(70)
H1 H 0.11820 0.24830 0.58970
H2 H 0.20320 0.03470 0.62710
H3 H 0.28540 -0.07430 0.50650
H4 H 0.22600 -0.07290 0.34450
H5 H 0.02510 -0.05400 0.16080
H6 H 0.08370 -0.09350 0.24620
H7 H -0.05180 0.28010 0.52340
H8 H -0.08820 0.33810 0.44220
H9 H -0.08040 0.18440 0.44750
I1A I 0.12605(5) 0.56076(9) 0.24613(5)
S1A S -0.03266(21) 0.34363(29) 0.08145(17)
C6A C -0.10874(68) 0.1989(13) 0.05590(67)
C1A C -0.13446(63) 0.1122(11) 0.12410(65)
S2A S -0.10242(21) 0.14485(31) 0.24167(17)
C7A C -0.03849(92) -0.0175(11) 0.27137(72)
H5A H -0.02510 -0.05400 0.33920
H6A H -0.08370 -0.09350 0.25380
C2A C -0.19537(78) 0.0059(14) 0.09850(75)
C3A C -0.22732(81) -0.0191(15) 0.00816(84)
C4A C -0.19806(79) 0.0667(16) -0.05668(75)
C5A C -0.13895(77) 0.1734(14) -0.03529(70)
H1A H -0.11820 0.24830 -0.08970
H2A H -0.20320 0.03470 -0.12710
H3A H -0.28540 -0.07430 -0.00650
H4A H -0.22600 -0.07290 0.15550
C8A C 0.04652(75) 0.2726(15) 0.02591(70)
H7A H 0.05180 0.28010 -0.02340
H8A H 0.08820 0.33810 0.05780
H9A H 0.08040 0.18440 0.05250
#END
