
#######################################################################
#
#                 Cambridge Crystallographic Data Centre
#                                CCDC
#
#######################################################################
#
# If this CIF has been generated from an entry in the Cambridge
# Structural Database, then it will include bibliographic, chemical,
# crystal, experimental, refinement or atomic coordinate data resulting
# from the CCDC's data processing and validation procedures.
#
#######################################################################

data_CSD_CIF_HEZJIF
_audit_creation_date 1995-09-14
_audit_creation_method CSD-ConQuest-V1
_database_code_CSD HEZJIF
_chemical_formula_sum 'C14 H17 Cr1 N1 O5'
_chemical_formula_moiety
;
C14 H17 Cr1 N1 O5
;
_journal_coden_Cambridge 36
_journal_volume 479
_journal_year 1994
_journal_page_first 73
_journal_name_full 'J.Organomet.Chem. '
loop_
_publ_author_name
"T.M.Gilbert"
"A.H.Bond"
"R.D.Rogers"
_chemical_name_systematic
;
(\h^6^-4-(Dimethylamine)benzaldehyde dimethyl acetal)-tricarbonyl-chromium
;
_cell_volume    768.876
_exptl_crystal_colour 'yellow'
_exptl_crystal_density_diffrn 1.43
_diffrn_ambient_temperature ?
_diffrn_special_details
;
The study was carried out at room temperature,in the range 283-303K

;
#These two values have been output from a single CSD field.
_refine_ls_R_factor_gt 0.041
_refine_ls_wR_factor_gt 0.041
_symmetry_cell_setting triclinic
_symmetry_space_group_name_H-M 'P -1'
_symmetry_Int_Tables_number 2
loop_
_symmetry_equiv_pos_site_id
_symmetry_equiv_pos_as_xyz
1 x,y,z
2 -x,-y,-z
_cell_length_a 6.725(2)
_cell_length_b 7.227(3)
_cell_length_c 16.021(8)
_cell_angle_alpha 81.38(4)
_cell_angle_beta 87.86(3)
_cell_angle_gamma 87.77(3)
_cell_formula_units_Z 2
loop_
_atom_type_symbol
_atom_type_radius_bond
C 0.68
H 0.23
Cr 1.35
N 0.68
O 0.68
loop_
_atom_site_label
_atom_site_type_symbol
_atom_site_fract_x
_atom_site_fract_y
_atom_site_fract_z
Cr1 Cr 0.3817(1) 0.29900(9) 0.71627(4)
O1 O 0.6371(5) -0.0297(5) 0.6852(3)
O2 O 0.1533(6) 0.2771(6) 0.5627(2)
O3 O 0.1085(5) 0.0255(5) 0.8155(2)
O4 O 0.8616(4) 0.4310(5) 0.8891(2)
O5 O 0.5897(5) 0.2580(5) 0.9471(2)
N1 N 0.2509(5) 0.7430(5) 0.6147(2)
C1 C 0.5379(7) 0.0983(6) 0.6962(3)
C2 C 0.2427(7) 0.2831(6) 0.6224(3)
C3 C 0.2135(6) 0.1336(6) 0.7780(3)
C4 C 0.5742(6) 0.4104(5) 0.8063(3)
C5 C 0.6528(6) 0.4529(5) 0.7234(3)
C6 C 0.5443(6) 0.5545(5) 0.6585(3)
C7 C 0.3498(6) 0.6290(5) 0.6746(3)
C8 C 0.2636(6) 0.5682(5) 0.7560(2)
C9 C 0.3749(6) 0.4659(6) 0.8206(3)
C10 C 0.7067(6) 0.3129(6) 0.8748(3)
C11 C 0.7938(8) 0.6027(7) 0.9138(4)
C12 C 0.6965(8) 0.1471(8) 1.0130(4)
C13 C 0.3289(8) 0.7768(8) 0.5280(3)
C14 C 0.0432(6) 0.7964(7) 0.6271(3)
H1 H 0.78400 0.41000 0.71200
H2 H 0.59900 0.57500 0.60300
H3 H 0.12700 0.59600 0.76600
H4 H 0.31600 0.43400 0.87500
H5 H 0.76900 0.20400 0.85800
H6 H 0.90500 0.66100 0.93200
H7 H 0.69600 0.58500 0.95800
H8 H 0.73900 0.68000 0.86600
H9 H 0.61400 0.09900 1.05900
H10 H 0.79700 0.21900 1.03000
H11 H 0.75700 0.04600 0.98900
H12 H 0.26000 0.88200 0.49800
H13 H 0.32000 0.67300 0.49800
H14 H 0.46500 0.80500 0.53200
H15 H 0.01300 0.89800 0.58400
H16 H 0.01800 0.83400 0.68100
H17 H -0.03800 0.69400 0.62200
#END
