
#######################################################################
#
#                 Cambridge Crystallographic Data Centre
#                                CCDC
#
#######################################################################
#
# If this CIF has been generated from an entry in the Cambridge
# Structural Database, then it will include bibliographic, chemical,
# crystal, experimental, refinement or atomic coordinate data resulting
# from the CCDC's data processing and validation procedures.
#
#######################################################################

data_CSD_CIF_HEZKEC
_audit_creation_date 1995-09-14
_audit_creation_method CSD-ConQuest-V1
_database_code_CSD HEZKEC
_chemical_formula_sum 'C15 H20 Cr1 O5 Si1'
_chemical_formula_moiety
;
C15 H20 Cr1 O5 Si1
;
_journal_coden_Cambridge 36
_journal_volume 479
_journal_year 1994
_journal_page_first 73
_journal_name_full 'J.Organomet.Chem. '
loop_
_publ_author_name
"T.M.Gilbert"
"A.H.Bond"
"R.D.Rogers"
_chemical_name_systematic
;
(\h^6^-4-(Trimethylsilyl)benzaldehyde dimethyl acetal)-tricarbonyl-chromium
;
_cell_volume    878.163
_exptl_crystal_colour 'yellow-orange'
_exptl_crystal_density_diffrn 1.36
_diffrn_ambient_temperature ?
_diffrn_special_details
;
The study was carried out at room temperature,in the range 283-303K

;
#These two values have been output from a single CSD field.
_refine_ls_R_factor_gt 0.044
_refine_ls_wR_factor_gt 0.044
_symmetry_cell_setting triclinic
_symmetry_space_group_name_H-M 'P -1'
_symmetry_Int_Tables_number 2
loop_
_symmetry_equiv_pos_site_id
_symmetry_equiv_pos_as_xyz
1 x,y,z
2 -x,-y,-z
_cell_length_a 6.933(2)
_cell_length_b 11.709(3)
_cell_length_c 12.071(5)
_cell_angle_alpha 112.57(3)
_cell_angle_beta 94.32(3)
_cell_angle_gamma 100.52(2)
_cell_formula_units_Z 2
loop_
_atom_type_symbol
_atom_type_radius_bond
C 0.68
H 0.23
Cr 1.35
O 0.68
Si 1.20
loop_
_atom_site_label
_atom_site_type_symbol
_atom_site_fract_x
_atom_site_fract_y
_atom_site_fract_z
Cr1 Cr -0.7569(1) 0.68611(7) 0.79049(6)
Si1 Si -0.4243(2) 0.8948(1) 0.6820(1)
O1 O -0.9880(6) 0.6356(4) 0.9727(4)
O2 O -1.1346(5) 0.5821(4) 0.6121(3)
O3 O -0.8549(6) 0.9412(4) 0.8797(4)
O4 O -0.4567(5) 0.4023(3) 0.8632(3)
O5 O -0.7577(5) 0.3299(3) 0.7278(3)
C1 C -0.8976(7) 0.6547(5) 0.9029(4)
C2 C -0.9890(7) 0.6231(5) 0.6820(4)
C3 C -0.8162(7) 0.8430(5) 0.8453(4)
C4 C -0.5829(6) 0.6357(4) 0.6400(4)
C5 C -0.6331(6) 0.5301(4) 0.6692(4)
C6 C -0.5850(6) 0.5425(4) 0.7889(4)
C7 C -0.4823(6) 0.6634(4) 0.8784(4)
C8 C -0.4326(6) 0.7669(4) 0.8481(4)
C9 C -0.4837(6) 0.7567(4) 0.7275(4)
C10 C -0.6468(8) 0.8926(6) 0.5837(5)
C11 C -0.351(1) 1.0460(5) 0.8209(5)
C12 C -0.2158(8) 0.8747(6) 0.5947(5)
C13 C -0.6335(7) 0.4329(4) 0.8262(4)
C14 C -0.3347(9) 0.3667(6) 0.7724(6)
C15 C -0.834(1) 0.2252(5) 0.7556(6)
H1 H -0.61700 0.62600 0.55900
H2 H -0.70000 0.45000 0.60800
H3 H -0.44900 0.67300 0.96000
H4 H -0.36200 0.84700 0.90900
H5 H -0.76300 0.89400 0.62000
H6 H -0.66900 0.81700 0.51100
H7 H -0.61600 0.96400 0.56400
H8 H -0.33900 1.11500 0.79900
H9 H -0.22500 1.04700 0.85900
H10 H -0.44300 1.05100 0.87600
H11 H -0.19300 0.94400 0.57100
H12 H -0.25500 0.79700 0.52400
H13 H -0.09700 0.87500 0.64000
H14 H -0.70100 0.45600 0.89400
H15 H -0.22500 0.34800 0.80900
H16 H -0.28800 0.43500 0.75000
H17 H -0.40100 0.29400 0.70200
H18 H -0.92500 0.16400 0.68700
H19 H -0.90000 0.25100 0.82400
H20 H -0.72900 0.18900 0.77200
#END
