
#######################################################################
#
#                 Cambridge Crystallographic Data Centre
#                                CCDC
#
#######################################################################
#
# If this CIF has been generated from an entry in the Cambridge
# Structural Database, then it will include bibliographic, chemical,
# crystal, experimental, refinement or atomic coordinate data resulting
# from the CCDC's data processing and validation procedures.
#
#######################################################################

data_CSD_CIF_HIGGOV
_audit_creation_date 2013-07-05
_audit_creation_method CSD-ConQuest-V1
_database_code_CSD HIGGOV
_database_code_depnum_ccdc_archive 'CCDC 936136'
_chemical_formula_sum 'C12 H16 Fe1 N6 O2 S2'
_chemical_formula_moiety
;
C12 H16 Fe1 N6 O2 S2
;
_journal_coden_Cambridge 222
_journal_volume 42
_journal_year 2013
_journal_page_first 10746
_journal_name_full 'Dalton Trans. '
loop_
_publ_author_name
"S.Wohlert"
"L.Peters"
"C.Nather"
_chemical_name_systematic
;
Diaqua-bis(2-methylpyrazine)-bis(isothiocyanato)-iron(ii)
;
_cell_volume    436.964
_exptl_crystal_colour 'red'
_exptl_crystal_density_diffrn 1.506
_exptl_crystal_description 'block'
_diffrn_ambient_temperature 293
#These two values have been output from a single CSD field.
_refine_ls_R_factor_gt 0.0243
_refine_ls_wR_factor_gt 0.0243
_symmetry_cell_setting triclinic
_symmetry_space_group_name_H-M 'P -1'
_symmetry_Int_Tables_number 2
loop_
_symmetry_equiv_pos_site_id
_symmetry_equiv_pos_as_xyz
1 x,y,z
2 -x,-y,-z
_cell_length_a 6.9323(5)
_cell_length_b 8.1273(6)
_cell_length_c 9.2839(6)
_cell_angle_alpha 108.53(1)
_cell_angle_beta 111.80(1)
_cell_angle_gamma 99.19(1)
_cell_formula_units_Z 1
loop_
_atom_type_symbol
_atom_type_radius_bond
C 0.68
H 0.23
Fe 1.52
N 0.68
O 0.68
S 1.02
loop_
_atom_site_label
_atom_site_type_symbol
_atom_site_fract_x
_atom_site_fract_y
_atom_site_fract_z
Fe1 Fe 0.00000 0.00000 0.50000
N1 N 0.0288(3) -0.1318(2) 0.27659(19)
C1 C 0.1073(3) -0.1867(2) 0.18880(19)
S1 S 0.21706(8) -0.26551(7) 0.06453(6)
N2 N 0.3364(2) 0.62168(17) 0.55514(17)
C2 C 0.4010(2) 0.5779(2) 0.68938(19)
C3 C 0.3105(2) 0.4028(2) 0.6702(2)
H1 H 0.35480 0.37640 0.76560
C4 C 0.1053(2) 0.3139(2) 0.38605(19)
H2 H 0.00680 0.22450 0.27860
C5 C 0.1900(3) 0.4882(2) 0.4044(2)
H3 H 0.14420 0.51440 0.30890
C6 C 0.5702(3) 0.7229(2) 0.8586(2)
H4 H 0.68060 0.79290 0.84330
H5 H 0.63630 0.66650 0.93230
H6 H 0.50210 0.80210 0.90840
N3 N 0.1623(2) 0.27083(17) 0.52053(16)
O1 O 0.30752(19) -0.02233(16) 0.64329(17)
H7 H 0.42370 0.05680 0.71600
H8 H 0.33490 -0.11720 0.60720
N1A N -0.0288(3) 0.1318(2) 0.72341(19)
C1A C -0.1073(3) 0.1867(2) 0.81120(19)
S1A S -0.21706(8) 0.26551(7) 0.93547(6)
N2A N -0.3364(2) -0.62168(17) 0.44486(17)
C2A C -0.4010(2) -0.5779(2) 0.31062(19)
C3A C -0.3105(2) -0.4028(2) 0.3298(2)
H1A H -0.35480 -0.37640 0.23440
C4A C -0.1053(2) -0.3139(2) 0.61395(19)
H2A H -0.00680 -0.22450 0.72140
C5A C -0.1900(3) -0.4882(2) 0.5956(2)
H3A H -0.14420 -0.51440 0.69110
C6A C -0.5702(3) -0.7229(2) 0.1414(2)
H4A H -0.68060 -0.79290 0.15670
H5A H -0.63630 -0.66650 0.06770
H6A H -0.50210 -0.80210 0.09160
N3A N -0.1623(2) -0.27083(17) 0.47947(16)
O1A O -0.30752(19) 0.02233(16) 0.35671(17)
H7A H -0.42370 -0.05680 0.28400
H8A H -0.33490 0.11720 0.39280
#END
