
#######################################################################
#
#                 Cambridge Crystallographic Data Centre
#                                CCDC
#
#######################################################################
#
# If this CIF has been generated from an entry in the Cambridge
# Structural Database, then it will include bibliographic, chemical,
# crystal, experimental, refinement or atomic coordinate data resulting
# from the CCDC's data processing and validation procedures.
#
#######################################################################

data_CSD_CIF_HILBUC
_audit_creation_date 2018-11-20
_audit_creation_method CSD-ConQuest-V1
_database_code_CSD HILBUC
_database_code_depnum_ccdc_archive 'CCDC 1871036'
_chemical_formula_sum 'C24 H20 Co1 N18'
_chemical_formula_moiety
;
C24 H20 Co1 N18
;
_journal_coden_Cambridge 1290
_journal_year 2018
_journal_page_first 250
_journal_name_full 'Eur.J.Inorg.Chem. '
loop_
_publ_author_name
"L.Vahovska"
"O.Bukrynov"
"I.Potocnak"
"E.Cizmar"
"A.Kliuikov"
"S.Vitushkina"
"M.Dusek"
"R.Herchel"
_chemical_name_systematic
;
diazido-bis[3-(pyridin-2-yl)-5-(pyridin-2-yl)-4H-1,2,4-triazol-4-amine]-cobalt
(ii)
;
_cell_volume    650.188
_exptl_crystal_colour 'orange'
_exptl_crystal_density_diffrn 1.582
_exptl_crystal_description 'prism'
_diffrn_ambient_temperature 173
#These two values have been output from a single CSD field.
_refine_ls_R_factor_gt 0.0381
_refine_ls_wR_factor_gt 0.0381
_symmetry_cell_setting triclinic
_symmetry_space_group_name_H-M 'P -1'
_symmetry_Int_Tables_number 2
loop_
_symmetry_equiv_pos_site_id
_symmetry_equiv_pos_as_xyz
1 x,y,z
2 -x,-y,-z
_cell_length_a 7.0059(2)
_cell_length_b 7.8151(3)
_cell_length_c 13.1452(4)
_cell_angle_alpha 77.518(3)
_cell_angle_beta 82.556(3)
_cell_angle_gamma 67.907(4)
_cell_formula_units_Z 1
loop_
_atom_type_symbol
_atom_type_radius_bond
C 0.68
H 0.23
Co 1.26
N 0.68
loop_
_atom_site_label
_atom_site_type_symbol
_atom_site_fract_x
_atom_site_fract_y
_atom_site_fract_z
Co1 Co 0.00000 0.00000 0.00000
N1 N -0.1910(3) 0.2438(2) 0.06546(14)
N2 N -0.2902(3) -0.0845(2) 0.29065(13)
N3 N -0.4304(3) 0.0000(3) 0.36916(17)
N4 N 0.2445(3) 0.0236(3) 0.15588(16)
N5 N -0.2660(3) -0.3860(3) 0.46857(15)
N6 N -0.1044(3) -0.1156(2) 0.14507(14)
N7 N -0.0643(3) -0.2931(2) 0.20341(14)
C1 C -0.1848(3) -0.4283(3) 0.37460(17)
N8 N 0.2576(3) 0.0006(3) 0.06854(15)
N9 N 0.2308(4) 0.0404(4) 0.24252(18)
C2 C -0.2185(3) 0.4236(3) 0.02303(17)
H1 H -0.14230 0.44890 -0.03990
C3 C -0.1945(4) -0.7138(4) 0.5321(2)
H2 H -0.19980 -0.81090 0.58880
C4 C -0.2985(3) 0.2105(3) 0.15586(17)
C5 C -0.2381(3) 0.0077(3) 0.19792(16)
C6 C -0.4410(4) 0.3522(3) 0.20172(19)
H3 H -0.51940 0.32430 0.26330
C7 C -0.1800(3) -0.2712(3) 0.29068(16)
C8 C -0.3528(4) 0.5734(3) 0.06712(18)
H4 H -0.36490 0.69850 0.03640
C9 C -0.1055(4) -0.6088(3) 0.35491(18)
H5 H -0.04730 -0.63290 0.28770
C10 C -0.1123(4) -0.7544(3) 0.4350(2)
H6 H -0.06130 -0.88010 0.42340
C11 C -0.2683(4) -0.5303(4) 0.54467(19)
H7 H -0.32460 -0.50360 0.61170
C12 C -0.4684(4) 0.5376(3) 0.15624(19)
H8 H -0.56590 0.63810 0.18650
H9 H -0.546(4) 0.020(4) 0.347(2)
H10 H -0.412(4) -0.084(4) 0.425(2)
N1A N 0.1910(3) -0.2438(2) -0.06546(14)
N2A N 0.2902(3) 0.0845(2) -0.29065(13)
N3A N 0.4304(3) 0.0000(3) -0.36916(17)
N4A N -0.2445(3) -0.0236(3) -0.15588(16)
N5A N 0.2660(3) 0.3860(3) -0.46857(15)
N6A N 0.1044(3) 0.1156(2) -0.14507(14)
N7A N 0.0643(3) 0.2931(2) -0.20341(14)
C1A C 0.1848(3) 0.4283(3) -0.37460(17)
N8A N -0.2576(3) -0.0006(3) -0.06854(15)
N9A N -0.2308(4) -0.0404(4) -0.24252(18)
C2A C 0.2185(3) -0.4236(3) -0.02303(17)
H1A H 0.14230 -0.44890 0.03990
C3A C 0.1945(4) 0.7138(4) -0.5321(2)
H2A H 0.19980 0.81090 -0.58880
C4A C 0.2985(3) -0.2105(3) -0.15586(17)
C5A C 0.2381(3) -0.0077(3) -0.19792(16)
C6A C 0.4410(4) -0.3522(3) -0.20172(19)
H3A H 0.51940 -0.32430 -0.26330
C7A C 0.1800(3) 0.2712(3) -0.29068(16)
C8A C 0.3528(4) -0.5734(3) -0.06712(18)
H4A H 0.36490 -0.69850 -0.03640
C9A C 0.1055(4) 0.6088(3) -0.35491(18)
H5A H 0.04730 0.63290 -0.28770
C10A C 0.1123(4) 0.7544(3) -0.4350(2)
H6A H 0.06130 0.88010 -0.42340
C11A C 0.2683(4) 0.5303(4) -0.54467(19)
H7A H 0.32460 0.50360 -0.61170
C12A C 0.4684(4) -0.5376(3) -0.15624(19)
H8A H 0.56590 -0.63810 -0.18650
H9A H 0.546(4) -0.020(4) -0.347(2)
H10A H 0.412(4) 0.084(4) -0.425(2)
#END
