
#######################################################################
#
#                 Cambridge Crystallographic Data Centre
#                                CCDC
#
#######################################################################
#
# If this CIF has been generated from an entry in the Cambridge
# Structural Database, then it will include bibliographic, chemical,
# crystal, experimental, refinement or atomic coordinate data resulting
# from the CCDC's data processing and validation procedures.
#
#######################################################################

data_CSD_CIF_HIPLOI
_audit_creation_date 2008-02-11
_audit_creation_method CSD-ConQuest-V1
_database_code_CSD HIPLOI
_database_code_depnum_ccdc_archive 'CCDC 635201'
_chemical_formula_sum 'C18 H37 Co1 N3 Si1'
_chemical_formula_moiety
;
C18 H37 Co1 N3 Si1
;
_journal_coden_Cambridge 9
_journal_volume 46
_journal_year 2007
_journal_page_first 7695
_journal_name_full 'Inorg.Chem. '
loop_
_publ_author_name
"Ho Yu Au-Yeung"
"Chung Hei Lam"
"Chi-Keung Lam"
"Wai-Yeung Wong"
"Hung Kay Lee"
_chemical_name_systematic
;
(N,N,N',N'-Tetramethylethylenediamine-N,N')-(2,6-dimethylphenyl(trimethylsilyl
)amido-N)-methyl-cobalt(ii)
;
_chemical_melting_point 428.15
_cell_volume   1116.543
_exptl_crystal_colour 'green'
_exptl_crystal_density_diffrn 1.138
_exptl_special_details
;
Melts with decomposition.
high-spin
air- and moisture-sensitive
Isomorphous with the iron(ii) analogue
;
_exptl_crystal_description 'block'
_diffrn_ambient_temperature 273
#These two values have been output from a single CSD field.
_refine_ls_R_factor_gt 0.0331
_refine_ls_wR_factor_gt 0.0331
_symmetry_cell_setting triclinic
_symmetry_space_group_name_H-M 'P -1'
_symmetry_Int_Tables_number 2
loop_
_symmetry_equiv_pos_site_id
_symmetry_equiv_pos_as_xyz
1 x,y,z
2 -x,-y,-z
_cell_length_a 8.0103(5)
_cell_length_b 10.2402(6)
_cell_length_c 15.1224(9)
_cell_angle_alpha 76.129(1)
_cell_angle_beta 76.165(1)
_cell_angle_gamma 70.283(1)
_cell_formula_units_Z 2
loop_
_atom_type_symbol
_atom_type_radius_bond
C 0.68
H 0.23
Co 1.33
N 0.68
Si 1.20
loop_
_atom_site_label
_atom_site_type_symbol
_atom_site_fract_x
_atom_site_fract_y
_atom_site_fract_z
Co1 Co 0.64499(3) 0.83401(2) 0.281079(18)
Si1 Si 0.65006(8) 0.69263(6) 0.11095(4)
N1 N 0.7223(2) 0.67843(15) 0.21184(11)
N2 N 0.7666(3) 1.0020(2) 0.21980(15)
N3 N 0.8070(2) 0.79281(19) 0.38790(12)
C1 C 0.7973(3) 0.54153(19) 0.26092(13)
C2 C 0.6898(3) 0.4751(2) 0.33303(15)
C3 C 0.7681(4) 0.3434(3) 0.38352(18)
H1 H 0.69620 0.30130 0.43170
C4 C 0.9467(5) 0.2758(3) 0.3635(2)
H2 H 0.99660 0.18870 0.39820
C5 C 1.0526(4) 0.3361(3) 0.2925(2)
H3 H 1.17430 0.28810 0.27840
C6 C 0.9829(3) 0.4694(2) 0.23976(17)
C7 C 1.1022(4) 0.5348(4) 0.1638(2)
H4 H 1.22290 0.47220 0.15870
H5 H 1.10060 0.62230 0.17720
H6 H 1.06000 0.55200 0.10660
C8 C 0.4903(4) 0.5414(3) 0.35531(19)
H7 H 0.43950 0.48180 0.40620
H8 H 0.43720 0.55310 0.30220
H9 H 0.46630 0.63170 0.37180
C9 C 0.6356(4) 0.5189(3) 0.09870(18)
H10 H 0.56310 0.48300 0.15320
H11 H 0.75430 0.45350 0.09090
H12 H 0.58190 0.53140 0.04570
C10 C 0.4213(5) 0.8240(4) 0.1112(2)
H13 H 0.42650 0.91360 0.11740
H14 H 0.33800 0.79260 0.16210
H15 H 0.38200 0.83330 0.05420
C11 C 0.7936(5) 0.7517(4) 0.00147(18)
H16 H 0.80600 0.84090 0.00360
H17 H 0.73800 0.76120 -0.05030
H18 H 0.91030 0.68330 -0.00500
C12 C 0.8623(6) 0.9958(4) 0.1234(2)
H19 H 0.91250 1.07300 0.10100
H20 H 0.77920 1.00200 0.08510
H21 H 0.95720 0.90850 0.12160
C13 C 0.6316(6) 1.1396(3) 0.2249(4)
H22 H 0.68740 1.21280 0.19770
H23 H 0.58060 1.14680 0.28850
H24 H 0.53810 1.14950 0.19200
C14 C 0.9032(5) 0.9810(4) 0.2781(2)
H25 H 1.01530 0.91500 0.25470
H26 H 0.92570 1.07000 0.27320
C15 C 0.8446(4) 0.9272(3) 0.3761(2)
H27 H 0.93780 0.91450 0.41080
H28 H 0.73690 0.99590 0.40070
C16 C 0.9759(4) 0.6758(3) 0.3843(2)
H29 H 1.03370 0.66900 0.43470
H30 H 1.05430 0.69280 0.32670
H31 H 0.94970 0.58920 0.38910
C17 C 0.6983(5) 0.7676(4) 0.4798(2)
H32 H 0.77000 0.74960 0.52650
H33 H 0.65750 0.68760 0.48490
H34 H 0.59620 0.84900 0.48820
C18 C 0.3860(3) 0.9240(3) 0.3393(2)
H35 H 0.30830 0.94450 0.29510
H36 H 0.37770 1.00980 0.35770
H37 H 0.35000 0.86020 0.39250
#END
