
#######################################################################
#
#                 Cambridge Crystallographic Data Centre
#                                CCDC
#
#######################################################################
#
# If this CIF has been generated from an entry in the Cambridge
# Structural Database, then it will include bibliographic, chemical,
# crystal, experimental, refinement or atomic coordinate data resulting
# from the CCDC's data processing and validation procedures.
#
#######################################################################

data_CSD_CIF_HIPLIC
_audit_creation_date 2008-02-11
_audit_creation_method CSD-ConQuest-V1
_database_code_CSD HIPLIC
_database_code_depnum_ccdc_archive 'CCDC 635200'
_chemical_formula_sum 'C18 H37 Fe1 N3 Si1'
_chemical_formula_moiety
;
C18 H37 Fe1 N3 Si1
;
_journal_coden_Cambridge 9
_journal_volume 46
_journal_year 2007
_journal_page_first 7695
_journal_name_full 'Inorg.Chem. '
loop_
_publ_author_name
"Ho Yu Au-Yeung"
"Chung Hei Lam"
"Chi-Keung Lam"
"Wai-Yeung Wong"
"Hung Kay Lee"
_chemical_name_systematic
;
(N,N,N',N'-Tetramethylethylenediamine-N,N')-(2,6-dimethylphenyl(trimethylsilyl
)amido-N)-methyl-iron(ii)
;
_chemical_melting_point 378.15
_cell_volume   1113.682
_exptl_crystal_colour 'colorless'
_exptl_crystal_density_diffrn 1.131
_exptl_special_details
;
Melts with decomposition.
high-spin
Isomorphous with the cobalt(ii) analogue

;
_exptl_crystal_description 'block'
_diffrn_ambient_temperature 273
#These two values have been output from a single CSD field.
_refine_ls_R_factor_gt 0.0615
_refine_ls_wR_factor_gt 0.0615
_symmetry_cell_setting triclinic
_symmetry_space_group_name_H-M 'P -1'
_symmetry_Int_Tables_number 2
loop_
_symmetry_equiv_pos_site_id
_symmetry_equiv_pos_as_xyz
1 x,y,z
2 -x,-y,-z
_cell_length_a 8.036(14)
_cell_length_b 10.269(16)
_cell_length_c 14.97(2)
_cell_angle_alpha 75.74(3)
_cell_angle_beta 76.18(3)
_cell_angle_gamma 70.79(3)
_cell_formula_units_Z 2
loop_
_atom_type_symbol
_atom_type_radius_bond
C 0.68
H 0.23
Fe 1.34
N 0.68
Si 1.20
loop_
_atom_site_label
_atom_site_type_symbol
_atom_site_fract_x
_atom_site_fract_y
_atom_site_fract_z
Fe1 Fe 0.86030(8) -0.33081(6) 0.71869(5)
Si1 Si 0.85413(19) -0.19228(14) 0.89048(9)
N1 N 0.7818(4) -0.1775(4) 0.7898(2)
N2 N 0.6911(5) -0.2950(4) 0.6118(3)
N3 N 0.7268(6) -0.5016(4) 0.7811(3)
C1 C 0.7034(6) -0.0412(5) 0.7411(3)
C2 C 0.5215(7) 0.0278(5) 0.7625(4)
C3 C 0.4475(9) 0.1609(6) 0.7110(5)
H1 H 0.32650 0.20720 0.72570
C4 C 0.5547(12) 0.2212(6) 0.6397(5)
H2 H 0.50540 0.30850 0.60500
C5 C 0.7316(10) 0.1567(6) 0.6182(4)
H3 H 0.80190 0.20080 0.56940
C6 C 0.8098(7) 0.0262(5) 0.6673(3)
C7 C 1.0052(8) -0.0389(6) 0.6442(4)
H4 H 1.05590 0.02100 0.59260
H5 H 1.02710 -0.12830 0.62740
H6 H 1.05940 -0.05180 0.69760
C8 C 0.4037(7) -0.0418(7) 0.8409(5)
H7 H 0.47460 -0.13120 0.86870
H8 H 0.31140 -0.05490 0.81640
H9 H 0.35020 0.01650 0.88740
C9 C 1.0808(9) -0.3223(7) 0.8890(5)
H10 H 1.15940 -0.29600 0.83300
H11 H 1.07180 -0.41380 0.89050
H12 H 1.12780 -0.32400 0.94260
C10 C 0.7134(10) -0.2535(7) 1.0018(4)
H13 H 0.59460 -0.19010 1.00640
H14 H 0.76490 -0.25620 1.05400
H15 H 0.70840 -0.34570 1.00190
C11 C 0.8676(8) -0.0197(6) 0.9019(4)
H16 H 0.93830 0.01760 0.84640
H17 H 0.92210 -0.03180 0.95500
H18 H 0.74940 0.04410 0.91030
C12 C 0.5314(8) -0.1742(6) 0.6141(5)
H19 H 0.46820 -0.16810 0.56560
H20 H 0.56600 -0.09010 0.60440
H21 H 0.45510 -0.18520 0.67380
C13 C 0.8017(9) -0.2763(8) 0.5173(4)
H22 H 0.73020 -0.26100 0.47060
H23 H 0.90100 -0.35890 0.51140
H24 H 0.84550 -0.19680 0.50870
C14 C 0.6468(9) -0.4265(7) 0.6252(5)
H25 H 0.75010 -0.49580 0.59910
H26 H 0.55030 -0.41120 0.59190
C15 C 0.5927(9) -0.4801(7) 0.7244(5)
H27 H 0.48260 -0.41450 0.74850
H28 H 0.56810 -0.56850 0.73030
C16 C 0.8611(12) -0.6382(6) 0.7778(7)
H29 H 0.80460 -0.71150 0.80420
H30 H 0.95110 -0.64780 0.81300
H31 H 0.91550 -0.64490 0.71400
C17 C 0.6365(11) -0.4950(8) 0.8784(5)
H32 H 0.58190 -0.56980 0.90200
H33 H 0.54620 -0.40660 0.88060
H34 H 0.72240 -0.50440 0.91610
C18 C 1.1207(7) -0.4272(6) 0.6588(5)
H35 H 1.18300 -0.35760 0.63130
H36 H 1.11760 -0.47390 0.61120
H37 H 1.18170 -0.49450 0.70610
#END
