
#######################################################################
#
#                 Cambridge Crystallographic Data Centre
#                                CCDC
#
#######################################################################
#
# If this CIF has been generated from an entry in the Cambridge
# Structural Database, then it will include bibliographic, chemical,
# crystal, experimental, refinement or atomic coordinate data resulting
# from the CCDC's data processing and validation procedures.
#
#######################################################################

data_CSD_CIF_HIPXOW
_audit_creation_date 2018-11-21
_audit_creation_method CSD-ConQuest-V1
_database_code_CSD HIPXOW
_database_code_depnum_ccdc_archive 'CCDC 1847941'
_chemical_formula_sum 'C12 H24 Cl2 Fe1 N24 O8'
_chemical_formula_moiety
;
C12 H24 Fe1 N24 2+,2(Cl1 O4 1-)
;
_journal_coden_Cambridge 1220
_journal_volume 25
_journal_year 2019
_journal_page_first 1963
_journal_name_full 'Chem.-Eur.J. '
loop_
_publ_author_name
"N.Szimhardt"
"M.H.H.Wurzenberger"
"L.Zeisel"
"M.S.Gruhne"
"M.Lommel"
"T.M.Klapotke"
"J.Stierstorfer"
_chemical_name_systematic
;
hexakis(1H-1,2,3-triazol-1-amine)-iron(ii) diperchlorate
;
_cell_volume   2229.541
_exptl_crystal_colour 'colorless'
_exptl_crystal_density_diffrn 1.697
_exptl_crystal_description 'block'
_diffrn_ambient_temperature 123
#These two values have been output from a single CSD field.
_refine_ls_R_factor_gt 0.0294
_refine_ls_wR_factor_gt 0.0294
_symmetry_cell_setting rhombohedral
_symmetry_space_group_name_H-M 'R -3'
_symmetry_Int_Tables_number 148
loop_
_symmetry_equiv_pos_site_id
_symmetry_equiv_pos_as_xyz
1 x,y,z
2 -y,x-y,z
3 -x+y,-x,z
4 2/3+x,1/3+y,1/3+z
5 2/3-y,1/3+x-y,1/3+z
6 2/3-x+y,1/3-x,1/3+z
7 1/3+x,2/3+y,2/3+z
8 1/3-y,2/3+x-y,2/3+z
9 1/3-x+y,2/3-x,2/3+z
10 -x,-y,-z
11 y,-x+y,-z
12 x-y,x,-z
13 -2/3-x,-1/3-y,-1/3-z
14 -2/3+y,-1/3-x+y,-1/3-z
15 -2/3+x-y,-1/3+x,-1/3-z
16 -1/3-x,-2/3-y,-2/3-z
17 -1/3+y,-2/3-x+y,-2/3-z
18 -1/3+x-y,-2/3+x,-2/3-z
_cell_length_a 10.2549(3)
_cell_length_b 10.2549(3)
_cell_length_c 24.4806(14)
_cell_angle_alpha 90
_cell_angle_beta 90
_cell_angle_gamma 120
_cell_formula_units_Z 3
loop_
_atom_type_symbol
_atom_type_radius_bond
C 0.68
H 0.23
Cl 0.99
Fe 1.52
N 0.68
O 0.68
loop_
_atom_site_label
_atom_site_type_symbol
_atom_site_fract_x
_atom_site_fract_y
_atom_site_fract_z
Fe1 Fe 0.33330 0.66670 0.16670
N1 N 0.17412(19) 0.47203(19) 0.11741(7)
N2 N 0.13120(18) 0.48115(18) 0.06747(7)
N3 N 0.02816(18) 0.34103(18) 0.05359(7)
N4 N -0.0410(2) 0.3062(2) 0.00230(8)
C1 C 0.0968(3) 0.3265(2) 0.13406(10)
C2 C 0.0038(3) 0.2423(3) 0.09335(10)
H1 H 0.109(3) 0.298(3) 0.1673(10)
H2 H -0.106(3) 0.343(3) 0.0019(11)
H3 H -0.062(3) 0.148(3) 0.0910(11)
H4 H 0.027(3) 0.354(3) -0.0207(11)
Cl1 Cl 0.00000 0.00000 0.23785(3)
O1 O 0.0196(2) 0.14060(18) 0.25741(7)
O2 O 0.00000 0.00000 0.17955(11)
N1A N 0.52797(19) 0.70209(19) 0.11741(7)
N2A N 0.51885(18) 0.65005(18) 0.06747(7)
N3A N 0.65897(18) 0.68713(18) 0.05359(7)
N4A N 0.6938(2) 0.6528(2) 0.00230(8)
C1A C 0.6735(3) 0.7703(2) 0.13406(10)
C2A C 0.7577(3) 0.7615(3) 0.09335(10)
H1A H 0.702(3) 0.811(3) 0.1673(10)
H2A H 0.657(3) 0.551(3) 0.0019(11)
H3A H 0.852(3) 0.790(3) 0.0910(11)
H4A H 0.646(3) 0.673(3) -0.0207(11)
N1B N 0.29791(19) 0.82588(19) 0.11741(7)
N2B N 0.34995(18) 0.86880(18) 0.06747(7)
N3B N 0.31287(18) 0.97184(18) 0.05359(7)
N4B N 0.3472(2) 1.0410(2) 0.00230(8)
C1B C 0.2297(3) 0.9032(2) 0.13406(10)
C2B C 0.2385(3) 0.9962(3) 0.09335(10)
H1B H 0.189(3) 0.891(3) 0.1673(10)
H2B H 0.449(3) 1.106(3) 0.0019(11)
H3B H 0.210(3) 1.062(3) 0.0910(11)
H4B H 0.327(3) 0.973(3) -0.0207(11)
N1O N 0.492547(190) 0.861303(190) 0.215923(70)
N2O N 0.535467(180) 0.852183(180) 0.265863(70)
N3O N 0.638507(180) 0.992303(180) 0.279743(70)
N4O N 0.707667(200) 1.027133(200) 0.331033(80)
C1O C 0.569867(300) 1.006833(200) 0.199273(100)
C2O C 0.662867(300) 1.091033(300) 0.239983(100)
H1O H 0.557667(3000) 1.035333(3000) 0.166033(1000)
H2O H 0.772667(3000) 0.990333(3000) 0.331433(1100)
H3O H 0.728667(3000) 1.185333(3000) 0.242333(1100)
H4O H 0.639667(3000) 0.979333(3000) 0.354033(1100)
N1P N 0.138697(190) 0.631243(190) 0.215923(70)
N2P N 0.147817(180) 0.683283(180) 0.265863(70)
N3P N 0.007697(180) 0.646203(180) 0.279743(70)
N4P N -0.027133(200) 0.680533(200) 0.331033(80)
C1P C -0.006833(300) 0.563033(200) 0.199273(100)
C2P C -0.091033(300) 0.571833(300) 0.239983(100)
H1P H -0.035333(3000) 0.522333(3000) 0.166033(1000)
H2P H 0.009667(3000) 0.782333(3000) 0.331433(1100)
H3P H -0.185333(3000) 0.543333(3000) 0.242333(1100)
H4P H 0.020667(3000) 0.660333(3000) 0.354033(1100)
N1Q N 0.368757(190) 0.507453(190) 0.215923(70)
N2Q N 0.316717(180) 0.464533(180) 0.265863(70)
N3Q N 0.353797(180) 0.361493(180) 0.279743(70)
N4Q N 0.319467(200) 0.292333(200) 0.331033(80)
C1Q C 0.436967(300) 0.430133(200) 0.199273(100)
C2Q C 0.428167(300) 0.337133(300) 0.239983(100)
H1Q H 0.477667(3000) 0.442333(3000) 0.166033(1000)
H2Q H 0.217667(3000) 0.227333(3000) 0.331433(1100)
H3Q H 0.456667(3000) 0.271333(3000) 0.242333(1100)
H4Q H 0.339667(3000) 0.360333(3000) 0.354033(1100)
O1A O -0.1406(2) -0.12100(18) 0.25741(7)
O1B O 0.1210(2) -0.01960(18) 0.25741(7)
#END
