
#######################################################################
#
#                 Cambridge Crystallographic Data Centre
#                                CCDC
#
#######################################################################
#
# If this CIF has been generated from an entry in the Cambridge
# Structural Database, then it will include bibliographic, chemical,
# crystal, experimental, refinement or atomic coordinate data resulting
# from the CCDC's data processing and validation procedures.
#
#######################################################################

data_CSD_CIF_HIPZEO
_audit_creation_date 2018-11-21
_audit_creation_method CSD-ConQuest-V1
_database_code_CSD HIPZEO
_database_code_depnum_ccdc_archive 'CCDC 1847949'
_chemical_formula_sum 'C12 H24 Cl2 Mn1 N24 O8'
_chemical_formula_moiety
;
C12 H24 Mn1 N24 2+,2(Cl1 O4 1-)
;
_journal_coden_Cambridge 1220
_journal_volume 25
_journal_year 2019
_journal_page_first 1963
_journal_name_full 'Chem.-Eur.J. '
loop_
_publ_author_name
"N.Szimhardt"
"M.H.H.Wurzenberger"
"L.Zeisel"
"M.S.Gruhne"
"M.Lommel"
"T.M.Klapotke"
"J.Stierstorfer"
_chemical_name_systematic
;
hexakis(1H-1,2,3-triazol-1-amine)-manganese(ii) diperchlorate
;
_cell_volume   2257.900
_exptl_crystal_colour 'colorless'
_exptl_crystal_density_diffrn 1.673
_exptl_crystal_description 'rod'
_diffrn_ambient_temperature 143
#These two values have been output from a single CSD field.
_refine_ls_R_factor_gt 0.0255
_refine_ls_wR_factor_gt 0.0255
_symmetry_cell_setting rhombohedral
_symmetry_space_group_name_H-M 'R -3'
_symmetry_Int_Tables_number 148
loop_
_symmetry_equiv_pos_site_id
_symmetry_equiv_pos_as_xyz
1 x,y,z
2 -y,x-y,z
3 -x+y,-x,z
4 2/3+x,1/3+y,1/3+z
5 2/3-y,1/3+x-y,1/3+z
6 2/3-x+y,1/3-x,1/3+z
7 1/3+x,2/3+y,2/3+z
8 1/3-y,2/3+x-y,2/3+z
9 1/3-x+y,2/3-x,2/3+z
10 -x,-y,-z
11 y,-x+y,-z
12 x-y,x,-z
13 -2/3-x,-1/3-y,-1/3-z
14 -2/3+y,-1/3-x+y,-1/3-z
15 -2/3+x-y,-1/3+x,-1/3-z
16 -1/3-x,-2/3-y,-2/3-z
17 -1/3+y,-2/3-x+y,-2/3-z
18 -1/3+x-y,-2/3+x,-2/3-z
_cell_length_a 10.3011(3)
_cell_length_b 10.3011(3)
_cell_length_c 24.5701(11)
_cell_angle_alpha 90
_cell_angle_beta 90
_cell_angle_gamma 120
_cell_formula_units_Z 3
loop_
_atom_type_symbol
_atom_type_radius_bond
C 0.68
H 0.23
Cl 0.99
Mn 1.61
N 0.68
O 0.68
loop_
_atom_site_label
_atom_site_type_symbol
_atom_site_fract_x
_atom_site_fract_y
_atom_site_fract_z
Mn1 Mn 0.33330 0.66670 0.16670
N1 N 0.02432(14) 0.33819(14) 0.05245(5)
N2 N 0.12669(14) 0.47708(14) 0.06659(5)
N3 N 0.16928(14) 0.46704(14) 0.11646(5)
N4 N -0.04429(18) 0.30481(17) 0.00111(6)
C1 C -0.00095(19) 0.23859(18) 0.09182(7)
H1 H -0.06840 0.13350 0.09120
C2 C 0.09194(19) 0.32194(18) 0.13301(7)
H2 H 0.10100 0.28490 0.16740
H3 H -0.111(2) 0.336(2) 0.0003(9)
H4 H 0.026(3) 0.353(3) -0.0219(9)
Cl1 Cl 0.00000 0.00000 0.23803(3)
O1 O 0.02081(15) 0.14073(14) 0.25759(5)
O2 O 0.00000 0.00000 0.17967(8)
N1A N 0.66181(14) 0.68613(14) 0.05245(5)
N2A N 0.52292(14) 0.64961(14) 0.06659(5)
N3A N 0.53296(14) 0.70224(14) 0.11646(5)
N4A N 0.69519(18) 0.65090(17) 0.00111(6)
C1A C 0.76141(19) 0.76046(18) 0.09182(7)
H1A H 0.86650 0.79810 0.09120
C2A C 0.67806(19) 0.77000(18) 0.13301(7)
H2A H 0.71510 0.81610 0.16740
H3A H 0.664(2) 0.553(2) 0.0003(9)
H4A H 0.647(3) 0.673(3) -0.0219(9)
N1B N 0.31387(14) 0.97568(14) 0.05245(5)
N2B N 0.35039(14) 0.87331(14) 0.06659(5)
N3B N 0.29776(14) 0.83072(14) 0.11646(5)
N4B N 0.34910(18) 1.04429(17) 0.00111(6)
C1B C 0.23954(19) 1.00095(18) 0.09182(7)
H1B H 0.20190 1.06840 0.09120
C2B C 0.23000(19) 0.90806(18) 0.13301(7)
H2B H 0.18390 0.89900 0.16740
H3B H 0.447(2) 1.111(2) 0.0003(9)
H4B H 0.327(3) 0.974(3) -0.0219(9)
N1O N 0.642347(140) 0.995143(140) 0.280883(50)
N2O N 0.539977(140) 0.856253(140) 0.266743(50)
N3O N 0.497387(140) 0.866293(140) 0.216873(50)
N4O N 0.710957(180) 1.028523(170) 0.332223(60)
C1O C 0.667617(190) 1.094743(180) 0.241513(70)
H1O H 0.73507 1.19983 0.24213
C2O C 0.574727(190) 1.011393(180) 0.200323(70)
H2O H 0.56567 1.04843 0.16593
H3O H 0.777667(2000) 0.997333(2000) 0.333033(900)
H4O H 0.640667(3000) 0.980333(3000) 0.355233(900)
N1P N 0.004857(140) 0.647203(140) 0.280883(50)
N2P N 0.143747(140) 0.683723(140) 0.266743(50)
N3P N 0.133707(140) 0.631093(140) 0.216873(50)
N4P N -0.028523(180) 0.682433(170) 0.332223(60)
C1P C -0.094743(190) 0.572873(180) 0.241513(70)
H1P H -0.19983 0.53523 0.24213
C2P C -0.011393(190) 0.563333(180) 0.200323(70)
H2P H -0.04843 0.51723 0.16593
H3P H 0.002667(2000) 0.780333(2000) 0.333033(900)
H4P H 0.019667(3000) 0.660333(3000) 0.355233(900)
N1Q N 0.352797(140) 0.357653(140) 0.280883(50)
N2Q N 0.316277(140) 0.460023(140) 0.266743(50)
N3Q N 0.368907(140) 0.502613(140) 0.216873(50)
N4Q N 0.317567(180) 0.289043(170) 0.332223(60)
C1Q C 0.427127(190) 0.332383(180) 0.241513(70)
H1Q H 0.46477 0.26493 0.24213
C2Q C 0.436667(190) 0.425273(180) 0.200323(70)
H2Q H 0.48277 0.43433 0.16593
H3Q H 0.219667(2000) 0.222333(2000) 0.333033(900)
H4Q H 0.339667(3000) 0.359333(3000) 0.355233(900)
O1A O -0.14073(15) -0.11992(14) 0.25759(5)
O1B O 0.11992(15) -0.02081(14) 0.25759(5)
#END
