
#######################################################################
#
#                 Cambridge Crystallographic Data Centre
#                                CCDC
#
#######################################################################
#
# If this CIF has been generated from an entry in the Cambridge
# Structural Database, then it will include bibliographic, chemical,
# crystal, experimental, refinement or atomic coordinate data resulting
# from the CCDC's data processing and validation procedures.
#
#######################################################################

data_CSD_CIF_HISCER
_audit_creation_date 1999-06-22
_audit_creation_method CSD-ConQuest-V1
_database_code_CSD HISCER
_chemical_formula_sum 'C17 H21 Fe1 N2 O2'
_chemical_formula_moiety
;
C17 H21 Fe1 N2 O2
;
_journal_coden_Cambridge 9
_journal_volume 37
_journal_year 1998
_journal_page_first 4547
_journal_name_full 'Inorg.Chem. '
loop_
_publ_author_name
"O.Jurgens"
"J.Vidal-Gancedo"
"C.Rovira"
"K.Wurst"
"C.Sporer"
"B.Bildstein"
"H.Schottenberger"
"P.Jaitner"
"J.Veciana"
_chemical_name_systematic
;
4,4,5,5-Tetramethyl-4,5-dihydro-3-oxide-2-ferrocenylimidazoline-1-oxyl
;
_cell_volume    758.890
_exptl_crystal_colour 'dark brown'
_exptl_crystal_density_diffrn 1.493
_exptl_crystal_description 'platelet'
_diffrn_ambient_temperature 188
#These two values have been output from a single CSD field.
_refine_ls_R_factor_gt 0.0314
_refine_ls_wR_factor_gt 0.0314
_symmetry_cell_setting triclinic
_symmetry_space_group_name_H-M 'P -1'
_symmetry_Int_Tables_number 2
loop_
_symmetry_equiv_pos_site_id
_symmetry_equiv_pos_as_xyz
1 x,y,z
2 -x,-y,-z
_cell_length_a 7.170(1)
_cell_length_b 10.135(2)
_cell_length_c 10.683(2)
_cell_angle_alpha 88.88(2)
_cell_angle_beta 83.42(3)
_cell_angle_gamma 79.75(3)
_cell_formula_units_Z 2
loop_
_atom_type_symbol
_atom_type_radius_bond
C 0.68
H 0.23
Fe 1.34
N 0.68
O 0.68
loop_
_atom_site_label
_atom_site_type_symbol
_atom_site_fract_x
_atom_site_fract_y
_atom_site_fract_z
Fe1 Fe 0.1060(1) 0.5398(1) 0.2450(1)
O1 O -0.2610(4) 0.8350(2) 0.0455(2)
O2 O -0.1670(4) 0.8432(2) 0.4674(2)
N1 N -0.2502(4) 0.8766(3) 0.1567(2)
N2 N -0.2026(4) 0.8806(3) 0.3558(2)
C1 C -0.2040(4) 0.7983(3) 0.2576(3)
C2 C -0.2133(5) 1.0238(3) 0.3129(3)
C3 C -0.3163(4) 1.0209(3) 0.1942(3)
C4 C -0.1616(16) 0.6552(14) 0.2603(8)
C5 C -0.1347(14) 0.5660(9) 0.1535(7)
C6 C -0.0886(14) 0.4313(10) 0.1944(9)
C7 C -0.0898(12) 0.4340(8) 0.3288(8)
C8 C -0.1345(11) 0.5687(9) 0.3713(6)
C9 C 0.3068(17) 0.6630(15) 0.2236(10)
C10 C 0.3252(13) 0.5743(11) 0.1178(8)
C11 C 0.3607(13) 0.4388(11) 0.1611(9)
C12 C 0.3617(13) 0.4438(11) 0.2955(9)
C13 C 0.3264(14) 0.5766(12) 0.3321(9)
C14 C -0.0054(6) 1.0443(4) 0.2845(4)
C15 C -0.3170(5) 1.1201(3) 0.4163(3)
C16 C -0.2614(5) 1.1144(3) 0.0884(3)
C17 C -0.5338(6) 1.0408(4) 0.2212(5)
H1 H -0.14610 0.59330 0.06870
H2 H -0.06190 0.35370 0.14240
H3 H -0.06450 0.35740 0.38110
H4 H -0.14510 0.59790 0.45610
H5 H 0.28620 0.75820 0.22230
H6 H 0.31520 0.60130 0.03280
H7 H 0.38000 0.36030 0.11070
H8 H 0.38300 0.36860 0.34980
H9 H 0.31650 0.60690 0.41660
H10 H 0.06030 0.98220 0.21790
H11 H 0.05890 1.02700 0.36090
H12 H -0.00300 1.13680 0.25680
H13 H -0.44930 1.10640 0.43400
H14 H -0.31520 1.21260 0.38860
H15 H -0.25310 1.10310 0.49290
H16 H -0.12210 1.10150 0.07130
H17 H -0.31130 1.20760 0.11370
H18 H -0.31540 1.09430 0.01230
H19 H -0.56880 0.98070 0.28940
H20 H -0.58780 1.02050 0.14510
H21 H -0.58390 1.13400 0.24630
#END
