
#######################################################################
#
#                 Cambridge Crystallographic Data Centre
#                                CCDC
#
#######################################################################
#
# If this CIF has been generated from an entry in the Cambridge
# Structural Database, then it will include bibliographic, chemical,
# crystal, experimental, refinement or atomic coordinate data resulting
# from the CCDC's data processing and validation procedures.
#
#######################################################################

data_CSD_CIF_HIVDAU
_audit_creation_date 2019-03-21
_audit_creation_method CSD-ConQuest-V1
_database_code_CSD HIVDAU
_database_code_depnum_ccdc_archive 'CCDC 1861643'
_chemical_formula_sum 'C11 H9 Mn1 N4 O5'
_chemical_formula_moiety
;
C9 H5 Mn1 O5,C2 H4 N4
;
_journal_coden_Cambridge 119
_journal_volume 1187
_journal_year 2019
_journal_page_first 38
_journal_name_full 'J.Mol.Struct. '
loop_
_publ_author_name
"A.B.Ilyukhin"
"P.S.Koroteev"
"V.M.Novotortsev"
_chemical_name_systematic
;
4H-1,2,4-triazol-4-amine 
tricarbonyl-(\h^5^-1-carboxycyclopentadienyl)-manganese
;
_cell_volume    648.992
_exptl_crystal_colour 'yellow'
_exptl_crystal_density_diffrn 1.7
_exptl_crystal_description 'block'
_diffrn_ambient_temperature 183
#These two values have been output from a single CSD field.
_refine_ls_R_factor_gt 0.0282
_refine_ls_wR_factor_gt 0.0282
_symmetry_cell_setting triclinic
_symmetry_space_group_name_H-M 'P -1'
_symmetry_Int_Tables_number 2
loop_
_symmetry_equiv_pos_site_id
_symmetry_equiv_pos_as_xyz
1 x,y,z
2 -x,-y,-z
_cell_length_a 6.3549(3)
_cell_length_b 9.8232(5)
_cell_length_c 10.4378(5)
_cell_angle_alpha 91.151(2)
_cell_angle_beta 94.712(2)
_cell_angle_gamma 91.518(2)
_cell_formula_units_Z 2
loop_
_atom_type_symbol
_atom_type_radius_bond
C 0.68
H 0.23
Mn 1.61
N 0.68
O 0.68
loop_
_atom_site_label
_atom_site_type_symbol
_atom_site_fract_x
_atom_site_fract_y
_atom_site_fract_z
Mn1 Mn 0.33709(3) 0.56796(2) 0.26579(2)
O1 O 0.40015(18) 0.80095(13) -0.01602(11)
O2 O 0.69569(16) 0.84870(11) 0.11054(11)
O3 O 0.1587(2) 0.36086(12) 0.42839(12)
O4 O 0.7438(2) 0.43064(15) 0.27378(14)
O5 O 0.2072(2) 0.42454(14) 0.02073(13)
C1 C 0.5113(2) 0.81009(14) 0.09599(14)
C2 C 0.3894(2) 0.77110(14) 0.20476(14)
C3 C 0.4751(3) 0.75967(15) 0.33452(14)
C4 C 0.3101(3) 0.72393(16) 0.40959(16)
C5 C 0.1193(3) 0.71368(16) 0.32791(16)
C6 C 0.1672(2) 0.74244(15) 0.20150(15)
C7 C 0.2301(2) 0.43913(15) 0.36209(15)
C8 C 0.5871(3) 0.48610(16) 0.27037(16)
C9 C 0.2556(3) 0.47919(16) 0.11643(16)
H1 H 0.479(4) 0.825(3) -0.071(3)
H2 H 0.623(3) 0.7742(19) 0.3604(17)
H3 H 0.321(3) 0.713(2) 0.4935(19)
H4 H -0.009(3) 0.691(2) 0.355(2)
H5 H 0.077(3) 0.7400(18) 0.1329(18)
N1 N 0.07535(19) 0.07016(12) 0.29218(12)
N2 N 0.3500(2) 0.13472(14) 0.19599(13)
N3 N 0.4171(2) 0.10489(14) 0.32171(13)
N4 N -0.1305(2) 0.03285(17) 0.32134(14)
C10 C 0.1456(3) 0.11338(17) 0.18066(15)
C11 C 0.2487(2) 0.06593(15) 0.37597(14)
H6 H -0.206(3) 0.105(2) 0.3168(19)
H7 H -0.179(3) -0.025(2) 0.263(2)
H8 H 0.065(3) 0.125(2) 0.106(2)
H9 H 0.242(3) 0.0389(18) 0.4630(18)
#END
