
#######################################################################
#
#                 Cambridge Crystallographic Data Centre
#                                CCDC
#
#######################################################################
#
# If this CIF has been generated from an entry in the Cambridge
# Structural Database, then it will include bibliographic, chemical,
# crystal, experimental, refinement or atomic coordinate data resulting
# from the CCDC's data processing and validation procedures.
#
#######################################################################

data_CSD_CIF_HIVFEA01
_audit_creation_date 2019-03-21
_audit_creation_method CSD-ConQuest-V1
_database_code_CSD HIVFEA01
_database_code_depnum_ccdc_archive 'CCDC 1861650'
_chemical_formula_sum 'C14 H12 Mn1 N3 O5'
_chemical_formula_moiety
;
C9 H4 Mn1 O5 1-,C5 H8 N3 1+
;
_journal_coden_Cambridge 119
_journal_volume 1187
_journal_year 2019
_journal_page_first 38
_journal_name_full 'J.Mol.Struct. '
loop_
_publ_author_name
"A.B.Ilyukhin"
"P.S.Koroteev"
"V.M.Novotortsev"
_chemical_name_systematic
;
2,6-diaminopyridin-1-ium 
tricarbonyl-(\h^5^-1-carboxylatecyclopentadienyl)-manganese
;
_cell_volume    766.426
_exptl_crystal_colour 'colorless'
_exptl_crystal_density_diffrn 1.548
_exptl_crystal_description 'block'
_diffrn_ambient_temperature 295
#These two values have been output from a single CSD field.
_refine_ls_R_factor_gt 0.0321
_refine_ls_wR_factor_gt 0.0321
_symmetry_cell_setting triclinic
_symmetry_space_group_name_H-M 'P -1'
_symmetry_Int_Tables_number 2
loop_
_symmetry_equiv_pos_site_id
_symmetry_equiv_pos_as_xyz
1 x,y,z
2 -x,-y,-z
_cell_length_a 7.4757(2)
_cell_length_b 8.7265(3)
_cell_length_c 12.4016(4)
_cell_angle_alpha 78.164(1)
_cell_angle_beta 83.491(1)
_cell_angle_gamma 75.950(1)
_cell_formula_units_Z 2
loop_
_atom_type_symbol
_atom_type_radius_bond
C 0.68
H 0.23
Mn 1.61
N 0.68
O 0.68
loop_
_atom_site_label
_atom_site_type_symbol
_atom_site_fract_x
_atom_site_fract_y
_atom_site_fract_z
Mn1 Mn 0.41249(3) 0.34036(2) 0.35982(2)
O1 O 0.44926(14) 0.23960(12) 0.06653(9)
O2 O 0.68017(13) 0.35792(13) 0.07211(8)
O3 O 0.3930(3) 0.00645(18) 0.37068(16)
O4 O 0.8052(2) 0.2517(2) 0.40469(18)
O5 O 0.2852(2) 0.3380(2) 0.59297(11)
C1 C 0.52215(16) 0.33337(14) 0.10210(9)
C2 C 0.41118(17) 0.42492(14) 0.18557(9)
C3 C 0.4684(2) 0.53586(16) 0.23622(11)
H1 H 0.58210 0.56420 0.22280
C4 C 0.3228(3) 0.59545(18) 0.31033(12)
H2 H 0.32420 0.66950 0.35430
C5 C 0.1745(2) 0.5229(2) 0.30603(12)
H3 H 0.06140 0.54110 0.34670
C6 C 0.22773(18) 0.41839(18) 0.22966(11)
H4 H 0.15570 0.35580 0.21110
C7 C 0.4014(2) 0.1358(2) 0.36755(14)
C8 C 0.6514(2) 0.2847(2) 0.38876(14)
C9 C 0.3371(2) 0.3370(2) 0.50207(12)
N1 N 0.88253(13) 0.18892(11) -0.07152(8)
N2 N 1.08057(17) 0.32729(15) -0.02733(12)
N3 N 0.65772(15) 0.06821(15) -0.10289(10)
C10 C 0.83275(15) 0.08552(13) -0.12439(9)
C11 C 0.96254(19) 0.00731(17) -0.19654(11)
H5 H 0.93260 -0.06400 -0.23410
C12 C 1.13697(19) 0.03871(18) -0.21061(12)
H6 H 1.22470 -0.01280 -0.25860
C13 C 1.18574(17) 0.14369(17) -0.15597(12)
H7 H 1.30420 0.16260 -0.16660
C14 C 1.05394(15) 0.22001(13) -0.08505(10)
H8 H 0.797(3) 0.246(2) -0.0236(17)
H9 H 1.184(3) 0.330(2) -0.0137(16)
H10 H 1.003(3) 0.354(3) 0.0164(18)
H11 H 0.588(3) 0.122(2) -0.0520(16)
H12 H 0.636(3) -0.009(3) -0.1187(19)
#END
