
#######################################################################
#
#                 Cambridge Crystallographic Data Centre
#                                CCDC
#
#######################################################################
#
# If this CIF has been generated from an entry in the Cambridge
# Structural Database, then it will include bibliographic, chemical,
# crystal, experimental, refinement or atomic coordinate data resulting
# from the CCDC's data processing and validation procedures.
#
#######################################################################

data_CSD_CIF_HIVFEA
_audit_creation_date 2019-03-21
_audit_creation_method CSD-ConQuest-V1
_database_code_CSD HIVFEA
_database_code_depnum_ccdc_archive 'CCDC 1861649'
_chemical_formula_sum 'C14 H12 Mn1 N3 O5'
_chemical_formula_moiety
;
C9 H4 Mn1 O5 1-,C5 H8 N3 1+
;
_journal_coden_Cambridge 119
_journal_volume 1187
_journal_year 2019
_journal_page_first 38
_journal_name_full 'J.Mol.Struct. '
loop_
_publ_author_name
"A.B.Ilyukhin"
"P.S.Koroteev"
"V.M.Novotortsev"
_chemical_name_systematic
;
2,6-diaminopyridin-1-ium 
tricarbonyl-(\h^5^-1-carboxylatecyclopentadienyl)-manganese
;
_cell_volume    749.794
_exptl_crystal_colour 'colorless'
_exptl_crystal_density_diffrn 1.582
_exptl_crystal_description 'block'
_diffrn_ambient_temperature 150
#These two values have been output from a single CSD field.
_refine_ls_R_factor_gt 0.026
_refine_ls_wR_factor_gt 0.026
_symmetry_cell_setting triclinic
_symmetry_space_group_name_H-M 'P -1'
_symmetry_Int_Tables_number 2
loop_
_symmetry_equiv_pos_site_id
_symmetry_equiv_pos_as_xyz
1 x,y,z
2 -x,-y,-z
_cell_length_a 7.4663(3)
_cell_length_b 8.6739(3)
_cell_length_c 12.2470(4)
_cell_angle_alpha 78.232(1)
_cell_angle_beta 83.838(1)
_cell_angle_gamma 75.311(1)
_cell_formula_units_Z 2
loop_
_atom_type_symbol
_atom_type_radius_bond
C 0.68
H 0.23
Mn 1.61
N 0.68
O 0.68
loop_
_atom_site_label
_atom_site_type_symbol
_atom_site_fract_x
_atom_site_fract_y
_atom_site_fract_z
Mn1 Mn 0.41304(2) 0.34275(2) 0.36185(2)
O1 O 0.44657(10) 0.24087(8) 0.06504(6)
O2 O 0.67818(9) 0.35937(9) 0.07124(6)
O3 O 0.39318(16) 0.00530(11) 0.37343(10)
O4 O 0.81003(13) 0.25283(14) 0.4051(1)
O5 O 0.28914(14) 0.33904(13) 0.59856(7)
C1 C 0.51924(12) 0.33579(10) 0.10111(7)
C2 C 0.40779(12) 0.42865(10) 0.18557(7)
C3 C 0.46532(14) 0.54053(11) 0.23678(8)
C4 C 0.32047(16) 0.60125(12) 0.31262(8)
C5 C 0.17123(15) 0.52791(13) 0.30852(8)
C6 C 0.22430(13) 0.42193(12) 0.23084(8)
C7 C 0.40199(15) 0.13614(13) 0.37011(9)
C8 C 0.65526(15) 0.28579(13) 0.38989(9)
C9 C 0.33999(14) 0.33863(12) 0.50663(8)
H1 H 0.580(2) 0.566(2) 0.2222(14)
H2 H 0.325(2) 0.675(2) 0.3566(14)
H3 H 0.060(3) 0.545(2) 0.3485(15)
H4 H 0.146(2) 0.3593(19) 0.2121(13)
N1 N 0.88189(10) 0.18692(9) -0.07274(6)
N2 N 1.07891(12) 0.32736(10) -0.02796(8)
N3 N 0.65681(11) 0.06605(10) -0.10501(7)
C10 C 0.83257(12) 0.08221(10) -0.12594(7)
C11 C 0.96372(13) 0.00176(11) -0.19808(8)
C12 C 1.13949(13) 0.03169(12) -0.21174(8)
C13 C 1.18733(12) 0.13891(12) -0.15648(8)
C14 C 1.05325(11) 0.21755(10) -0.08564(7)
H5 H 0.794(3) 0.240(2) -0.0241(16)
H6 H 1.181(3) 0.327(2) -0.0140(15)
H7 H 1.000(3) 0.359(2) 0.0148(16)
H8 H 0.591(2) 0.113(2) -0.0534(14)
H9 H 0.635(2) -0.015(2) -0.1171(15)
H10 H 0.924(2) -0.065(2) -0.2398(14)
H11 H 1.227(2) -0.028(2) -0.2606(14)
H12 H 1.304(2) 0.162(2) -0.1663(13)
#END
