
#######################################################################
#
#                 Cambridge Crystallographic Data Centre
#                                CCDC
#
#######################################################################
#
# If this CIF has been generated from an entry in the Cambridge
# Structural Database, then it will include bibliographic, chemical,
# crystal, experimental, refinement or atomic coordinate data resulting
# from the CCDC's data processing and validation procedures.
#
#######################################################################

data_CSD_CIF_HIWXIX
_audit_creation_date 2019-03-21
_audit_creation_method CSD-ConQuest-V1
_database_code_CSD HIWXIX
_database_code_depnum_ccdc_archive 'CCDC 1861226'
_chemical_formula_sum 'C10 H8 B1 Br3 F2 Fe1 N7'
_chemical_formula_moiety
;
C10 H8 B1 Br3 F2 Fe1 N7
;
_journal_coden_Cambridge 580
_journal_volume 162
_journal_year 2019
_journal_page_first 8
_journal_name_full 'Polyhedron '
loop_
_publ_author_name
"J.M.Savard"
"R.Castaneda"
"B.Gabidullin"
"J.L.Brusso"
_chemical_name_systematic
;
tribromo-[2,2-difluoro-4,6-bis(pyrimidin-2-yl)-1,2-dihydro-1\l^5^,3,5,2\l^5^-t
riazaborinine]-iron
;
_cell_volume    829.714
_exptl_crystal_colour 'black'
_exptl_crystal_density_diffrn 2.284
_exptl_crystal_description 'block'
_diffrn_ambient_temperature 200
#These two values have been output from a single CSD field.
_refine_ls_R_factor_gt 0.0263
_refine_ls_wR_factor_gt 0.0263
_symmetry_cell_setting triclinic
_symmetry_space_group_name_H-M 'P -1'
_symmetry_Int_Tables_number 2
loop_
_symmetry_equiv_pos_site_id
_symmetry_equiv_pos_as_xyz
1 x,y,z
2 -x,-y,-z
_cell_length_a 9.0128(7)
_cell_length_b 9.7560(7)
_cell_length_c 10.3776(8)
_cell_angle_alpha 68.160(2)
_cell_angle_beta 80.758(2)
_cell_angle_gamma 80.101(2)
_cell_formula_units_Z 2
loop_
_atom_type_symbol
_atom_type_radius_bond
C 0.68
H 0.23
B 0.83
Br 1.21
F 0.64
Fe 1.52
N 0.68
loop_
_atom_site_label
_atom_site_type_symbol
_atom_site_fract_x
_atom_site_fract_y
_atom_site_fract_z
C1 C 0.5507(3) 0.0209(3) 0.1778(3)
H1 H 0.50094 -0.06377 0.19613
C2 C 0.7041(3) 0.0154(3) 0.1350(3)
H2 H 0.76051 -0.07192 0.12386
C3 C 0.7729(3) 0.1394(3) 0.1090(3)
H3 H 0.87794 0.13809 0.07734
C4 C 0.5500(2) 0.2573(2) 0.1682(2)
C5 C 0.4607(2) 0.3896(2) 0.1935(2)
C6 C 0.2215(2) 0.4868(2) 0.2606(2)
C7 C 0.0622(2) 0.4558(3) 0.3054(2)
C8 C -0.1765(3) 0.5244(3) 0.3822(3)
H4 H -0.25211 0.59647 0.40249
C9 C -0.2152(3) 0.3874(3) 0.4020(3)
H5 H -0.31482 0.36325 0.43870
C10 C -0.1051(3) 0.2848(3) 0.3671(2)
H6 H -0.12918 0.18950 0.37893
B1 B 0.4340(3) 0.6388(3) 0.2192(3)
Br1 Br 0.13006(3) -0.04083(3) 0.27247(3)
Br2 Br 0.28267(3) 0.08076(3) 0.50424(3)
Br3 Br 0.16871(3) 0.31145(3) 0.00836(3)
F1 F 0.45082(16) 0.77112(15) 0.11267(15)
F2 F 0.48476(15) 0.63661(16) 0.33870(15)
Fe1 Fe 0.22936(3) 0.17690(3) 0.25924(3)
N1 N 0.4710(2) 0.1438(2) 0.1939(2)
N2 N 0.3147(2) 0.3739(2) 0.2369(2)
N3 N 0.0357(2) 0.3206(2) 0.31647(19)
N4 N 0.5202(2) 0.5073(2) 0.1771(2)
N5 N 0.2655(2) 0.6097(2) 0.2503(2)
N6 N 0.6957(2) 0.2627(2) 0.1270(2)
N7 N -0.0357(2) 0.5598(2) 0.3353(2)
H7 H 0.6122(19) 0.508(3) 0.148(3)
H8 H 0.197(3) 0.677(2) 0.262(3)
#END
