
#######################################################################
#
#                 Cambridge Crystallographic Data Centre
#                                CCDC
#
#######################################################################
#
# If this CIF has been generated from an entry in the Cambridge
# Structural Database, then it will include bibliographic, chemical,
# crystal, experimental, refinement or atomic coordinate data resulting
# from the CCDC's data processing and validation procedures.
#
#######################################################################

data_CSD_CIF_HIYXOC
_audit_creation_date 1999-10-05
_audit_creation_method CSD-ConQuest-V1
_database_code_CSD HIYXOC
_chemical_formula_sum 'C39 H66 Br1 Mn1 O3 P2'
_chemical_formula_moiety
;
C39 H66 Br1 Mn1 O3 P2
;
_journal_coden_Cambridge 579
_journal_volume 17
_journal_year 1998
_journal_page_first 5315
_journal_name_full 'Organometallics '
loop_
_publ_author_name
"A.Toupadakis"
"G.J.Kubas"
"W.A.King"
"B.L.Scott"
"J.Huhmann-Vincent"
_chemical_name_systematic
;
Bromo-tricarbonyl-bis(tricyclohexylphosphine)-manganese
;
_cell_volume    955.314
_exptl_crystal_colour 'yellow'
_exptl_crystal_density_diffrn 1.355
_exptl_crystal_description 'parallelepiped'
_exptl_crystal_preparation 'dichloromethane/ethanol'
_diffrn_ambient_temperature ?
_diffrn_special_details
;
The study was carried out at room temperature,in the range 283-303K

;
_refine_special_details
;
The bromine atom and carbonyl group, C20,O2, are disordered about a centre of 
inversion with equal occupancies.
;
#These two values have been output from a single CSD field.
_refine_ls_R_factor_gt 0.0466
_refine_ls_wR_factor_gt 0.0466
_symmetry_cell_setting triclinic
_symmetry_space_group_name_H-M 'P -1'
_symmetry_Int_Tables_number 2
loop_
_symmetry_equiv_pos_site_id
_symmetry_equiv_pos_as_xyz
1 x,y,z
2 -x,-y,-z
_cell_length_a 9.852(2)
_cell_length_b 10.492(2)
_cell_length_c 11.011(2)
_cell_angle_alpha 115.80(3)
_cell_angle_beta 108.01(3)
_cell_angle_gamma 91.98(3)
_cell_formula_units_Z 1
loop_
_atom_type_symbol
_atom_type_radius_bond
C 0.68
H 0.23
Br 1.21
Mn 1.35
O 0.68
P 1.05
loop_
_atom_site_label
_atom_site_type_symbol
_atom_site_fract_x
_atom_site_fract_y
_atom_site_fract_z
Mn1 Mn 0.00000 0.00000 0.00000
Br1 Br -0.1686(2) -0.0585(2) 0.1074(2)
O1 O 0.0126(3) 0.3171(3) 0.1545(3)
O2 O -0.2013(19) -0.0625(20) 0.1244(18)
P1 P -0.2032(1) -0.0302(1) -0.2050(1)
C1 C -0.1676(4) -0.1035(4) -0.3779(4)
C2 C -0.1071(5) -0.2407(4) -0.4193(4)
C3 C -0.0619(5) -0.2777(5) -0.5492(4)
C4 C -0.1824(5) -0.2845(4) -0.6778(4)
C5 C -0.2410(5) -0.1487(5) -0.6358(4)
C6 C -0.2927(5) -0.1169(5) -0.5106(4)
C7 C -0.3750(4) -0.1389(4) -0.2342(4)
C8 C -0.3710(4) -0.2971(4) -0.2721(5)
C9 C -0.5022(5) -0.3672(5) -0.2621(6)
C10 C -0.6449(5) -0.3561(5) -0.3563(6)
C11 C -0.6478(4) -0.2009(5) -0.3211(5)
C12 C -0.5183(4) -0.1329(5) -0.3354(5)
C13 C -0.2643(4) 0.1388(4) -0.1974(4)
C14 C -0.3230(4) 0.2167(4) -0.0751(4)
C15 C -0.3679(5) 0.3561(4) -0.0708(5)
C16 C -0.2469(5) 0.4541(4) -0.0656(5)
C17 C -0.2025(5) 0.3748(4) -0.1963(5)
C18 C -0.1494(4) 0.2403(4) -0.1987(4)
C19 C 0.0063(4) 0.1955(4) 0.0958(4)
C20 C -0.1106(14) -0.0353(12) 0.0770(11)
H1 H -0.0897(4) -0.0300(4) -0.3605(4)
H2 H -0.1802(5) -0.3198(4) -0.4416(4)
H3 H -0.0233(5) -0.2291(4) -0.3378(4)
H4 H 0.0214(5) -0.2057(5) -0.5218(4)
H5 H -0.0321(5) -0.3704(5) -0.5771(4)
H6 H -0.1452(5) -0.2985(4) -0.7537(4)
H7 H -0.2602(5) -0.3660(4) -0.7152(4)
H8 H -0.3216(5) -0.1575(5) -0.7183(4)
H9 H -0.1657(5) -0.0688(5) -0.6082(4)
H10 H -0.3720(5) -0.1939(5) -0.5398(4)
H11 H -0.3290(5) -0.0276(5) -0.4854(4)
H12 H -0.3845(4) -0.0964(4) -0.1391(4)
H13 H -0.2823(4) -0.3025(4) -0.2062(5)
H14 H -0.3705(4) -0.3491(4) -0.3694(5)
H15 H -0.4992(5) -0.4683(5) -0.2908(6)
H16 H -0.4967(5) -0.3212(5) -0.1624(6)
H17 H -0.6569(5) -0.4124(5) -0.4572(6)
H18 H -0.7248(5) -0.3950(5) -0.3405(6)
H19 H -0.6460(4) -0.1470(5) -0.2231(5)
H20 H -0.7374(4) -0.1957(5) -0.3861(5)
H21 H -0.5229(4) -0.0331(5) -0.3123(5)
H22 H -0.5224(4) -0.1839(5) -0.4345(5)
H23 H -0.3471(4) 0.1081(4) -0.2877(4)
H24 H -0.4065(4) 0.1529(4) -0.0892(4)
H25 H -0.2486(4) 0.2391(4) 0.0168(4)
H26 H -0.4532(5) 0.3324(4) -0.1558(5)
H27 H -0.3939(5) 0.4070(4) 0.0137(5)
H28 H -0.1636(5) 0.4836(4) 0.0226(5)
H29 H -0.2800(5) 0.5401(4) -0.0655(5)
H30 H -0.2851(5) 0.3483(4) -0.2842(5)
H31 H -0.1257(5) 0.4384(4) -0.1926(5)
H32 H -0.0613(4) 0.2679(4) -0.1152(4)
H33 H -0.1258(4) 0.1897(4) -0.2848(4)
Br1A Br 0.1686(2) 0.0585(2) -0.1074(2)
O2A O 0.2013(19) 0.0625(20) -0.1244(18)
C20A C 0.1106(14) 0.0353(12) -0.0770(11)
P1A P 0.2032(1) 0.0302(1) 0.2050(1)
C1A C 0.1676(4) 0.1035(4) 0.3779(4)
C2A C 0.1071(5) 0.2407(4) 0.4193(4)
C3A C 0.0619(5) 0.2777(5) 0.5492(4)
C4A C 0.1824(5) 0.2845(4) 0.6778(4)
C5A C 0.2410(5) 0.1487(5) 0.6358(4)
C6A C 0.2927(5) 0.1169(5) 0.5106(4)
H1A H 0.0897(4) 0.0300(4) 0.3605(4)
H10A H 0.3720(5) 0.1939(5) 0.5398(4)
H11A H 0.3290(5) 0.0276(5) 0.4854(4)
H8A H 0.3216(5) 0.1575(5) 0.7183(4)
H9A H 0.1657(5) 0.0688(5) 0.6082(4)
H6A H 0.1452(5) 0.2985(4) 0.7537(4)
H7A H 0.2602(5) 0.3660(4) 0.7152(4)
H4A H -0.0214(5) 0.2057(5) 0.5218(4)
H5A H 0.0321(5) 0.3704(5) 0.5771(4)
H2A H 0.1802(5) 0.3198(4) 0.4416(4)
H3A H 0.0233(5) 0.2291(4) 0.3378(4)
C7A C 0.3750(4) 0.1389(4) 0.2342(4)
C8A C 0.3710(4) 0.2971(4) 0.2721(5)
C9A C 0.5022(5) 0.3672(5) 0.2621(6)
C10A C 0.6449(5) 0.3561(5) 0.3563(6)
C11A C 0.6478(4) 0.2009(5) 0.3211(5)
C12A C 0.5183(4) 0.1329(5) 0.3354(5)
H12A H 0.3845(4) 0.0964(4) 0.1391(4)
H21A H 0.5229(4) 0.0331(5) 0.3123(5)
H22A H 0.5224(4) 0.1839(5) 0.4345(5)
H19A H 0.6460(4) 0.1470(5) 0.2231(5)
H20A H 0.7374(4) 0.1957(5) 0.3861(5)
H17A H 0.6569(5) 0.4124(5) 0.4572(6)
H18A H 0.7248(5) 0.3950(5) 0.3405(6)
H15A H 0.4992(5) 0.4683(5) 0.2908(6)
H16A H 0.4967(5) 0.3212(5) 0.1624(6)
H13A H 0.2823(4) 0.3025(4) 0.2062(5)
H14A H 0.3705(4) 0.3491(4) 0.3694(5)
C13A C 0.2643(4) -0.1388(4) 0.1974(4)
C14A C 0.3230(4) -0.2167(4) 0.0751(4)
C15A C 0.3679(5) -0.3561(4) 0.0708(5)
C16A C 0.2469(5) -0.4541(4) 0.0656(5)
C17A C 0.2025(5) -0.3748(4) 0.1963(5)
C18A C 0.1494(4) -0.2403(4) 0.1987(4)
H23A H 0.3471(4) -0.1081(4) 0.2877(4)
H32A H 0.0613(4) -0.2679(4) 0.1152(4)
H33A H 0.1258(4) -0.1897(4) 0.2848(4)
H30A H 0.2851(5) -0.3483(4) 0.2842(5)
H31A H 0.1257(5) -0.4384(4) 0.1926(5)
H28A H 0.1636(5) -0.4836(4) -0.0226(5)
H29A H 0.2800(5) -0.5401(4) 0.0655(5)
H26A H 0.4532(5) -0.3324(4) 0.1558(5)
H27A H 0.3939(5) -0.4070(4) -0.0137(5)
H24A H 0.4065(4) -0.1529(4) 0.0892(4)
H25A H 0.2486(4) -0.2391(4) -0.0168(4)
C19A C -0.0063(4) -0.1955(4) -0.0958(4)
O1A O -0.0126(3) -0.3171(3) -0.1545(3)
#END
