
#######################################################################
#
#                 Cambridge Crystallographic Data Centre
#                                CCDC
#
#######################################################################
#
# If this CIF has been generated from an entry in the Cambridge
# Structural Database, then it will include bibliographic, chemical,
# crystal, experimental, refinement or atomic coordinate data resulting
# from the CCDC's data processing and validation procedures.
#
#######################################################################

data_CSD_CIF_HIZNEJ
_audit_creation_date 1999-10-05
_audit_creation_method CSD-ConQuest-V1
_database_code_CSD HIZNEJ
_chemical_formula_sum 'C28 H46 Cr1'
_chemical_formula_moiety
;
C28 H46 Cr1
;
_journal_coden_Cambridge 36
_journal_volume 560
_journal_year 1998
_journal_page_first 15
_journal_name_full 'J.Organomet.Chem. '
loop_
_publ_author_name
"J.S.Overby"
"N.J.Schoell"
"T.P.Hanusa"
_chemical_name_systematic
;
bis(\h^5^-1,2,4-Tri-isopropyl-cyclopentadienyl)-chromium(ii)
;
_chemical_melting_point 427.15
_cell_volume    652.549
_exptl_crystal_colour 'orange-red'
_exptl_crystal_density_diffrn 1.106
_exptl_special_details
;
Melting point range 427.15-429.15K
Isomorphous with the vanadium(ii) analogue

;
_exptl_crystal_preparation 'hexane/toluene'
_diffrn_ambient_temperature ?
_diffrn_special_details
;
The study was carried out at room temperature,in the range 283-303K

;
#These two values have been output from a single CSD field.
_refine_ls_R_factor_gt 0.041
_refine_ls_wR_factor_gt 0.041
_symmetry_cell_setting triclinic
_symmetry_space_group_name_H-M 'P -1'
_symmetry_Int_Tables_number 2
loop_
_symmetry_equiv_pos_site_id
_symmetry_equiv_pos_as_xyz
1 x,y,z
2 -x,-y,-z
_cell_length_a 9.146(4)
_cell_length_b 9.406(3)
_cell_length_c 8.811(4)
_cell_angle_alpha 100.08(3)
_cell_angle_beta 117.15(3)
_cell_angle_gamma 75.98(3)
_cell_formula_units_Z 1
loop_
_atom_type_symbol
_atom_type_radius_bond
C 0.68
H 0.23
Cr 1.35
loop_
_atom_site_label
_atom_site_type_symbol
_atom_site_fract_x
_atom_site_fract_y
_atom_site_fract_z
Cr1 Cr 0.50000 0.50000 0.50000
C1 C 0.2694(4) 0.5526(4) 0.2681(4)
C2 C 0.2342(4) 0.5073(4) 0.3919(4)
C3 C 0.3176(4) 0.3610(4) 0.4290(4)
C4 C 0.4088(4) 0.3123(4) 0.3275(4)
C5 C 0.3774(4) 0.4316(4) 0.2307(4)
C6 C 0.2028(5) 0.6976(5) 0.1873(5)
C7 C 0.177(1) 0.6844(9) 0.0125(9)
C8 C 0.0590(9) 0.7865(7) 0.213(1)
C9 C 0.2974(5) 0.2690(5) 0.5406(5)
C10 C 0.1403(7) 0.2027(7) 0.4400(8)
C11 C 0.2918(7) 0.3535(7) 0.7008(6)
C12 C 0.5051(5) 0.1610(4) 0.3095(5)
C13 C 0.3897(8) 0.0648(6) 0.1718(7)
C14 C 0.6511(7) 0.1627(7) 0.2721(8)
H1 H 0.162(4) 0.565(3) 0.438(4)
H2 H 0.425(4) 0.428(3) 0.165(4)
H3 H 0.719(5) 0.062(5) 0.267(5)
H4 H 0.734(7) 0.228(6) 0.345(7)
H5 H 0.611(8) 0.202(6) 0.176(7)
H6 H 0.449(5) -0.028(5) 0.164(5)
H7 H 0.347(5) 0.111(4) 0.065(5)
H8 H 0.298(8) 0.058(6) 0.175(8)
H9 H 0.548(4) 0.121(4) 0.408(4)
H10 H 0.386(4) 0.195(3) 0.574(4)
H11 H 0.139(5) 0.144(5) 0.517(5)
H12 H 0.143(6) 0.142(5) 0.341(6)
H13 H 0.034(7) 0.285(6) 0.405(6)
H14 H 0.287(5) 0.290(4) 0.766(5)
H15 H 0.184(6) 0.439(5) 0.666(6)
H16 H 0.390(6) 0.390(5) 0.764(5)
H17 H 0.294(7) 0.757(6) 0.232(7)
H18 H 0.156(6) 0.776(6) -0.035(7)
H19 H 0.213(8) 0.618(7) -0.041(8)
H20 H 0.07100 0.65910 -0.06010
H21 H 0.08250 0.79110 0.33000
H22 H 0.03890 0.88290 0.17990
H23 H -0.03660 0.74300 0.14510
C1A C 0.7306(4) 0.4474(4) 0.7319(4)
C2A C 0.7658(4) 0.4927(4) 0.6081(4)
C3A C 0.6824(4) 0.6390(4) 0.5710(4)
H1A H 0.838(4) 0.435(3) 0.562(4)
C4A C 0.5912(4) 0.6877(4) 0.6725(4)
C5A C 0.6226(4) 0.5684(4) 0.7693(4)
C6A C 0.7972(5) 0.3024(5) 0.8127(5)
C7A C 0.823(1) 0.3156(9) 0.9875(9)
H18A H 0.844(6) 0.224(6) 1.035(7)
H19A H 0.787(8) 0.382(7) 1.041(8)
H20A H 0.92900 0.34090 1.06010
C8A C 0.9410(9) 0.2135(7) 0.787(1)
H21A H 0.91750 0.20890 0.67000
H22A H 0.96110 0.11710 0.82010
H23A H 1.03660 0.25700 0.85490
H17A H 0.706(7) 0.243(6) 0.768(7)
C12A C 0.4949(5) 0.8390(4) 0.6905(5)
C13A C 0.6103(8) 0.9352(6) 0.8282(7)
H6A H 0.551(5) 1.028(5) 0.836(5)
H7A H 0.653(5) 0.889(4) 0.935(5)
H8A H 0.702(8) 0.942(6) 0.825(8)
C14A C 0.3489(7) 0.8373(7) 0.7279(8)
H3A H 0.281(5) 0.938(5) 0.733(5)
H4A H 0.266(7) 0.772(6) 0.655(7)
H5A H 0.389(8) 0.798(6) 0.824(7)
H9A H 0.452(4) 0.879(4) 0.592(4)
H2A H 0.575(4) 0.572(3) 0.835(4)
C9A C 0.7026(5) 0.7310(5) 0.4594(5)
C10A C 0.8597(7) 0.7973(7) 0.5600(8)
H11A H 0.861(5) 0.856(5) 0.483(5)
H12A H 0.857(6) 0.858(5) 0.659(6)
H13A H 0.966(7) 0.715(6) 0.595(6)
C11A C 0.7082(7) 0.6465(7) 0.2992(6)
H14A H 0.713(5) 0.710(4) 0.234(5)
H15A H 0.816(6) 0.561(5) 0.334(6)
H16A H 0.610(6) 0.610(5) 0.236(5)
H10A H 0.614(4) 0.805(3) 0.426(4)
#END
