
#######################################################################
#
#                 Cambridge Crystallographic Data Centre
#                                CCDC
#
#######################################################################
#
# If this CIF has been generated from an entry in the Cambridge
# Structural Database, then it will include bibliographic, chemical,
# crystal, experimental, refinement or atomic coordinate data resulting
# from the CCDC's data processing and validation procedures.
#
#######################################################################

data_CSD_CIF_HOFDEN
_audit_creation_date 2014-04-11
_audit_creation_method CSD-ConQuest-V1
_database_code_CSD HOFDEN
_database_code_depnum_ccdc_archive 'CCDC 983048'
_chemical_formula_sum 'C11 H7 Cl2 Fe1 N5'
_chemical_formula_moiety
;
C11 H7 Cl2 Fe1 N5
;
_journal_coden_Cambridge 222
_journal_volume 43
_journal_year 2014
_journal_page_first 8282
_journal_name_full 'Dalton Trans. '
loop_
_publ_author_name
"Yang-Yang Fang"
"Wei-Jie Gong"
"Xiu-Juan Shang"
"Hong-Xi Li"
"Jun Gao"
"Jian-Ping Lang"
_chemical_name_systematic
;
dichloro-(2,6-bis(1H-pyrazol-5-yl)pyridinato)-iron
;
_cell_volume   1360.263
_exptl_crystal_colour 'yellow'
_exptl_crystal_density_diffrn 1.64
_exptl_crystal_description 'Prism'
_diffrn_ambient_temperature 293
#These two values have been output from a single CSD field.
_refine_ls_R_factor_gt 0.0372
_refine_ls_wR_factor_gt 0.0372
_symmetry_cell_setting monoclinic
_symmetry_space_group_name_H-M 'C 2/c'
_symmetry_Int_Tables_number 15
loop_
_symmetry_equiv_pos_site_id
_symmetry_equiv_pos_as_xyz
1 x,y,z
2 -x,y,1/2-z
3 1/2+x,1/2+y,z
4 1/2-x,1/2+y,1/2-z
5 -x,-y,-z
6 x,-y,-1/2+z
7 -1/2-x,-1/2-y,-z
8 -1/2+x,-1/2-y,-1/2+z
_cell_length_a 10.221(2)
_cell_length_b 17.195(3)
_cell_length_c 7.9908(16)
_cell_angle_alpha 90
_cell_angle_beta 104.40(3)
_cell_angle_gamma 90
_cell_formula_units_Z 4
loop_
_atom_type_symbol
_atom_type_radius_bond
C 0.68
H 0.23
Cl 0.99
Fe 1.52
N 0.68
loop_
_atom_site_label
_atom_site_type_symbol
_atom_site_fract_x
_atom_site_fract_y
_atom_site_fract_z
Fe1 Fe 0.00000 0.12261(2) 0.25000
Cl1 Cl 0.18592(5) 0.05864(3) 0.19499(8)
N1 N -0.09075(17) 0.15710(11) -0.0169(2)
C1 C 0.00000 0.4054(2) 0.25000
H1 H 0.00000 0.45950 0.25000
N2 N -0.1385(2) 0.12302(11) -0.1716(2)
C2 C -0.0531(2) 0.36564(13) 0.0972(3)
H2 H -0.08900 0.39230 -0.00520
C3 C -0.05109(19) 0.28504(12) 0.1016(3)
N3 N 0.00000 0.24625(14) 0.25000
C4 C -0.1012(2) 0.23384(12) -0.0466(3)
C5 C -0.1569(2) 0.24850(13) -0.2219(3)
H3 H -0.17500 0.29660 -0.27600
C6 C -0.1791(2) 0.17668(14) -0.2963(3)
H4 H -0.21580 0.16660 -0.41290
N1A N 0.09075(17) 0.15710(11) 0.5169(2)
N2A N 0.1385(2) 0.12302(11) 0.6716(2)
C2A C 0.0531(2) 0.36564(13) 0.4028(3)
H2A H 0.08900 0.39230 0.50520
C3A C 0.05109(19) 0.28504(12) 0.3984(3)
C4A C 0.1012(2) 0.23384(12) 0.5466(3)
C5A C 0.1569(2) 0.24850(13) 0.7219(3)
H3A H 0.17500 0.29660 0.77600
C6A C 0.1791(2) 0.17668(14) 0.7963(3)
H4A H 0.21580 0.16660 0.91290
Cl1A Cl -0.18592(5) 0.05864(3) 0.30501(8)
#END
