
#######################################################################
#
#                 Cambridge Crystallographic Data Centre
#                                CCDC
#
#######################################################################
#
# If this CIF has been generated from an entry in the Cambridge
# Structural Database, then it will include bibliographic, chemical,
# crystal, experimental, refinement or atomic coordinate data resulting
# from the CCDC's data processing and validation procedures.
#
#######################################################################

data_CSD_CIF_HOGBIQ
_audit_creation_date 2014-04-14
_audit_creation_method CSD-ConQuest-V1
_database_code_CSD HOGBIQ
_database_code_depnum_ccdc_archive 'CCDC 945340'
_chemical_formula_sum 'C22 H24 Mn1 N6 O6'
_chemical_formula_moiety
;
C22 H24 Mn1 N6 O6
;
_journal_coden_Cambridge 702
_journal_volume 29
_journal_year 2013
_journal_page_first 2666
_journal_name_full 'Wuji Huaxue Xuebao(Chin.)(Chin.J.Inorg.Chem.) '
loop_
_publ_author_name
"Jing Xu"
"Min-Dong Chen"
_chemical_name_systematic
;
Diaqua-bis(4-(((1H-imidazol-4-yl)methyl)amino)benzoato)-manganese(ii)
;
_cell_volume    555.447
_exptl_crystal_colour 'colorless'
_exptl_crystal_density_diffrn 1.565
_exptl_crystal_description 'platelet'
_diffrn_ambient_temperature 200
#These two values have been output from a single CSD field.
_refine_ls_R_factor_gt 0.0501
_refine_ls_wR_factor_gt 0.0501
_symmetry_cell_setting triclinic
_symmetry_space_group_name_H-M 'P -1'
_symmetry_Int_Tables_number 2
loop_
_symmetry_equiv_pos_site_id
_symmetry_equiv_pos_as_xyz
1 x,y,z
2 -x,-y,-z
_cell_length_a 8.065(4)
_cell_length_b 8.504(3)
_cell_length_c 9.370(4)
_cell_angle_alpha 67.154(15)
_cell_angle_beta 81.654(17)
_cell_angle_gamma 69.713(16)
_cell_formula_units_Z 1
loop_
_atom_type_symbol
_atom_type_radius_bond
C 0.68
H 0.23
Mn 1.61
N 0.68
O 0.68
loop_
_atom_site_label
_atom_site_type_symbol
_atom_site_fract_x
_atom_site_fract_y
_atom_site_fract_z
Mn1 Mn 0.00000 0.00000 0.00000
O1 O 0.6498(2) 0.2767(2) 0.2341(2)
O2 O 0.4284(2) 0.4984(2) 0.27816(19)
O3 O -0.2598(3) 0.2071(3) -0.0333(2)
H1 H -0.312(4) 0.300(5) -0.105(4)
H2 H -0.292(4) 0.235(4) 0.047(4)
N1 N -0.0022(3) -0.0020(3) 0.2545(2)
H3 H -0.114(4) 0.066(4) 0.266(3)
N2 N -0.3053(3) -0.3587(3) 0.2709(2)
H4 H -0.38240 -0.41650 0.28850
N3 N -0.1344(3) -0.1944(3) 0.1449(2)
C1 C 0.1215(3) 0.0788(3) 0.2658(3)
C2 C 0.2977(3) -0.0197(3) 0.3057(3)
H5 H 0.33720 -0.14710 0.33640
C3 C 0.4154(3) 0.0701(3) 0.3003(3)
H6 H 0.53630 0.00320 0.32320
C4 C 0.3594(3) 0.2549(3) 0.2620(3)
C5 C 0.1824(3) 0.3516(3) 0.2259(3)
H7 H 0.14170 0.47820 0.20050
C6 C 0.0648(3) 0.2648(3) 0.2266(3)
H8 H -0.05520 0.33260 0.20010
C7 C 0.0169(3) -0.1905(3) 0.3559(3)
H9 H -0.00930 -0.19950 0.46480
H10 H 0.13950 -0.26860 0.34960
C8 C -0.1107(3) -0.2494(3) 0.3025(3)
C9 C -0.2173(3) -0.3503(3) 0.3810(3)
H11 H -0.22840 -0.40400 0.49020
C10 C -0.2531(3) -0.2635(3) 0.1316(3)
H12 H -0.29550 -0.24740 0.03590
C11 C 0.4891(3) 0.3497(3) 0.2581(2)
O1A O -0.6498(2) -0.2767(2) -0.2341(2)
O2A O -0.4284(2) -0.4984(2) -0.27816(19)
O3A O 0.2598(3) -0.2071(3) 0.0333(2)
H1A H 0.312(4) -0.300(5) 0.105(4)
H2A H 0.292(4) -0.235(4) -0.047(4)
N1A N 0.0022(3) 0.0020(3) -0.2545(2)
H3A H 0.114(4) -0.066(4) -0.266(3)
N2A N 0.3053(3) 0.3587(3) -0.2709(2)
H4A H 0.38240 0.41650 -0.28850
N3A N 0.1344(3) 0.1944(3) -0.1449(2)
C1A C -0.1215(3) -0.0788(3) -0.2658(3)
C2A C -0.2977(3) 0.0197(3) -0.3057(3)
H5A H -0.33720 0.14710 -0.33640
C3A C -0.4154(3) -0.0701(3) -0.3003(3)
H6A H -0.53630 -0.00320 -0.32320
C4A C -0.3594(3) -0.2549(3) -0.2620(3)
C5A C -0.1824(3) -0.3516(3) -0.2259(3)
H7A H -0.14170 -0.47820 -0.20050
C6A C -0.0648(3) -0.2648(3) -0.2266(3)
H8A H 0.05520 -0.33260 -0.20010
C7A C -0.0169(3) 0.1905(3) -0.3559(3)
H9A H 0.00930 0.19950 -0.46480
H10A H -0.13950 0.26860 -0.34960
C8A C 0.1107(3) 0.2494(3) -0.3025(3)
C9A C 0.2173(3) 0.3503(3) -0.3810(3)
H11A H 0.22840 0.40400 -0.49020
C10A C 0.2531(3) 0.2635(3) -0.1316(3)
H12A H 0.29550 0.24740 -0.03590
C11A C -0.4891(3) -0.3497(3) -0.2581(2)
#END
