
#######################################################################
#
#                 Cambridge Crystallographic Data Centre
#                                CCDC
#
#######################################################################
#
# If this CIF has been generated from an entry in the Cambridge
# Structural Database, then it will include bibliographic, chemical,
# crystal, experimental, refinement or atomic coordinate data resulting
# from the CCDC's data processing and validation procedures.
#
#######################################################################

data_CSD_CIF_HOHBUB
_audit_creation_date 1999-10-14
_audit_creation_method CSD-ConQuest-V1
_database_code_CSD HOHBUB
_chemical_formula_sum 'C18 H37 Cr1 Si2'
_chemical_formula_moiety
;
C18 H37 Cr1 Si2
;
_journal_coden_Cambridge 579
_journal_volume 17
_journal_year 1998
_journal_page_first 5477
_journal_name_full 'Organometallics '
loop_
_publ_author_name
"R.A.Heintz"
"S.Leelasubcharoen"
"L.M.Liable-Sands"
"A.L.Rheingold"
"K.H.Theopold"
_chemical_name_systematic
;
(\h^5^-Pentamethyl-cyclopentadienyl)-bis(trimethylsilylmethyl)-chromium(iii)
;
_cell_volume   1096.051
_exptl_crystal_colour 'deep amber'
_exptl_crystal_density_diffrn 1.096
_exptl_crystal_description 'tablet'
_diffrn_ambient_temperature 198
#These two values have been output from a single CSD field.
_refine_ls_R_factor_gt 0.0526
_refine_ls_wR_factor_gt 0.0526
_symmetry_cell_setting triclinic
_symmetry_space_group_name_H-M 'P -1'
_symmetry_Int_Tables_number 2
loop_
_symmetry_equiv_pos_site_id
_symmetry_equiv_pos_as_xyz
1 x,y,z
2 -x,-y,-z
_cell_length_a 9.3425(3)
_cell_length_b 10.1774(3)
_cell_length_c 12.4634(4)
_cell_angle_alpha 106.3968(8)
_cell_angle_beta 102.2484(9)
_cell_angle_gamma 95.3513(10)
_cell_formula_units_Z 2
loop_
_atom_type_symbol
_atom_type_radius_bond
C 0.68
H 0.23
Cr 1.35
Si 1.20
loop_
_atom_site_label
_atom_site_type_symbol
_atom_site_fract_x
_atom_site_fract_y
_atom_site_fract_z
Cr1 Cr 0.18796(4) 0.77648(3) 0.28703(3)
Si1 Si 0.2807(1) 0.8392(1) 0.0527(1)
Si2 Si 0.3470(1) 0.4874(1) 0.2472(1)
C1 C 0.1870(3) 0.8971(3) 0.4693(2)
C2 C 0.0798(3) 0.7773(3) 0.4318(2)
C3 C -0.0296(3) 0.7845(3) 0.3341(2)
C4 C 0.0111(3) 0.9107(3) 0.3145(2)
C5 C 0.1460(3) 0.9786(2) 0.3954(2)
C6 C 0.3194(4) 0.9360(4) 0.5694(2)
C7 C 0.0767(4) 0.6633(3) 0.4870(3)
C8 C -0.1647(4) 0.6774(4) 0.2669(3)
C9 C -0.0736(4) 0.9657(4) 0.2243(3)
C10 C 0.2303(4) 1.1187(3) 0.4080(3)
C11 C 0.1568(3) 0.7402(2) 0.1107(2)
C12 C 0.2405(4) 1.0213(3) 0.0777(3)
C13 C 0.4807(3) 0.8523(4) 0.1226(3)
C14 C 0.2582(3) 0.7596(3) -0.1067(2)
C15 C 0.3668(3) 0.6762(2) 0.3222(2)
C16 C 0.3850(5) 0.4508(3) 0.1009(3)
C17 C 0.4796(4) 0.4025(3) 0.3295(3)
C18 C 0.1545(4) 0.3964(3) 0.2273(4)
H1 H 0.3752(4) 1.0253(4) 0.5753(2)
H2 H 0.3829(4) 0.8644(4) 0.5582(2)
H3 H 0.2871(4) 0.9438(4) 0.6405(2)
H4 H -0.0101(4) 0.5917(3) 0.4441(3)
H5 H 0.0709(4) 0.7020(3) 0.5672(3)
H6 H 0.1674(4) 0.6222(3) 0.4857(3)
H7 H -0.1662(4) 0.5998(4) 0.2988(3)
H8 H -0.1616(4) 0.6434(4) 0.1857(3)
H9 H -0.2543(4) 0.7192(4) 0.2724(3)
H10 H -0.0200(4) 1.0558(4) 0.2297(3)
H11 H -0.1724(4) 0.9770(4) 0.2369(3)
H12 H -0.0838(4) 0.9003(4) 0.1474(3)
H13 H 0.3204(4) 1.1409(3) 0.4711(3)
H14 H 0.1675(4) 1.1899(3) 0.4253(3)
H15 H 0.2577(4) 1.1160(3) 0.3358(3)
H16 H 0.1607(3) 0.6406(2) 0.0762(2)
H17 H 0.0544(3) 0.7542(2) 0.0806(2)
H18 H 0.3067(4) 1.0727(3) 0.0467(3)
H19 H 0.2568(4) 1.0674(3) 0.1607(3)
H20 H 0.1371(4) 1.0189(3) 0.0386(3)
H21 H 0.5414(3) 0.9055(4) 0.0890(3)
H22 H 0.5067(3) 0.7590(4) 0.1099(3)
H23 H 0.4995(3) 0.8994(4) 0.2057(3)
H24 H 0.3259(3) 0.8157(3) -0.1331(2)
H25 H 0.1556(3) 0.7566(3) -0.1480(2)
H26 H 0.2813(3) 0.6651(3) -0.1223(2)
H27 H 0.4520(3) 0.7235(2) 0.3042(2)
H28 H 0.3936(3) 0.6903(2) 0.4064(2)
H29 H 0.3733(5) 0.3502(3) 0.0648(3)
H30 H 0.4866(5) 0.4934(3) 0.1086(3)
H31 H 0.3148(5) 0.4895(3) 0.0527(3)
H32 H 0.4659(4) 0.3033(3) 0.2873(3)
H33 H 0.4608(4) 0.4144(3) 0.4059(3)
H34 H 0.5816(4) 0.4453(3) 0.3386(3)
H35 H 0.1472(4) 0.2972(3) 0.1876(4)
H36 H 0.0826(4) 0.4357(3) 0.1809(4)
H37 H 0.1333(4) 0.4090(3) 0.3029(4)
#END
