
#######################################################################
#
#                 Cambridge Crystallographic Data Centre
#                                CCDC
#
#######################################################################
#
# If this CIF has been generated from an entry in the Cambridge
# Structural Database, then it will include bibliographic, chemical,
# crystal, experimental, refinement or atomic coordinate data resulting
# from the CCDC's data processing and validation procedures.
#
#######################################################################

data_CSD_CIF_HOKYEO
_audit_creation_date 2019-07-23
_audit_creation_method CSD-ConQuest-V1
_database_code_CSD HOKYEO
_database_code_depnum_ccdc_archive 'CCDC 1916875'
_chemical_formula_sum 'C36 H42 Fe1 O6'
_chemical_formula_moiety
;
C32 H34 Fe1 O5,C4 H8 O1
;
_journal_coden_Cambridge 4
_journal_volume 141
_journal_year 2019
_journal_page_first 11858
_journal_name_full 'J.Am.Chem.Soc. '
loop_
_publ_author_name
"G.Zuccarello"
"J.G.Mayans"
"I.Escofet"
"D.Scharnagel"
"M.S.Kirillova"
"A.H.Perez-Jimeno"
"P.Calleja"
"J.R.Boothe"
"A.M.Echavarren"
_chemical_name_systematic
;
3-(2-hydroxypropan-2-yl)-5,7-dimethoxy-2-phenyl-1,2,3,4-tetrahydronaphthalen-1
-yl ferrocenyl-carboxylate tetrahydrofuran solvate
;
_cell_volume    769.277
_exptl_crystal_colour 'orange'
_exptl_crystal_density_diffrn 1.352
_exptl_special_details
;
Absolute configuration

;
_exptl_crystal_description 'block'
_diffrn_ambient_temperature 100
#These two values have been output from a single CSD field.
_refine_ls_R_factor_gt 0.027
_refine_ls_wR_factor_gt 0.027
_symmetry_cell_setting triclinic
_symmetry_space_group_name_H-M 'P 1'
_symmetry_Int_Tables_number 1
loop_
_symmetry_equiv_pos_site_id
_symmetry_equiv_pos_as_xyz
1 x,y,z
_cell_length_a 9.2294(4)
_cell_length_b 9.5235(4)
_cell_length_c 9.8268(5)
_cell_angle_alpha 76.3219(14)
_cell_angle_beta 66.9921(14)
_cell_angle_gamma 89.3666(15)
_cell_formula_units_Z 1
loop_
_atom_type_symbol
_atom_type_radius_bond
C 0.68
H 0.23
Fe 1.52
O 0.68
loop_
_atom_site_label
_atom_site_type_symbol
_atom_site_fract_x
_atom_site_fract_y
_atom_site_fract_z
Fe1 Fe 0.96790(3) 0.39826(3) 0.33493(3)
O1 O 0.4653(2) 0.19608(18) 0.9862(2)
C1 C 0.4257(3) 0.5702(2) 0.5603(2)
H1 H 0.35777 0.49728 0.55178
C2 C 0.4352(3) 0.5262(2) 0.7142(2)
O2 O 0.4732(2) 0.69395(17) 0.99256(18)
O3 O 0.5857(2) 1.06156(17) 0.5099(2)
H2 H 0.58952 1.14973 0.47786
C3 C 0.4393(3) 0.3782(2) 0.7771(3)
H3 H 0.42956 0.30919 0.72741
O4 O 0.58811(18) 0.57755(16) 0.44462(18)
C4 C 0.4579(3) 0.3359(2) 0.9141(3)
C5 C 0.4718(3) 0.4398(2) 0.9897(3)
H4 H 0.48610 0.41189 1.08058
O5 O 0.5402(2) 0.36338(17) 0.40242(19)
C6 C 0.4640(3) 0.5840(2) 0.9266(3)
C7 C 0.4324(3) 0.7892(2) 0.7273(3)
H5 H 0.50653 0.84699 0.74446
H6 H 0.32681 0.81298 0.78385
C8 C 0.4451(3) 0.6305(2) 0.7880(2)
C9 C 0.4659(3) 0.8293(2) 0.5580(2)
H7 H 0.57728 0.81373 0.50639
C10 C 0.3724(3) 0.7220(2) 0.5186(2)
H8 H 0.40763 0.74933 0.40720
C11 C 0.4471(3) 0.0851(3) 0.9172(3)
H9 H 0.46167 -0.00694 0.97385
H10 H 0.52435 0.10538 0.81388
H11 H 0.34299 0.08228 0.91763
C12 C 0.5103(3) 0.6585(3) 1.1230(3)
H12 H 0.52429 0.74568 1.15120
H13 H 0.60614 0.61097 1.09988
H14 H 0.42570 0.59498 1.20610
C13 C 0.4550(3) 0.9925(2) 0.4966(3)
C14 C 0.4829(3) 1.0301(2) 0.3277(3)
H15 H 0.39416 0.99034 0.31660
H16 H 0.57691 0.98994 0.27155
H17 H 0.49514 1.13364 0.28873
C15 C 0.3025(3) 1.0506(2) 0.5895(3)
H18 H 0.21378 1.00170 0.58652
H19 H 0.30642 1.15288 0.54692
H20 H 0.29147 1.03366 0.69350
C16 C 0.1932(3) 0.7221(2) 0.5846(3)
C17 C 0.0985(3) 0.6615(3) 0.7381(3)
H21 H 0.14499 0.61679 0.80381
C18 C -0.0644(3) 0.6669(3) 0.7943(3)
H22 H -0.12603 0.62571 0.89695
C19 C -0.1351(3) 0.7335(3) 0.6980(3)
H23 H -0.24390 0.73898 0.73650
C20 C -0.0441(3) 0.7918(3) 0.5445(3)
H24 H -0.09158 0.83549 0.47929
C21 C 0.1187(3) 0.7849(3) 0.4881(3)
H25 H 0.17923 0.82271 0.38451
C22 C 0.6307(3) 0.4666(2) 0.3783(2)
C23 C 0.7969(3) 0.4893(2) 0.2732(3)
C24 C 0.8751(3) 0.3935(3) 0.1797(3)
H26 H 0.82541 0.30782 0.17044
C25 C 1.0374(3) 0.4457(3) 0.1028(3)
H27 H 1.12006 0.40112 0.03244
C26 C 1.0597(3) 0.5724(3) 0.1476(3)
H28 H 1.16092 0.62924 0.11410
C27 C 0.9132(3) 0.6001(3) 0.2525(3)
H29 H 0.89438 0.68009 0.30250
C28 C 0.9239(4) 0.1948(3) 0.4764(4)
H30 H 0.85860 0.11418 0.47675
C29 C 0.8706(3) 0.2973(3) 0.5630(3)
H31 H 0.76149 0.30071 0.63362
C30 C 1.0015(4) 0.3956(3) 0.5300(3)
H32 H 0.99959 0.47834 0.57376
C31 C 1.1349(3) 0.3516(3) 0.4223(3)
H33 H 1.24267 0.39895 0.37770
C32 C 1.0867(4) 0.2278(3) 0.3892(3)
H34 H 1.15515 0.17402 0.31868
O6 O 1.0595(3) 0.1472(2) -0.0083(3)
C33 C 0.9785(4) 0.0153(3) 0.0972(4)
H35 H 0.89404 0.03434 0.18593
H36 H 1.05052 -0.04365 0.13078
C34 C 0.9128(4) -0.0604(3) 0.0130(4)
H37 H 0.82152 -0.12742 0.08278
H38 H 0.99184 -0.11221 -0.04975
C35 C 0.8669(4) 0.0673(4) -0.0847(4)
H39 H 0.87290 0.04642 -0.17859
H40 H 0.76088 0.09090 -0.02940
C36 C 0.9895(4) 0.1902(3) -0.1173(3)
H41 H 1.06946 0.20600 -0.22046
H42 H 0.93968 0.27942 -0.10647
#END
