
#######################################################################
#
#                 Cambridge Crystallographic Data Centre
#                                CCDC
#
#######################################################################
#
# If this CIF has been generated from an entry in the Cambridge
# Structural Database, then it will include bibliographic, chemical,
# crystal, experimental, refinement or atomic coordinate data resulting
# from the CCDC's data processing and validation procedures.
#
#######################################################################

data_CSD_CIF_HONMUS
_audit_creation_date 1999-10-26
_audit_creation_method CSD-ConQuest-V1
_database_code_CSD HONMUS
_chemical_formula_sum 'C34 H28 Cr1 O2 P2'
_chemical_formula_moiety
;
C34 H28 Cr1 O2 P2
;
_journal_coden_Cambridge 35
_journal_volume 63
_journal_year 1998
_journal_page_first 8407
_journal_name_full 'J.Org.Chem. '
loop_
_publ_author_name
"K.Kamikawa"
"S.Sugimoto"
"M.Uemura"
_chemical_name_systematic
;
(+-)-Dicarbonyl-(\h^6^-1-(1-(diphenylphosphino)ethyl)-2-(diphenylphosphino)-be
nzene)-chromium
;
_chemical_melting_point 383.15
_cell_volume    738.388
_exptl_crystal_colour 'orange'
_exptl_crystal_density_diffrn 1.31
_exptl_crystal_description 'prismatic'
_diffrn_ambient_temperature ?
_diffrn_special_details
;
The study was carried out at room temperature,in the range 283-303K

;
#These two values have been output from a single CSD field.
_refine_ls_R_factor_gt 0.037
_refine_ls_wR_factor_gt 0.037
_symmetry_cell_setting triclinic
_symmetry_space_group_name_H-M 'P 1'
_symmetry_Int_Tables_number 1
loop_
_symmetry_equiv_pos_site_id
_symmetry_equiv_pos_as_xyz
1 x,y,z
_cell_length_a 9.031(3)
_cell_length_b 10.489(3)
_cell_length_c 8.551(4)
_cell_angle_alpha 98.96(3)
_cell_angle_beta 112.44(3)
_cell_angle_gamma 83.67(3)
_cell_formula_units_Z 1
loop_
_atom_type_symbol
_atom_type_radius_bond
C 0.68
H 0.23
Cr 1.35
O 0.68
P 1.05
loop_
_atom_site_label
_atom_site_type_symbol
_atom_site_fract_x
_atom_site_fract_y
_atom_site_fract_z
Cr1 Cr -0.30990 -0.81120 -0.36270
P1 P -0.0539(2) -0.9896(2) -0.5702(2)
P2 P -0.2906(2) -0.6840(2) -0.5546(2)
O1 O -0.0180(8) -0.7560(7) -0.0504(7)
O2 O -0.4413(7) -0.5972(6) -0.1697(7)
C1 C -0.2361(8) -0.9730(7) -0.5195(8)
C2 C -0.3793(8) -0.9071(6) -0.6182(8)
C3 C -0.5143(8) -0.8944(7) -0.5727(9)
C4 C -0.508(1) -0.9370(8) -0.422(1)
C5 C -0.369(1) -0.9996(8) -0.3219(10)
C6 C -0.2357(9) -1.0171(7) -0.3688(9)
C7 C -0.3798(8) -0.8106(6) -0.7359(8)
C8 C -0.315(1) -0.8527(7) -0.8783(9)
C9 C -0.0967(9) -1.1273(7) -0.7388(9)
C10 C -0.206(1) -1.2186(8) -0.768(1)
C11 C -0.235(1) -1.3175(10) -0.902(2)
C12 C -0.153(2) -1.323(1) -1.006(2)
C13 C -0.044(2) -1.234(1) -0.984(1)
C14 C -0.016(1) -1.136(1) -0.851(1)
C15 C 0.0954(9) -1.0622(8) -0.3890(9)
C16 C 0.145(1) -1.1902(9) -0.385(1)
C17 C 0.266(1) -1.234(1) -0.243(1)
C18 C 0.338(1) -1.147(1) -0.101(1)
C19 C 0.291(1) -1.022(1) -0.103(1)
C20 C 0.1746(10) -0.9759(8) -0.246(1)
C21 C -0.1024(8) -0.6356(7) -0.5514(9)
C22 C 0.0283(10) -0.6307(9) -0.399(1)
C23 C 0.175(1) -0.593(1) -0.386(1)
C24 C 0.191(1) -0.5639(10) -0.529(2)
C25 C 0.064(1) -0.5657(10) -0.680(1)
C26 C -0.0858(10) -0.6013(9) -0.692(1)
C27 C -0.4159(8) -0.5381(7) -0.6105(9)
C28 C -0.402(1) -0.4363(7) -0.483(1)
C29 C -0.491(1) -0.3206(9) -0.516(2)
C30 C -0.597(1) -0.3056(9) -0.675(2)
C31 C -0.617(1) -0.403(1) -0.804(2)
C32 C -0.525(1) -0.5204(9) -0.774(1)
C33 C -0.129(1) -0.7778(8) -0.173(1)
C34 C -0.3949(9) -0.6813(8) -0.2498(9)
H1 H -0.61920 -0.85620 -0.64740
H2 H -0.60190 -0.92400 -0.38830
H3 H -0.36930 -1.03140 -0.21900
H4 H -0.14090 -1.06120 -0.29710
H5 H -0.49360 -0.78420 -0.79180
H6 H -0.32560 -0.78210 -0.93670
H7 H -0.20870 -0.88320 -0.82880
H8 H -0.37800 -0.92140 -0.95530
H9 H -0.26740 -1.21260 -0.69140
H10 H -0.31360 -1.38560 -0.91980
H11 H -0.17050 -1.39160 -1.10240
H12 H 0.00740 -1.24240 -1.06300
H13 H 0.05720 -1.07210 -0.83520
H14 H 0.08900 -1.25250 -0.48370
H15 H 0.29680 -1.32520 -0.24270
H16 H 0.41930 -1.17590 -0.00050
H17 H 0.33270 -0.96010 -0.00130
H18 H 0.14280 -0.88380 -0.24540
H19 H 0.01140 -0.65310 -0.29990
H20 H 0.26310 -0.58890 -0.27780
H21 H 0.29180 -0.54500 -0.52190
H22 H 0.07070 -0.54130 -0.78150
H23 H -0.18020 -0.60500 -0.79870
H24 H -0.32890 -0.44620 -0.36860
H25 H -0.48150 -0.25020 -0.42210
H26 H -0.66180 -0.22530 -0.69420
H27 H -0.70470 -0.39400 -0.91630
H28 H -0.53800 -0.59040 -0.86790
#END
