
#######################################################################
#
#                 Cambridge Crystallographic Data Centre
#                                CCDC
#
#######################################################################
#
# If this CIF has been generated from an entry in the Cambridge
# Structural Database, then it will include bibliographic, chemical,
# crystal, experimental, refinement or atomic coordinate data resulting
# from the CCDC's data processing and validation procedures.
#
#######################################################################

data_CSD_CIF_HOQFEZ
_audit_creation_date 2009-07-03
_audit_creation_method CSD-ConQuest-V1
_database_code_CSD HOQFEZ
_database_code_depnum_ccdc_archive 'CCDC 288559'
_chemical_formula_sum 'C26 H36 B2 Fe1 N12'
_chemical_formula_moiety
;
C26 H36 B2 Fe1 N12
;
_journal_coden_Cambridge 179
_journal_volume 47
_journal_year 2008
_journal_page_first 8687
_journal_name_full 'Angew.Chem.,Int.Ed. '
loop_
_publ_author_name
"P.Hamon"
"J.-Y.Thepot"
"M.Le Floch"
"M.-E.Boulon"
"O.Cador"
"S.Golhen"
"L.Ouahab"
"L.Fadel"
"J.-Y.Saillard"
"J.-R.Hamon"
_chemical_name_systematic
;
bis(t-Butyltris(pyrazolyl)borate)-iron(ii)
;
_cell_volume   2041.159
_exptl_crystal_colour 'red-orange'
_exptl_crystal_density_diffrn 1.45
_exptl_special_details
;
low-spin state

;
_exptl_crystal_description 'octahedron'
_diffrn_ambient_temperature 293
#These two values have been output from a single CSD field.
_refine_ls_R_factor_gt 0.0378
_refine_ls_wR_factor_gt 0.0378
_symmetry_cell_setting rhombohedral
_symmetry_space_group_name_H-M 'R -3'
_symmetry_Int_Tables_number 148
loop_
_symmetry_equiv_pos_site_id
_symmetry_equiv_pos_as_xyz
1 x,y,z
2 -y,x-y,z
3 -x+y,-x,z
4 2/3+x,1/3+y,1/3+z
5 2/3-y,1/3+x-y,1/3+z
6 2/3-x+y,1/3-x,1/3+z
7 1/3+x,2/3+y,2/3+z
8 1/3-y,2/3+x-y,2/3+z
9 1/3-x+y,2/3-x,2/3+z
10 -x,-y,-z
11 y,-x+y,-z
12 x-y,x,-z
13 -2/3-x,-1/3-y,-1/3-z
14 -2/3+y,-1/3-x+y,-1/3-z
15 -2/3+x-y,-1/3+x,-1/3-z
16 -1/3-x,-2/3-y,-2/3-z
17 -1/3+y,-2/3-x+y,-2/3-z
18 -1/3+x-y,-2/3+x,-2/3-z
_cell_length_a 12.5471(5)
_cell_length_b 12.5471(5)
_cell_length_c 14.9713(8)
_cell_angle_alpha 90
_cell_angle_beta 90
_cell_angle_gamma 120
_cell_formula_units_Z 3
loop_
_atom_type_symbol
_atom_type_radius_bond
C 0.68
H 0.23
B 0.83
Fe 1.52
N 0.68
loop_
_atom_site_label
_atom_site_type_symbol
_atom_site_fract_x
_atom_site_fract_y
_atom_site_fract_z
Fe1 Fe 0.00000 0.00000 0.00000
N1 N 0.11340(14) -0.00337(14) 0.16961(9)
N2 N 0.12515(14) 0.00119(13) 0.07852(9)
C1 C 0.21041(18) -0.00734(19) 0.20528(13)
H1 H 0.22380 -0.01110 0.26600
C2 C 0.28581(19) -0.0049(2) 0.13836(14)
H2 H 0.35870 -0.00670 0.14390
C3 C 0.22885(17) 0.00087(18) 0.06008(13)
H3 H 0.25910 0.00410 0.00280
C4 C 0.00000 0.00000 0.3217(2)
C5 C 0.1165(2) 0.1130(2) 0.36035(14)
H4 H 0.18860 0.11220 0.33990
H5 H 0.11350 0.10940 0.42440
H6 H 0.11940 0.18720 0.34070
B1 B 0.00000 0.00000 0.2118(2)
N1A N 0.00337(14) 0.11677(14) 0.16961(9)
N1B N -0.11677(14) -0.11340(14) 0.16961(9)
N1I N -0.11340(14) 0.00337(14) -0.16961(9)
N1J N -0.00337(14) -0.11677(14) -0.16961(9)
N1K N 0.11677(14) 0.11340(14) -0.16961(9)
N2A N -0.00119(14) 0.12396(13) 0.07852(9)
N2B N -0.12396(14) -0.12515(13) 0.07852(9)
N2I N -0.12515(14) -0.00119(13) -0.07852(9)
N2J N 0.00119(14) -0.12396(13) -0.07852(9)
N2K N 0.12396(14) 0.12515(13) -0.07852(9)
C1A C 0.00734(18) 0.21775(19) 0.20528(13)
C1B C -0.21775(18) -0.21041(19) 0.20528(13)
C1I C -0.21041(18) 0.00734(19) -0.20528(13)
C1J C -0.00734(18) -0.21775(19) -0.20528(13)
C1K C 0.21775(18) 0.21041(19) -0.20528(13)
H1A H 0.01110 0.23490 0.26600
H1B H -0.23490 -0.22380 0.26600
H1I H -0.22380 0.01110 -0.26600
H1J H -0.01110 -0.23490 -0.26600
H1K H 0.23490 0.22380 -0.26600
C2A C 0.00490(19) 0.29071(20) 0.13836(14)
C2B C -0.29071(19) -0.28581(20) 0.13836(14)
C2I C -0.28581(19) 0.0049(2) -0.13836(14)
C2J C -0.00490(19) -0.29071(20) -0.13836(14)
C2K C 0.29071(19) 0.28581(20) -0.13836(14)
H2A H 0.00670 0.36540 0.14390
H2B H -0.36540 -0.35870 0.14390
H2I H -0.35870 0.00670 -0.14390
H2J H -0.00670 -0.36540 -0.14390
H2K H 0.36540 0.35870 -0.14390
C3A C -0.00087(17) 0.22798(18) 0.06008(13)
C3B C -0.22798(17) -0.22885(18) 0.06008(13)
C3I C -0.22885(17) -0.00087(18) -0.06008(13)
C3J C 0.00087(17) -0.22798(18) -0.06008(13)
C3K C 0.22798(17) 0.22885(18) -0.06008(13)
H3A H -0.00410 0.25500 0.00280
H3B H -0.25500 -0.25910 0.00280
H3I H -0.25910 -0.00410 -0.00280
H3J H 0.00410 -0.25500 -0.00280
H3K H 0.25500 0.25910 -0.00280
C4I C 0.00000 0.00000 -0.3217(2)
C5A C -0.1130(2) 0.0035(2) 0.36035(14)
C5B C -0.0035(2) -0.1165(2) 0.36035(14)
C5I C -0.1165(2) -0.1130(2) -0.36035(14)
C5J C 0.1130(2) -0.0035(2) -0.36035(14)
C5K C 0.0035(2) 0.1165(2) -0.36035(14)
H4A H -0.11220 0.07640 0.33990
H4B H -0.07640 -0.18860 0.33990
H4I H -0.18860 -0.11220 -0.33990
H4J H 0.11220 -0.07640 -0.33990
H4K H 0.07640 0.18860 -0.33990
H5A H -0.10940 0.00410 0.42440
H5B H -0.00410 -0.11350 0.42440
H5I H -0.11350 -0.10940 -0.42440
H5J H 0.10940 -0.00410 -0.42440
H5K H 0.00410 0.11350 -0.42440
H6A H -0.18720 -0.06780 0.34070
H6B H 0.06780 -0.11940 0.34070
H6I H -0.11940 -0.18720 -0.34070
H6J H 0.18720 0.06780 -0.34070
H6K H -0.06780 0.11940 -0.34070
B1I B 0.00000 0.00000 -0.2118(2)
#END
