
#######################################################################
#
#                 Cambridge Crystallographic Data Centre
#                                CCDC
#
#######################################################################
#
# If this CIF has been generated from an entry in the Cambridge
# Structural Database, then it will include bibliographic, chemical,
# crystal, experimental, refinement or atomic coordinate data resulting
# from the CCDC's data processing and validation procedures.
#
#######################################################################

data_CSD_CIF_HOSROX
_audit_creation_date 2009-07-03
_audit_creation_method CSD-ConQuest-V1
_database_code_CSD HOSROX
_database_code_depnum_ccdc_archive 'CCDC 726233'
_chemical_formula_sum 'C28 H24 Co1 N8 O10'
_chemical_formula_moiety
;
C12 H16 Co1 N8 O2 2+,C16 H8 O8 2-
;
_journal_coeditor_code "IUCr SI2153"
_journal_coden_Cambridge 1370
_journal_volume 65
_journal_year 2009
_journal_page_first m380
_journal_name_full 'Acta Crystallogr.,Sect.E:Struct.Rep.Online '
loop_
_publ_author_name
"Jie Kang"
"Chang-Cang Huang"
"Lai-Sheng Zhai"
"Xiao-Huan Qin"
"Zhong-Qian Liu"
_chemical_name_systematic
;
Diaqua-bis(2,2'-bi-imidazole-N,N')-cobalt(ii) 
4,4'-dicarboxybiphenyl-3,3'-dicarboxylate
;
_cell_volume    698.980
_exptl_crystal_colour 'colorless'
_exptl_crystal_density_diffrn 1.643
_exptl_crystal_description 'block'
_diffrn_ambient_temperature 293
#These two values have been output from a single CSD field.
_refine_ls_R_factor_gt 0.0334
_refine_ls_wR_factor_gt 0.0334
_symmetry_cell_setting triclinic
_symmetry_space_group_name_H-M 'P -1'
_symmetry_Int_Tables_number 2
loop_
_symmetry_equiv_pos_site_id
_symmetry_equiv_pos_as_xyz
1 x,y,z
2 -x,-y,-z
_cell_length_a 8.2272(16)
_cell_length_b 9.772(2)
_cell_length_c 10.484(2)
_cell_angle_alpha 63.81(3)
_cell_angle_beta 67.93(3)
_cell_angle_gamma 84.03(3)
_cell_formula_units_Z 1
loop_
_atom_type_symbol
_atom_type_radius_bond
C 0.68
H 0.23
Co 1.33
N 0.68
O 0.68
loop_
_atom_site_label
_atom_site_type_symbol
_atom_site_fract_x
_atom_site_fract_y
_atom_site_fract_z
Co1 Co 0.50000 0.50000 0.50000
C1 C 0.7400(3) 0.5910(2) 0.6513(3)
H1 H 0.70360 0.68650 0.64460
C2 C 0.8671(3) 0.5187(2) 0.7049(3)
H2 H 0.93230 0.55420 0.74150
C3 C 0.7617(2) 0.3779(2) 0.6368(2)
C4 C 0.7231(2) 0.2591(2) 0.6037(2)
C5 C 0.5986(3) 0.1500(2) 0.5229(3)
H3 H 0.52660 0.13110 0.48120
C6 C 0.7143(3) 0.0532(2) 0.5751(3)
H4 H 0.73550 -0.04250 0.57620
C7 C 0.2215(3) 0.6649(2) 0.8670(2)
C8 C 0.2957(2) 0.7806(2) 0.8950(2)
C9 C 0.4327(3) 0.7276(2) 0.9485(2)
H5 H 0.47100 0.63190 0.95770
C10 C 0.5135(3) 0.8106(2) 0.9882(3)
H6 H 0.60510 0.77080 1.02220
C11 C 0.4595(2) 0.9535(2) 0.9779(2)
C12 C 0.3260(2) 1.0084(2) 0.9211(2)
H7 H 0.28940 1.10460 0.91160
C13 C 0.2436(2) 0.9278(2) 0.8777(2)
C14 C 0.1084(2) 1.0170(2) 0.8107(2)
N1 N 0.6735(2) 0.50249(18) 0.60857(19)
N2 N 0.8799(2) 0.3839(2) 0.6943(2)
H8 H 0.951(3) 0.307(2) 0.726(2)
N3 N 0.6043(2) 0.27901(17) 0.54115(19)
N4 N 0.7934(2) 0.12422(19) 0.6258(2)
H9 H 0.869(2) 0.078(2) 0.676(2)
O1 O 0.0983(2) 1.15279(16) 0.7860(2)
O2 O 0.0097(2) 0.95144(19) 0.7838(2)
O3 O 0.0823(2) 0.68970(19) 0.8329(2)
H10 H 0.05130 0.77490 0.82410
O4 O 0.2931(2) 0.54625(18) 0.8800(2)
O5 O 0.7116(2) 0.58986(18) 0.29083(18)
H11 H 0.763(3) 0.6721(18) 0.259(3)
H12 H 0.730(3) 0.557(2) 0.228(2)
C1A C 0.2600(3) 0.4090(2) 0.3487(3)
H1A H 0.29640 0.31350 0.35540
C2A C 0.1329(3) 0.4813(2) 0.2951(3)
H2A H 0.06770 0.44580 0.25850
C3A C 0.2383(2) 0.6221(2) 0.3632(2)
C4A C 0.2769(2) 0.7409(2) 0.3963(2)
C5A C 0.4014(3) 0.8500(2) 0.4771(3)
H3A H 0.47340 0.86890 0.51880
C6A C 0.2857(3) 0.9468(2) 0.4249(3)
H4A H 0.26450 1.04250 0.42380
C7A C 0.7785(3) 1.3351(2) 1.1330(2)
C8A C 0.7043(2) 1.2194(2) 1.1050(2)
C9A C 0.5673(3) 1.2724(2) 1.0515(2)
H5A H 0.52900 1.36810 1.04230
C10A C 0.4865(3) 1.1894(2) 1.0118(3)
H6A H 0.39490 1.22920 0.97780
C11A C 0.5405(2) 1.0465(2) 1.0221(2)
C12A C 0.6740(2) 0.9916(2) 1.0789(2)
H7A H 0.71060 0.89540 1.08840
C13A C 0.7564(2) 1.0722(2) 1.1223(2)
C14A C 0.8916(2) 0.9830(2) 1.1893(2)
N1A N 0.3265(2) 0.49751(18) 0.39143(19)
N2A N 0.1201(2) 0.6161(2) 0.3057(2)
H8A H 0.049(3) 0.693(2) 0.274(2)
N3A N 0.3957(2) 0.72099(17) 0.45885(19)
N4A N 0.2066(2) 0.87578(19) 0.3742(2)
H9A H 0.131(2) 0.922(2) 0.324(2)
O1A O 0.9017(2) 0.84721(16) 1.2140(2)
O2A O 0.9903(2) 1.04856(19) 1.2162(2)
O3A O 0.9177(2) 1.31030(19) 1.1671(2)
H10A H 0.94870 1.22510 1.17590
O4A O 0.7069(2) 1.45375(18) 1.1200(2)
O5A O 0.2884(2) 0.41014(18) 0.70917(18)
H11A H 0.237(3) 0.3279(18) 0.741(3)
H12A H 0.270(3) 0.443(2) 0.772(2)
#END
