
#######################################################################
#
#                 Cambridge Crystallographic Data Centre
#                                CCDC
#
#######################################################################
#
# If this CIF has been generated from an entry in the Cambridge
# Structural Database, then it will include bibliographic, chemical,
# crystal, experimental, refinement or atomic coordinate data resulting
# from the CCDC's data processing and validation procedures.
#
#######################################################################

data_CSD_CIF_HOTDOL
_audit_creation_date 2015-02-20
_audit_creation_method CSD-ConQuest-V1
_database_code_CSD HOTDOL
_database_code_depnum_ccdc_archive 'CCDC 1009579'
_chemical_formula_sum 'C22 H20 Fe1 N6 O10'
_chemical_formula_moiety
;
C10 H10 Fe1 N4 O10,C12 H10 N2
;
_journal_coden_Cambridge 208
_journal_volume 226
_journal_year 2015
_journal_page_first 1
_journal_name_full 'J.Solid State Chem. '
loop_
_publ_author_name
"Bao Mu"
"Qian Li"
"Lei Lv"
"Dan-Dan Yang"
"Qing Wang"
"Ru-Dan Huang"
_chemical_name_systematic
;
diaqua-bis(5-carboxy-1H-imidazole-4-carboxylato)-iron(ii) 
4,4'-ethene-1,2-diyldipyridine
;
_cell_volume    589.697
_exptl_crystal_colour 'yellow'
_exptl_crystal_density_diffrn 1.643
_exptl_crystal_description 'block'
_diffrn_ambient_temperature 293
_refine_special_details
;
H2 disordered by symmetry over two configurations with occupancy 0.50.

;
#These two values have been output from a single CSD field.
_refine_ls_R_factor_gt 0.084
_refine_ls_wR_factor_gt 0.084
_symmetry_cell_setting triclinic
_symmetry_space_group_name_H-M 'P -1'
_symmetry_Int_Tables_number 2
loop_
_symmetry_equiv_pos_site_id
_symmetry_equiv_pos_as_xyz
1 x,y,z
2 -x,-y,-z
_cell_length_a 5.0151(4)
_cell_length_b 6.6806(6)
_cell_length_c 18.6429(17)
_cell_angle_alpha 94.205(1)
_cell_angle_beta 97.497(1)
_cell_angle_gamma 106.517(2)
_cell_formula_units_Z 1
loop_
_atom_type_symbol
_atom_type_radius_bond
C 0.68
H 0.23
Fe 1.52
N 0.68
O 0.68
loop_
_atom_site_label
_atom_site_type_symbol
_atom_site_fract_x
_atom_site_fract_y
_atom_site_fract_z
Fe1 Fe 0.50000 0.50000 0.50000
N1 N 0.7266(12) 0.6145(10) 0.6075(3)
N2 N 0.9794(12) 0.7235(9) 0.7172(3)
O1 O 0.3431(10) 0.7653(8) 0.5295(3)
O2 O 0.392(1) 1.0248(8) 0.6176(3)
O3 O 0.6846(13) 1.1578(9) 0.7428(3)
H1 H 0.59360 1.11720 0.70190
O4 O 1.0006(13) 1.0639(9) 0.8173(3)
O5 O 0.8247(10) 0.7058(8) 0.4533(3)
H2 H 0.97970 0.74660 0.48250
H3 H 0.77850 0.81200 0.44000
C1 C 0.4517(14) 0.8659(12) 0.5908(4)
C2 C 0.6628(14) 0.7894(11) 0.6359(4)
C3 C 0.8206(15) 0.8596(11) 0.7040(4)
C4 C 0.8448(19) 1.0332(13) 0.7595(5)
C5 C 0.9165(15) 0.5829(12) 0.6578(4)
H4 H 0.99790 0.47480 0.65260
H5 H 1.09580 0.72830 0.75590
N3 N 0.3645(13) 0.6957(11) 0.8314(4)
C6 C 0.4599(17) 0.8236(14) 0.8928(4)
H6 H 0.39670 0.94090 0.89890
C7 C 0.6509(16) 0.7909(13) 0.9488(4)
H7 H 0.71330 0.88580 0.99090
C8 C 0.7466(15) 0.6180(13) 0.9417(4)
C9 C 0.6476(17) 0.4849(14) 0.8771(4)
H8 H 0.70980 0.36800 0.86890
C10 C 0.4558(17) 0.5279(14) 0.8252(4)
H9 H 0.38590 0.43350 0.78310
C11 C 0.9395(16) 0.5772(13) 1.0008(5)
H10 H 0.98230 0.66770 1.04380
N1A N 0.2734(12) 0.3855(10) 0.3925(3)
N2A N 0.0206(12) 0.2765(9) 0.2828(3)
O1A O 0.6569(10) 0.2347(8) 0.4705(3)
O2A O 0.608(1) -0.0248(8) 0.3824(3)
O3A O 0.3154(13) -0.1578(9) 0.2572(3)
H1A H 0.40640 -0.11720 0.29810
O4A O -0.0006(13) -0.0639(9) 0.1827(3)
O5A O 0.1753(10) 0.2942(8) 0.5467(3)
H2A H 0.02030 0.25340 0.51750
H3A H 0.22150 0.18800 0.56000
C1A C 0.5483(14) 0.1341(12) 0.4092(4)
C2A C 0.3372(14) 0.2106(11) 0.3641(4)
C3A C 0.1794(15) 0.1404(11) 0.2960(4)
C4A C 0.1552(19) -0.0332(13) 0.2405(5)
C5A C 0.0835(15) 0.4171(12) 0.3422(4)
H4A H 0.00210 0.52520 0.34740
H5A H -0.09580 0.27170 0.24410
N3A N 1.6355(13) 0.3043(11) 1.1686(4)
C6A C 1.5401(17) 0.1764(14) 1.1072(4)
H6A H 1.60330 0.05910 1.10110
C7A C 1.3491(16) 0.2091(13) 1.0512(4)
H7A H 1.28670 0.11420 1.00910
C8A C 1.2534(15) 0.3820(13) 1.0583(4)
C9A C 1.3524(17) 0.5151(14) 1.1229(4)
H8A H 1.29020 0.63200 1.13110
C10A C 1.5442(17) 0.4721(14) 1.1748(4)
H9A H 1.61410 0.56650 1.21690
C11A C 1.0605(16) 0.4228(13) 0.9992(5)
H10A H 1.01770 0.33230 0.95620
#END
