
#######################################################################
#
#                 Cambridge Crystallographic Data Centre
#                                CCDC
#
#######################################################################
#
# If this CIF has been generated from an entry in the Cambridge
# Structural Database, then it will include bibliographic, chemical,
# crystal, experimental, refinement or atomic coordinate data resulting
# from the CCDC's data processing and validation procedures.
#
#######################################################################

data_CSD_CIF_HOTDUR
_audit_creation_date 2015-02-20
_audit_creation_method CSD-ConQuest-V1
_database_code_CSD HOTDUR
_database_code_depnum_ccdc_archive 'CCDC 1009580'
_chemical_formula_sum 'C22 H20 Co1 N6 O10'
_chemical_formula_moiety
;
C10 H10 Co1 N4 O10,C12 H10 N2
;
_journal_coden_Cambridge 208
_journal_volume 226
_journal_year 2015
_journal_page_first 1
_journal_name_full 'J.Solid State Chem. '
loop_
_publ_author_name
"Bao Mu"
"Qian Li"
"Lei Lv"
"Dan-Dan Yang"
"Qing Wang"
"Ru-Dan Huang"
_chemical_name_systematic
;
diaqua-bis(5-carboxy-1H-imidazole-4-carboxylato)-cobalt(ii) 
4,4'-ethene-1,2-diyldipyridine
;
_cell_volume    585.242
_exptl_crystal_colour 'pink'
_exptl_crystal_density_diffrn 1.667
_exptl_crystal_description 'block'
_diffrn_ambient_temperature 293
#These two values have been output from a single CSD field.
_refine_ls_R_factor_gt 0.1183
_refine_ls_wR_factor_gt 0.1183
_symmetry_cell_setting triclinic
_symmetry_space_group_name_H-M 'P -1'
_symmetry_Int_Tables_number 2
loop_
_symmetry_equiv_pos_site_id
_symmetry_equiv_pos_as_xyz
1 x,y,z
2 -x,-y,-z
_cell_length_a 5.0376(4)
_cell_length_b 6.6411(7)
_cell_length_c 18.5780(17)
_cell_angle_alpha 81.140(2)
_cell_angle_beta 82.460(2)
_cell_angle_gamma 73.137(1)
_cell_formula_units_Z 1
loop_
_atom_type_symbol
_atom_type_radius_bond
C 0.68
H 0.23
Co 1.26
N 0.68
O 0.68
loop_
_atom_site_label
_atom_site_type_symbol
_atom_site_fract_x
_atom_site_fract_y
_atom_site_fract_z
Co1 Co 0.00000 0.50000 0.50000
N1 N -0.123(2) 0.6119(17) 0.3944(6)
N2 N -0.269(2) 0.7233(18) 0.2850(5)
H1 H -0.35180 0.73090 0.24670
O1 O 0.1795(19) 0.7597(14) 0.4730(5)
O2 O 0.220(2) 1.0218(15) 0.3842(5)
O3 O 0.056(3) 1.1538(17) 0.2571(5)
H2 H 0.10690 1.11020 0.29820
O4 O -0.186(3) 1.0620(18) 0.1831(6)
O5 O 0.3695(19) 0.2947(15) 0.4516(5)
H3 H 0.33800 0.18640 0.43920
H4 H 0.49900 0.25550 0.48000
C1 C 0.135(2) 0.8623(19) 0.4105(7)
C2 C -0.031(3) 0.7843(19) 0.3672(7)
C3 C -0.117(3) 0.856(2) 0.2964(7)
C4 C -0.087(3) 1.032(2) 0.2395(8)
C5 C -0.263(3) 0.582(2) 0.3437(7)
H5 H -0.34860 0.47360 0.34870
N3 N 0.461(2) 0.692(2) 0.1692(6)
C6 C 0.422(3) 0.827(3) 0.1082(8)
H6 H 0.47940 0.94950 0.10380
C7 C 0.298(3) 0.790(3) 0.0509(8)
H7 H 0.28850 0.88040 0.00720
C8 C 0.190(3) 0.618(3) 0.0591(8)
C9 C 0.228(4) 0.482(3) 0.1254(9)
H8 H 0.16430 0.36210 0.13380
C10 C 0.358(3) 0.530(2) 0.1757(8)
H9 H 0.37720 0.43990 0.21950
C11 C 0.062(3) 0.575(2) 0.0006(8)
H10 H 0.06590 0.66630 -0.04270
N1A N 0.123(2) 0.3881(17) 0.6056(6)
N2A N 0.269(2) 0.2767(18) 0.7150(5)
H1A H 0.35180 0.26910 0.75330
O1A O -0.1795(19) 0.2403(14) 0.5270(5)
O2A O -0.220(2) -0.0218(15) 0.6158(5)
O3A O -0.056(3) -0.1538(17) 0.7429(5)
H2A H -0.10690 -0.11020 0.70180
O4A O 0.186(3) -0.0620(18) 0.8169(6)
O5A O -0.3695(19) 0.7053(15) 0.5484(5)
H3A H -0.33800 0.81360 0.56080
H4A H -0.49900 0.74450 0.52000
C1A C -0.135(2) 0.1377(19) 0.5895(7)
C2A C 0.031(3) 0.2157(19) 0.6328(7)
C3A C 0.117(3) 0.144(2) 0.7036(7)
C4A C 0.087(3) -0.032(2) 0.7605(8)
C5A C 0.263(3) 0.418(2) 0.6563(7)
H5A H 0.34860 0.52640 0.65130
N3A N -0.461(2) 0.308(2) -0.1692(6)
C6A C -0.422(3) 0.173(3) -0.1082(8)
H6A H -0.47940 0.05050 -0.10380
C7A C -0.298(3) 0.210(3) -0.0509(8)
H7A H -0.28850 0.11960 -0.00720
C8A C -0.190(3) 0.382(3) -0.0591(8)
C9A C -0.228(4) 0.518(3) -0.1254(9)
H8A H -0.16430 0.63790 -0.13380
C10A C -0.358(3) 0.470(2) -0.1757(8)
H9A H -0.37720 0.56010 -0.21950
C11A C -0.062(3) 0.425(2) -0.0006(8)
H10A H -0.06590 0.33370 0.04270
#END
