
#######################################################################
#
#                 Cambridge Crystallographic Data Centre
#                                CCDC
#
#######################################################################
#
# If this CIF has been generated from an entry in the Cambridge
# Structural Database, then it will include bibliographic, chemical,
# crystal, experimental, refinement or atomic coordinate data resulting
# from the CCDC's data processing and validation procedures.
#
#######################################################################

data_CSD_CIF_HOVHEH
_audit_creation_date 2015-02-21
_audit_creation_method CSD-ConQuest-V1
_database_code_CSD HOVHEH
_database_code_depnum_ccdc_archive 'CCDC 939086'
_chemical_formula_sum 'C18 H15 Fe1 N1 S2'
_chemical_formula_moiety
;
C18 H15 Fe1 N1 S2
;
_journal_coden_Cambridge 36
_journal_volume 783
_journal_year 2015
_journal_page_first 83
_journal_name_full 'J.Organomet.Chem. '
loop_
_publ_author_name
"A.N.Rodionov"
"K.Ya Zherebker"
"L.V.Snegur"
"A.A.Korlyukov"
"D.E.Arhipov"
"A.S.Peregudov"
"M.M.Ilyin"
"M.M.Ilyin Junior"
"O.M.Nikitin"
"N.B.Morozova"
"A.A.Simenel"
_chemical_name_systematic
;
3-(Ferrocenylmethyl)-1,3-benzothiazole-2(3H)-thione
;
_cell_volume    773.431
_exptl_crystal_colour 'orange'
_exptl_crystal_density_diffrn 1.568
_exptl_crystal_description 'prism'
_diffrn_ambient_temperature 100
#These two values have been output from a single CSD field.
_refine_ls_R_factor_gt 0.0271
_refine_ls_wR_factor_gt 0.0271
_symmetry_cell_setting triclinic
_symmetry_space_group_name_H-M 'P -1'
_symmetry_Int_Tables_number 2
loop_
_symmetry_equiv_pos_site_id
_symmetry_equiv_pos_as_xyz
1 x,y,z
2 -x,-y,-z
_cell_length_a 7.4337(4)
_cell_length_b 7.7823(4)
_cell_length_c 14.8982(8)
_cell_angle_alpha 85.031(1)
_cell_angle_beta 80.581(1)
_cell_angle_gamma 65.483(1)
_cell_formula_units_Z 2
loop_
_atom_type_symbol
_atom_type_radius_bond
C 0.68
H 0.23
Fe 1.52
N 0.68
S 1.02
loop_
_atom_site_label
_atom_site_type_symbol
_atom_site_fract_x
_atom_site_fract_y
_atom_site_fract_z
Fe1 Fe 0.24178(3) 1.26783(3) 0.127085(12)
S1 S 0.29316(5) 0.70884(4) 0.50255(2)
S2 S 0.46917(6) 0.60356(5) 0.31021(2)
N1 N 0.35695(16) 0.94476(15) 0.38576(7)
C1 C 0.4933(2) 1.3192(2) 0.11417(10)
H1 H 0.58960 1.28220 0.15930
C2 C 0.3214(2) 1.4926(2) 0.11209(10)
H2 H 0.27560 1.59830 0.15560
C3 C 0.2254(2) 1.4884(2) 0.03762(10)
H3 H 0.10020 1.59050 0.01970
C4 C 0.3382(2) 1.3130(2) -0.00663(9)
H4 H 0.30600 1.27030 -0.06100
C5 C 0.5044(2) 1.2078(2) 0.04076(10)
H5 H 0.60950 1.07900 0.02530
C6 C 0.24355(19) 1.11171(18) 0.24385(8)
C7 C 0.0801(2) 1.29372(19) 0.25311(9)
H6 H 0.05710 1.39030 0.29880
C8 C -0.0436(2) 1.3139(2) 0.18556(9)
H7 H -0.16750 1.42730 0.17520
C9 C 0.0427(2) 1.1445(2) 0.13453(9)
H8 H -0.00990 1.11890 0.08190
C10 C 0.2186(2) 1.01918(19) 0.17087(9)
H9 H 0.31060 0.89050 0.14810
C11 C 0.41204(19) 1.03047(19) 0.29937(9)
H10 H 0.52870 0.93330 0.26370
H11 H 0.45120 1.13170 0.31260
C12 C 0.37630(19) 0.76229(18) 0.39205(9)
C13 C 0.22889(19) 0.93631(18) 0.53850(9)
C14 C 0.27491(18) 1.04588(18) 0.46637(8)
C15 C 0.24105(19) 1.23256(18) 0.47984(9)
H12 H 0.27240 1.30790 0.43150
C16 C 0.1599(2) 1.30486(19) 0.56646(9)
H13 H 0.13740 1.43120 0.57730
C17 C 0.1105(2) 1.19659(19) 0.63800(9)
H14 H 0.05240 1.25100 0.69600
C18 C 0.1458(2) 1.00971(19) 0.62498(9)
H15 H 0.11420 0.93470 0.67340
#END
