
#######################################################################
#
#                 Cambridge Crystallographic Data Centre
#                                CCDC
#
#######################################################################
#
# If this CIF has been generated from an entry in the Cambridge
# Structural Database, then it will include bibliographic, chemical,
# crystal, experimental, refinement or atomic coordinate data resulting
# from the CCDC's data processing and validation procedures.
#
#######################################################################

data_CSD_CIF_HOYHIM
_audit_creation_date 2000-03-29
_audit_creation_method CSD-ConQuest-V1
_database_code_CSD HOYHIM
_database_code_depnum_ccdc_archive 'CCDC 140038'
_chemical_formula_sum 'C10 H16 Fe1 I2 N2 O2'
_chemical_formula_moiety
;
C10 H16 Fe1 I2 N2 O2
;
_journal_coden_Cambridge 155
_journal_volume 291
_journal_year 1999
_journal_page_first 438
_journal_name_full 'Inorg.Chim.Acta '
loop_
_publ_author_name
"J.Breuer"
"H.-W.Fruhauf"
"W.J.J.Smeets"
"A.L.Spek"
_chemical_name_systematic
;
Dicarbonyl-trans-di-iodo-(N,N'-di-isopropyl-1,4-diaza-1,3-butadiene)-iron
;
_cell_volume    805.800
_exptl_crystal_colour 'violet-black'
_exptl_crystal_density_diffrn 2.085
_exptl_crystal_description 'block'
_exptl_crystal_preparation 'toluene/hexane'
_diffrn_ambient_temperature 150
#These two values have been output from a single CSD field.
_refine_ls_R_factor_gt 0.0251
_refine_ls_wR_factor_gt 0.0251
_symmetry_cell_setting triclinic
_symmetry_space_group_name_H-M 'P -1'
_symmetry_Int_Tables_number 2
loop_
_symmetry_equiv_pos_site_id
_symmetry_equiv_pos_as_xyz
1 x,y,z
2 -x,-y,-z
_cell_length_a 8.7624(3)
_cell_length_b 9.0550(4)
_cell_length_c 10.6512(6)
_cell_angle_alpha 95.429(4)
_cell_angle_beta 105.245(4)
_cell_angle_gamma 95.209(3)
_cell_formula_units_Z 2
loop_
_atom_type_symbol
_atom_type_radius_bond
C 0.68
H 0.23
Fe 1.34
I 1.40
N 0.68
O 0.68
loop_
_atom_site_label
_atom_site_type_symbol
_atom_site_fract_x
_atom_site_fract_y
_atom_site_fract_z
I1 I 0.15767(3) -0.05510(2) 0.26068(2)
I2 I 0.24522(2) 0.52927(2) 0.32037(2)
Fe1 Fe 0.19524(5) 0.23737(4) 0.29022(5)
O1 O 0.5380(3) 0.2250(3) 0.3766(3)
O2 O 0.2309(3) 0.2351(3) 0.0241(3)
N1 N 0.1630(3) 0.2554(2) 0.4675(3)
N2 N -0.0399(3) 0.2284(3) 0.2415(3)
C1 C 0.2533(5) 0.3700(4) 0.7029(4)
C2 C 0.3412(5) 0.1295(4) 0.6283(5)
C3 C 0.2922(4) 0.2793(3) 0.5911(4)
C4 C 0.0163(4) 0.2536(3) 0.4678(3)
C5 C -0.0971(4) 0.2341(3) 0.3408(4)
C6 C -0.1457(4) 0.2068(3) 0.1059(4)
C7 C -0.1466(5) 0.3540(4) 0.0509(4)
C8 C -0.3141(4) 0.1350(5) 0.0918(5)
C9 C 0.4054(4) 0.2318(4) 0.3456(4)
C10 C 0.2131(4) 0.2342(4) 0.1261(4)
H1 H 0.351(2) 0.398(3) 0.775(2)
H2 H 0.174(3) 0.3101(18) 0.733(2)
H3 H 0.210(3) 0.461(3) 0.6727(11)
H4 H 0.436(3) 0.1456(5) 0.705(2)
H5 H 0.366(3) 0.0735(18) 0.5537(19)
H6 H 0.253(2) 0.0721(18) 0.651(3)
H7 H 0.377(3) 0.331(2) 0.5752(7)
H8 H -0.0128(13) 0.2636(5) 0.541(3)
H9 H -0.204(4) 0.2263(4) 0.3313(5)
H10 H -0.0972(15) 0.139(2) 0.0523(17)
H11 H -0.199(3) 0.4186(17) 0.0946(19)
H12 H -0.200(3) 0.3383(6) -0.039(2)
H13 H -0.041(2) 0.3968(16) 0.063(2)
H14 H -0.3100(4) 0.049(3) 0.127(3)
H15 H -0.3672(19) 0.117(3) 0.007(2)
H16 H -0.364(2) 0.197(2) 0.134(3)
#END
