
#######################################################################
#
#                 Cambridge Crystallographic Data Centre
#                                CCDC
#
#######################################################################
#
# If this CIF has been generated from an entry in the Cambridge
# Structural Database, then it will include bibliographic, chemical,
# crystal, experimental, refinement or atomic coordinate data resulting
# from the CCDC's data processing and validation procedures.
#
#######################################################################

data_CSD_CIF_HUCNUP
_audit_creation_date 2009-10-28
_audit_creation_method CSD-ConQuest-V1
_database_code_CSD HUCNUP
_database_code_depnum_ccdc_archive 'CCDC 747158'
_chemical_formula_sum 'C22 H28 Mn1 N6 O10 S2'
_chemical_formula_moiety
;
C22 H24 Mn1 N6 O8 S2,2(H2 O1)
;
_journal_coeditor_code "IUCr CV2600"
_journal_coden_Cambridge 1370
_journal_volume 65
_journal_year 2009
_journal_page_first m1126
_journal_name_full 'Acta Crystallogr.,Sect.E:Struct.Rep.Online '
loop_
_publ_author_name
"Hai-Bin Zhu"
"Gang Xu"
"Yan-Yan Sun"
_chemical_name_systematic
;
Tetra-aqua-bis(2-(4-(3-pyridyl)pyrimidin-2-ylsulfanyl)acetate-N)-manganese(ii)
 dihydrate
;
_cell_volume    698.372
_exptl_crystal_colour 'colorless'
_exptl_crystal_density_diffrn 1.559
_exptl_crystal_description 'block'
_diffrn_ambient_temperature 298
#These two values have been output from a single CSD field.
_refine_ls_R_factor_gt 0.037
_refine_ls_wR_factor_gt 0.037
_symmetry_cell_setting triclinic
_symmetry_space_group_name_H-M 'P -1'
_symmetry_Int_Tables_number 2
loop_
_symmetry_equiv_pos_site_id
_symmetry_equiv_pos_as_xyz
1 x,y,z
2 -x,-y,-z
_cell_length_a 8.459(3)
_cell_length_b 9.240(3)
_cell_length_c 9.360(4)
_cell_angle_alpha 87.396(6)
_cell_angle_beta 75.862(5)
_cell_angle_gamma 79.872(5)
_cell_formula_units_Z 1
loop_
_atom_type_symbol
_atom_type_radius_bond
C 0.68
H 0.23
Mn 1.61
N 0.68
O 0.68
S 1.02
loop_
_atom_site_label
_atom_site_type_symbol
_atom_site_fract_x
_atom_site_fract_y
_atom_site_fract_z
Mn1 Mn 0.00000 1.00000 0.50000
S1 S 0.71353(7) 0.62719(6) 0.00440(6)
O1 O 0.12141(17) 0.98576(16) 0.26485(16)
O2 O 0.24139(17) 1.03191(17) 0.52792(17)
N1 N 0.49123(19) 0.56249(17) 0.24128(18)
O3 O 0.44775(17) 0.95387(16) 0.25780(16)
N2 N 0.6987(2) 0.36606(19) 0.1238(2)
C1 C 0.6227(2) 0.5074(2) 0.1385(2)
O4 O 0.71010(18) 0.85073(17) 0.23595(17)
C2 C 0.2749(2) 0.5349(2) 0.4544(2)
N3 N 0.0768(2) 0.75451(18) 0.53326(19)
C3 C 0.5782(2) 0.8717(2) 0.1953(2)
C4 C 0.4233(2) 0.4687(2) 0.3417(2)
C5 C 0.2097(2) 0.6826(2) 0.4396(2)
H1 H 0.26210 0.73420 0.35950
C6 C 0.5730(3) 0.7975(2) 0.0536(2)
H2 H 0.59560 0.86620 -0.02720
H3 H 0.46140 0.77930 0.06330
C7 C 0.1962(3) 0.4588(2) 0.5742(2)
H4 H 0.23540 0.36000 0.58820
C8 C 0.0031(3) 0.6779(2) 0.6484(2)
H5 H -0.08990 0.72560 0.71490
C9 C 0.0596(3) 0.5315(2) 0.6721(2)
H6 H 0.00580 0.48240 0.75340
C10 C 0.6305(3) 0.2757(2) 0.2252(3)
H7 H 0.67860 0.17690 0.22090
C11 C 0.4920(3) 0.3206(2) 0.3369(3)
H8 H 0.44660 0.25440 0.40600
O5 O 1.0477(2) 0.7838(2) 0.1129(2)
H9 H 0.27120 1.06560 0.59850
H10 H 0.22590 0.98080 0.24690
H11 H 0.33090 1.00790 0.46250
H12 H 0.09990 0.93000 0.20530
H13 H 1.09800 0.72680 0.04130
H14 H 0.94490 0.78710 0.12080
S1A S -0.71353(7) 1.37281(6) 0.99560(6)
O1A O -0.12141(17) 1.01424(16) 0.73515(16)
O2A O -0.24139(17) 0.96809(17) 0.47208(17)
N1A N -0.49123(19) 1.43751(17) 0.75872(18)
O3A O -0.44775(17) 1.04613(16) 0.74220(16)
N2A N -0.6987(2) 1.63394(19) 0.8762(2)
C1A C -0.6227(2) 1.4926(2) 0.8615(2)
O4A O -0.71010(18) 1.14927(17) 0.76405(17)
C2A C -0.2749(2) 1.4651(2) 0.5456(2)
N3A N -0.0768(2) 1.24549(18) 0.46674(19)
C3A C -0.5782(2) 1.1283(2) 0.8047(2)
C4A C -0.4233(2) 1.5313(2) 0.6583(2)
C5A C -0.2097(2) 1.3174(2) 0.5604(2)
H1A H -0.26210 1.26580 0.64050
C6A C -0.5730(3) 1.2025(2) 0.9464(2)
H2A H -0.59560 1.13380 1.02720
H3A H -0.46140 1.22070 0.93670
C7A C -0.1962(3) 1.5412(2) 0.4258(2)
H4A H -0.23540 1.64000 0.41180
C8A C -0.0031(3) 1.3221(2) 0.3516(2)
H5A H 0.08990 1.27440 0.28510
C9A C -0.0596(3) 1.4685(2) 0.3279(2)
H6A H -0.00580 1.51760 0.24660
C10A C -0.6305(3) 1.7243(2) 0.7748(3)
H7A H -0.67860 1.82310 0.77910
C11A C -0.4920(3) 1.6794(2) 0.6631(3)
H8A H -0.44660 1.74560 0.59400
H9A H -0.27120 0.93440 0.40150
H10A H -0.22590 1.01920 0.75310
H11A H -0.33090 0.99210 0.53750
H12A H -0.09990 1.07000 0.79470
#END
