
#######################################################################
#
#                 Cambridge Crystallographic Data Centre
#                                CCDC
#
#######################################################################
#
# If this CIF has been generated from an entry in the Cambridge
# Structural Database, then it will include bibliographic, chemical,
# crystal, experimental, refinement or atomic coordinate data resulting
# from the CCDC's data processing and validation procedures.
#
#######################################################################

data_CSD_CIF_HUCPIF
_audit_creation_date 2009-10-28
_audit_creation_method CSD-ConQuest-V1
_database_code_CSD HUCPIF
_database_code_depnum_ccdc_archive 'CCDC 747161'
_chemical_formula_sum 'C28 H34 Co1 N4 O14'
_chemical_formula_moiety
;
C12 H20 Co1 N4 O6 2+,2(C8 H5 O3 1-),2(H2 O1)
;
_journal_coeditor_code "IUCr XU2594"
_journal_coden_Cambridge 1370
_journal_volume 65
_journal_year 2009
_journal_page_first m1130
_journal_name_full 'Acta Crystallogr.,Sect.E:Struct.Rep.Online '
loop_
_publ_author_name
"T.Hokelek"
"F.Yilmaz"
"B.Tercan"
"M.Sertcelik"
"H.Necefoglu"
_chemical_name_systematic
;
Tetra-aqua-bis(isonicotinamide-\kN^1^)-cobalt(ii) bis(4-formylbenzoate) 
dihydrate
;
_chemical_name_common
;
Tetra-aqua-bis(pyridine-4-carboxamide-N)-cobalt(ii) bis(4-formylbenzoate) 
dihydrate
;
_cell_volume    761.277
_exptl_crystal_colour 'orange'
_exptl_crystal_density_diffrn 1.548
_exptl_crystal_description 'rod-shaped'
_diffrn_ambient_temperature 100
#These two values have been output from a single CSD field.
_refine_ls_R_factor_gt 0.0341
_refine_ls_wR_factor_gt 0.0341
_symmetry_cell_setting triclinic
_symmetry_space_group_name_H-M 'P -1'
_symmetry_Int_Tables_number 2
loop_
_symmetry_equiv_pos_site_id
_symmetry_equiv_pos_as_xyz
1 x,y,z
2 -x,-y,-z
_cell_length_a 6.4490(2)
_cell_length_b 6.8836(3)
_cell_length_c 18.1792(5)
_cell_angle_alpha 81.967(3)
_cell_angle_beta 84.681(3)
_cell_angle_gamma 72.564(2)
_cell_formula_units_Z 1
loop_
_atom_type_symbol
_atom_type_radius_bond
C 0.68
H 0.23
Co 1.26
N 0.68
O 0.68
loop_
_atom_site_label
_atom_site_type_symbol
_atom_site_fract_x
_atom_site_fract_y
_atom_site_fract_z
Co1 Co 0.00000 0.00000 0.00000
O1 O -0.3206(2) 0.68183(19) -0.08763(7)
O2 O 0.0316(2) 0.55083(19) -0.12091(7)
O3 O 0.6316(2) -0.2347(2) 0.31750(7)
O4 O -0.5540(2) 0.7430(2) -0.46372(7)
O5 O 0.1816(2) 0.2025(2) -0.02613(7)
H1 H 0.226(3) 0.251(3) 0.0122(9)
H2 H 0.122(3) 0.309(2) -0.0568(9)
O6 O 0.2398(2) -0.2399(2) -0.04719(7)
H3 H 0.382(2) -0.268(3) -0.0613(10)
H4 H 0.189(3) -0.321(3) -0.0685(10)
O7 O 0.1474(2) 0.1218(2) 0.58230(7)
H5 H 0.222(3) 0.165(3) 0.6122(9)
H6 H 0.239(3) -0.002(2) 0.5679(10)
N1 N 0.1381(2) -0.0933(2) 0.10768(8)
N2 N 0.3064(2) -0.1744(2) 0.38109(8)
H7 H 0.36470 -0.19010 0.42300
H8 H 0.16750 -0.14610 0.37960
C1 C -0.1665(3) 0.6195(3) -0.13455(10)
C2 C -0.2240(3) 0.6309(3) -0.21448(10)
C3 C -0.0588(3) 0.5837(3) -0.26939(10)
H9 H 0.08590 0.54380 -0.25700
C4 C -0.1087(3) 0.5957(3) -0.34277(10)
H10 H 0.00230 0.56300 -0.37950
C5 C -0.3246(3) 0.6567(3) -0.36142(10)
C6 C -0.4913(3) 0.7031(3) -0.30633(10)
H11 H -0.63590 0.74270 -0.31870
C7 C -0.4407(3) 0.6900(3) -0.2332(1)
H12 H -0.55170 0.72060 -0.19640
C8 C 0.0137(3) -0.0686(3) 0.17118(10)
H13 H -0.13670 -0.02790 0.16830
C9 C 0.0981(3) -0.1008(3) 0.24058(10)
H14 H 0.00570 -0.08070 0.28300
C10 C 0.3216(3) -0.1633(3) 0.2461(1)
C11 C 0.4511(3) -0.1974(3) 0.18124(10)
H15 H 0.60180 -0.24480 0.18300
C12 C 0.3547(3) -0.1602(3) 0.11403(10)
H16 H 0.44400 -0.18270 0.07100
C13 C 0.4314(3) -0.1941(3) 0.31843(10)
C14 C -0.3744(3) 0.6684(3) -0.43957(11)
H17 H -0.251(3) 0.611(3) -0.4732(11)
O3A O -0.6316(2) 0.2347(2) -0.31750(7)
O5A O -0.1816(2) -0.2025(2) 0.02613(7)
H1A H -0.226(3) -0.251(3) -0.0122(9)
H2A H -0.122(3) -0.309(2) 0.0568(9)
O6A O -0.2398(2) 0.2399(2) 0.04719(7)
H3A H -0.382(2) 0.268(3) 0.0613(10)
H4A H -0.189(3) 0.321(3) 0.0685(10)
N1A N -0.1381(2) 0.0933(2) -0.10768(8)
N2A N -0.3064(2) 0.1744(2) -0.38109(8)
H7A H -0.36470 0.19010 -0.42300
H8A H -0.16750 0.14610 -0.37960
C8A C -0.0137(3) 0.0686(3) -0.17118(10)
H13A H 0.13670 0.02790 -0.16830
C9A C -0.0981(3) 0.1008(3) -0.24058(10)
H14A H -0.00570 0.08070 -0.28300
C10A C -0.3216(3) 0.1633(3) -0.2461(1)
C11A C -0.4511(3) 0.1974(3) -0.18124(10)
H15A H -0.60180 0.24480 -0.18300
C12A C -0.3547(3) 0.1602(3) -0.11403(10)
H16A H -0.44400 0.18270 -0.07100
C13A C -0.4314(3) 0.1941(3) -0.31843(10)
#END
