
#######################################################################
#
#                 Cambridge Crystallographic Data Centre
#                                CCDC
#
#######################################################################
#
# If this CIF has been generated from an entry in the Cambridge
# Structural Database, then it will include bibliographic, chemical,
# crystal, experimental, refinement or atomic coordinate data resulting
# from the CCDC's data processing and validation procedures.
#
#######################################################################

data_CSD_CIF_HUKXAM
_audit_creation_date 2003-02-11
_audit_creation_method CSD-ConQuest-V1
_database_code_CSD HUKXAM
_database_code_depnum_ccdc_archive 'CCDC 190152'
_chemical_formula_sum 'C27 H34 Fe1 N2 O5 S1'
_chemical_formula_moiety
;
C27 H34 Fe1 N2 O5 S1
;
_journal_coden_Cambridge 1090
_journal_volume 13
_journal_year 2002
_journal_page_first 2099
_journal_name_full 'Tetrahedron:Asymm. '
loop_
_publ_author_name
"O.Dogan"
"I.Oner"
"D.Ulku"
"C.Arici"
_chemical_name_systematic
;
(3aS-((2R*,3S*,5S*)-3a\a,6\a,7a\b))-3-Pyrrolidinecarboxylic acid 
2-ferrocenyl-5-(tetrahydro-8,8-dimethyl-3H-3a,6-methano-2,1-benzisothiazol-1(4
H)-carbonyl) methyl ester (S~S~)-dioxide
;
_chemical_melting_point 483.15
_cell_volume    628.530
_exptl_special_details
;
Melting point range 483.15-485.15K

;
_diffrn_ambient_temperature 293
#These two values have been output from a single CSD field.
_refine_ls_R_factor_gt 0.0262
_refine_ls_wR_factor_gt 0.0262
_symmetry_cell_setting triclinic
_symmetry_space_group_name_H-M 'P 1'
_symmetry_Int_Tables_number 1
loop_
_symmetry_equiv_pos_site_id
_symmetry_equiv_pos_as_xyz
1 x,y,z
_cell_length_a 7.5993(12)
_cell_length_b 7.9050(11)
_cell_length_c 11.3964(12)
_cell_angle_alpha 77.128(3)
_cell_angle_beta 73.002(2)
_cell_angle_gamma 76.867(2)
_cell_formula_units_Z 1
loop_
_atom_type_symbol
_atom_type_radius_bond
C 0.68
H 0.23
Fe 1.34
N 0.68
O 0.68
S 1.02
loop_
_atom_site_label
_atom_site_type_symbol
_atom_site_fract_x
_atom_site_fract_y
_atom_site_fract_z
C1 C -0.0477(6) 0.8095(5) 0.8923(3)
H1 H -0.07220 0.81170 0.98130
C2 C 0.1058(5) 0.7090(5) 0.8218(4)
H2 H 0.20810 0.63030 0.85290
C3 C 0.0897(5) 0.7413(5) 0.6969(4)
H3 H 0.17870 0.68970 0.62720
C4 C -0.0762(6) 0.8624(4) 0.6918(3)
H4 H -0.12440 0.90890 0.61780
C5 C -0.1628(5) 0.9054(4) 0.8138(3)
H5 H -0.28070 0.98590 0.83830
C6 C -0.1157(5) 0.3966(4) 0.7731(3)
H6 H -0.01630 0.34050 0.70970
C7 C -0.1165(5) 0.3812(4) 0.9002(3)
H7 H -0.01780 0.31230 0.93940
C8 C -0.2838(5) 0.4843(4) 0.9603(3)
H8 H -0.32110 0.49830 1.04800
C9 C -0.3876(4) 0.5624(4) 0.8710(3)
H9 H -0.50880 0.64130 0.88620
C10 C -0.2841(4) 0.5097(4) 0.7540(3)
C11 C -0.3427(4) 0.5637(3) 0.6342(3)
H10 H -0.44260 0.66690 0.64110
C12 C -0.4106(4) 0.4183(4) 0.5950(2)
H11 H -0.48990 0.47880 0.53880
C13 C -0.2328(4) 0.3213(4) 0.5161(3)
H12 H -0.26150 0.26240 0.45960
H13 H -0.16160 0.23580 0.56780
C14 C -0.1271(4) 0.4744(4) 0.4446(3)
H14 H -0.16360 0.52330 0.36650
C15 C -0.5247(4) 0.3023(4) 0.6982(3)
C16 C -0.6406(6) 0.0366(5) 0.7499(4)
H15 H -0.62440 -0.06930 0.71710
H16 H -0.76790 0.09590 0.75990
H17 H -0.61110 0.00740 0.82910
C17 C 0.0795(4) 0.4060(4) 0.4171(3)
C18 C 0.3482(4) 0.2113(4) 0.3038(3)
H18 H 0.43500 0.29440 0.28410
C19 C 0.3876(5) 0.0631(5) 0.4115(3)
H19 H 0.47670 0.08820 0.44850
H20 H 0.27360 0.04560 0.47550
C20 C 0.4690(6) -0.0970(5) 0.3456(4)
H21 H 0.47480 -0.21000 0.40240
C21 C 0.3415(5) -0.0756(4) 0.2589(3)
C22 C 0.3865(4) 0.1116(4) 0.1942(3)
C23 C 0.2800(6) 0.2224(6) 0.1031(3)
H22 H 0.23590 0.14760 0.06490
H23 H 0.35990 0.29350 0.03810
C24 C 0.6552(6) -0.0671(6) 0.2559(5)
H24 H 0.72540 -0.17530 0.22700
H25 H 0.72940 -0.02340 0.29510
C25 C 0.6022(5) 0.0707(5) 0.1483(4)
H26 H 0.64130 0.02330 0.07140
H27 H 0.65670 0.17510 0.13590
C26 C 0.1359(6) -0.0843(6) 0.3258(5)
H28 H 0.06570 -0.06850 0.26530
H29 H 0.08640 0.00720 0.37570
H30 H 0.12710 -0.19690 0.37830
C27 C 0.4056(8) -0.2089(6) 0.1671(5)
H31 H 0.31940 -0.18710 0.11620
H32 H 0.40920 -0.32660 0.21310
H33 H 0.52790 -0.19540 0.11510
Fe1 Fe -0.13213(3) 0.63856(2) 0.81650(2)
N1 N -0.1862(4) 0.6083(3) 0.5259(2)
H34 H -0.13660 0.70060 0.51240
N2 N 0.1547(4) 0.3067(3) 0.3218(2)
O1 O -0.0872(4) 0.3059(4) 0.2076(3)
O2 O 0.0946(5) 0.5418(4) 0.1386(3)
O3 O -0.6169(5) 0.3406(4) 0.7964(3)
O4 O -0.5184(4) 0.1503(3) 0.6653(2)
O5 O 0.1770(3) 0.4210(4) 0.4807(2)
S1 S 0.08628(13) 0.36087(10) 0.18791(6)
#END
