
#######################################################################
#
#                 Cambridge Crystallographic Data Centre
#                                CCDC
#
#######################################################################
#
# If this CIF has been generated from an entry in the Cambridge
# Structural Database, then it will include bibliographic, chemical,
# crystal, experimental, refinement or atomic coordinate data resulting
# from the CCDC's data processing and validation procedures.
#
#######################################################################

data_CSD_CIF_HUTLIT
_audit_creation_date 2015-11-12
_audit_creation_method CSD-ConQuest-V1
_database_code_CSD HUTLIT
_database_code_depnum_ccdc_archive 'CCDC 1054717'
_chemical_formula_sum 'C12 H16 Co1 N2 O8'
_chemical_formula_moiety
;
C12 H12 Co1 N2 O6,2(H2 O1)
;
_journal_coden_Cambridge 682
_journal_volume 168
_journal_year 2015
_journal_page_first 138
_journal_name_full 'Mater.Chem.Phys. '
loop_
_publ_author_name
"O.Tamer"
"D.Avci"
"Y.Atalay"
_chemical_name_systematic
;
diaqua-bis(pyridine-2-carboxylato)-cobalt(ii) dihydrate
;
_cell_volume    726.083
_exptl_crystal_colour 'yellow'
_exptl_crystal_density_diffrn 1.716
_exptl_crystal_description 'block'
_diffrn_ambient_temperature 120
#These two values have been output from a single CSD field.
_refine_ls_R_factor_gt 0.0233
_refine_ls_wR_factor_gt 0.0233
_symmetry_cell_setting monoclinic
_symmetry_space_group_name_H-M 'P 21/n'
_symmetry_Int_Tables_number 14
loop_
_symmetry_equiv_pos_site_id
_symmetry_equiv_pos_as_xyz
1 x,y,z
2 1/2-x,1/2+y,1/2-z
3 -x,-y,-z
4 -1/2+x,-1/2-y,-1/2+z
_cell_length_a 9.7811(4)
_cell_length_b 5.1211(2)
_cell_length_c 14.4960(5)
_cell_angle_alpha 90
_cell_angle_beta 90.439(2)
_cell_angle_gamma 90
_cell_formula_units_Z 2
loop_
_atom_type_symbol
_atom_type_radius_bond
C 0.68
H 0.23
Co 1.26
N 0.68
O 0.68
loop_
_atom_site_label
_atom_site_type_symbol
_atom_site_fract_x
_atom_site_fract_y
_atom_site_fract_z
C1 C 0.25323(15) 0.7923(3) 0.46957(9)
C2 C 0.21572(14) 0.6017(3) 0.54472(9)
C3 C 0.09075(15) 0.6171(3) 0.58857(10)
H1 H 0.02560 0.74640 0.57170
C4 C 0.06345(16) 0.4376(3) 0.65798(11)
H2 H -0.02060 0.44380 0.69030
C5 C 0.16026(16) 0.2497(3) 0.67947(10)
H3 H 0.14330 0.12450 0.72640
C6 C 0.28266(15) 0.2469(3) 0.63149(10)
H4 H 0.34850 0.11650 0.64600
Co1 Co 0.50000 0.50000 0.50000
N1 N 0.31126(12) 0.4212(2) 0.56559(8)
O1 O 0.16390(11) 0.9404(2) 0.43892(8)
O2 O 0.37752(10) 0.78596(19) 0.44208(7)
O3 O 0.53820(11) 0.7390(2) 0.61771(7)
H5 H 0.583(2) 0.663(4) 0.6569(13)
H6 H 0.571(2) 0.884(3) 0.6053(15)
O4 O 0.18311(14) 0.0166(2) 0.25666(8)
H7 H 0.174(2) 0.005(4) 0.3121(12)
H8 H 0.208(2) 0.166(3) 0.2456(15)
C1B C 0.74677(15) 0.2077(3) 0.53043(9)
C2B C 0.78428(14) 0.3983(3) 0.45528(9)
C3B C 0.90925(15) 0.3829(3) 0.41143(10)
H1B H 0.97440 0.25360 0.42830
C4B C 0.93655(16) 0.5624(3) 0.34202(11)
H2B H 1.02060 0.55620 0.30970
C5B C 0.83974(16) 0.7503(3) 0.32053(10)
H3B H 0.85670 0.87550 0.27360
C6B C 0.71734(15) 0.7531(3) 0.36851(10)
H4B H 0.65150 0.88350 0.35400
N1B N 0.68874(12) 0.5788(2) 0.43441(8)
O1B O 0.83610(11) 0.0596(2) 0.56108(8)
O2B O 0.62248(10) 0.21404(19) 0.55792(7)
O3B O 0.46180(11) 0.2610(2) 0.38229(7)
H5B H 0.417(2) 0.337(4) 0.3431(13)
H6B H 0.429(2) 0.116(3) 0.3947(15)
#END
