
#######################################################################
#
#                 Cambridge Crystallographic Data Centre
#                                CCDC
#
#######################################################################
#
# If this CIF has been generated from an entry in the Cambridge
# Structural Database, then it will include bibliographic, chemical,
# crystal, experimental, refinement or atomic coordinate data resulting
# from the CCDC's data processing and validation procedures.
#
#######################################################################

data_CSD_CIF_HUWFOV
_audit_creation_date 2010-12-14
_audit_creation_method CSD-ConQuest-V1
_database_code_CSD HUWFOV
_database_code_depnum_ccdc_archive 'CCDC 790781'
_chemical_formula_sum 'C12 H8 Fe1 I2 N2 O2'
_chemical_formula_moiety
;
C12 H8 Fe1 I2 N2 O2
;
_journal_coden_Cambridge 9
_journal_volume 48
_journal_year 2009
_journal_page_first 11283
_journal_name_full 'Inorg.Chem. '
loop_
_publ_author_name
"Bin Li"
"Tianbiao Liu"
"C.V.Popescu"
"A.Bilko"
"M.Y.Darensbourg"
_chemical_name_systematic
;
(2,2'-Bipyridine)-dicarbonyl-bis(iodo)-iron
;
_cell_volume    735.914
_exptl_crystal_colour 'dark red'
_exptl_crystal_density_diffrn 2.355
_exptl_crystal_description 'block'
_exptl_crystal_preparation 'dichloromethane/hexane'
_diffrn_ambient_temperature 163
#These two values have been output from a single CSD field.
_refine_ls_R_factor_gt 0.0282
_refine_ls_wR_factor_gt 0.0282
_symmetry_cell_setting triclinic
_symmetry_space_group_name_H-M 'P -1'
_symmetry_Int_Tables_number 2
loop_
_symmetry_equiv_pos_site_id
_symmetry_equiv_pos_as_xyz
1 x,y,z
2 -x,-y,-z
_cell_length_a 7.141(4)
_cell_length_b 8.833(5)
_cell_length_c 11.710(7)
_cell_angle_alpha 92.686(9)
_cell_angle_beta 91.890(9)
_cell_angle_gamma 93.559(9)
_cell_formula_units_Z 2
loop_
_atom_type_symbol
_atom_type_radius_bond
C 0.68
H 0.23
Fe 1.49
I 1.40
N 0.68
O 0.68
loop_
_atom_site_label
_atom_site_type_symbol
_atom_site_fract_x
_atom_site_fract_y
_atom_site_fract_z
I1 I 0.21070(4) 0.42219(3) 0.40901(2)
I2 I 0.52050(4) 0.24380(3) 0.02932(2)
Fe1 Fe 0.36797(6) 0.32125(5) 0.22267(4)
O1 O 0.6538(4) 0.5731(3) 0.2501(3)
O2 O 0.1166(4) 0.5131(3) 0.1022(3)
N1 N 0.1925(4) 0.1356(3) 0.2057(2)
N2 N 0.5188(4) 0.1776(3) 0.3085(2)
C1 C 0.5419(5) 0.4750(4) 0.2391(3)
C2 C 0.2167(5) 0.4385(4) 0.1460(3)
C3 C 0.0220(5) 0.1241(4) 0.1528(3)
H1 H -0.02730 0.21300 0.12430
C4 C -0.0845(6) -0.0123(5) 0.1381(4)
H2 H -0.20430 -0.01660 0.09990
C5 C -0.0149(6) -0.1411(5) 0.1795(4)
H3 H -0.08540 -0.23590 0.16930
C6 C 0.1573(6) -0.1320(4) 0.2358(4)
H4 H 0.20600 -0.21980 0.26640
C7 C 0.2598(5) 0.0076(4) 0.2474(3)
C8 C 0.4447(5) 0.0323(4) 0.3056(3)
C9 C 0.5385(5) -0.0819(4) 0.3567(4)
H5 H 0.48580 -0.18350 0.35240
C10 C 0.7075(6) -0.0462(5) 0.4133(4)
H6 H 0.77290 -0.12270 0.44910
C11 C 0.7820(6) 0.1020(5) 0.4178(4)
H7 H 0.89890 0.12920 0.45670
C12 C 0.6830(5) 0.2100(5) 0.3647(3)
H8 H 0.73420 0.31210 0.36840
#END
