
#######################################################################
#
#                 Cambridge Crystallographic Data Centre
#                                CCDC
#
#######################################################################
#
# If this CIF has been generated from an entry in the Cambridge
# Structural Database, then it will include bibliographic, chemical,
# crystal, experimental, refinement or atomic coordinate data resulting
# from the CCDC's data processing and validation procedures.
#
#######################################################################

data_CSD_CIF_HUXJIT
_audit_creation_date 2003-06-11
_audit_creation_method CSD-ConQuest-V1
_database_code_CSD HUXJIT
_database_code_depnum_ccdc_archive 'CCDC 139970'
_chemical_formula_sum 'C13 H17 B1 Cl3 Fe1 N1'
_chemical_formula_moiety
;
C13 H17 B1 Cl3 Fe1 N1
;
_journal_coden_Cambridge 180
_journal_volume 342
_journal_year 2000
_journal_page_first 666
_journal_name_full 'J.Prakt.Chem.-Chem.-Zeitung '
loop_
_publ_author_name
"F.Voigt"
"K.Jacob"
"N.Seidel"
"A.Fischer"
"C.Pietzsch"
"P.Zanello"
_chemical_name_systematic
;
((ferrocenyl)methyl(dimethyl)amine)-trichloro-boron
;
_chemical_melting_point 433.15
_cell_volume    765.192
_exptl_crystal_colour 'yellow'
_exptl_crystal_density_diffrn 1.564
_exptl_special_details
;
Melts with decomposition.

;
_exptl_crystal_description 'plate'
_diffrn_ambient_temperature 173
#These two values have been output from a single CSD field.
_refine_ls_R_factor_gt 0.0282
_refine_ls_wR_factor_gt 0.0282
_symmetry_cell_setting monoclinic
_symmetry_space_group_name_H-M 'P 21/m'
_symmetry_Int_Tables_number 11
loop_
_symmetry_equiv_pos_site_id
_symmetry_equiv_pos_as_xyz
1 x,y,z
2 -x,1/2+y,-z
3 -x,-y,-z
4 x,-1/2-y,z
_cell_length_a 7.4017(4)
_cell_length_b 10.3953(5)
_cell_length_c 10.3161(5)
_cell_angle_alpha 90
_cell_angle_beta 105.416(1)
_cell_angle_gamma 90
_cell_formula_units_Z 2
loop_
_atom_type_symbol
_atom_type_radius_bond
C 0.68
H 0.23
B 0.83
Cl 0.99
Fe 1.34
N 0.68
loop_
_atom_site_label
_atom_site_type_symbol
_atom_site_fract_x
_atom_site_fract_y
_atom_site_fract_z
Fe1 Fe 0.06683(4) 0.25000 0.14148(3)
Cl1 Cl 0.64193(8) 0.10617(5) 0.63482(5)
Cl2 Cl 0.53316(10) 0.25000 0.85439(6)
N1 N 0.3071(2) 0.25000 0.5873(2)
B1 B 0.5239(3) 0.25000 0.6762(2)
C1 C 0.1056(3) 0.25000 0.3435(2)
C2 C 0.0004(2) 0.13866(15) 0.28475(15)
H1 H 0.0360(2) 0.05163(15) 0.30508(15)
C3 C -0.1667(2) 0.1814(2) 0.1907(2)
H2 H -0.2616(2) 0.1278(2) 0.1372(2)
C4 C 0.3281(3) 0.25000 0.1114(3)
H3 H 0.4425(3) 0.25000 0.1802(3)
C5 C 0.2283(3) 0.1400(2) 0.0514(2)
H4 H 0.2642(3) 0.0531(2) 0.0720(2)
C6 C 0.0651(3) 0.1824(2) -0.0451(2)
H5 H -0.0282(3) 0.1288(2) -0.1003(2)
C7 C 0.2987(3) 0.25000 0.4370(2)
H6 H 0.3662(3) 0.32680 0.4176(2)
H7 H 0.3662(3) 0.17320 0.4176(2)
C8 C 0.2077(3) 0.1332(2) 0.6182(2)
H8 H 0.2681(11) 0.0557(2) 0.5953(12)
H9 H 0.0764(5) 0.1354(6) 0.5654(10)
H10 H 0.2136(16) 0.1320(7) 0.7143(3)
C2C C 0.0004(2) 0.36134(15) 0.28475(15)
Cl1C Cl 0.64193(8) 0.39383(5) 0.63482(5)
C8C C 0.2077(3) 0.3668(2) 0.6182(2)
H8C H 0.2681(11) 0.4443(2) 0.5953(12)
H9C H 0.0764(5) 0.3646(6) 0.5654(10)
H10C H 0.2136(16) 0.3680(7) 0.7143(3)
H1C H 0.0360(2) 0.44837(15) 0.30508(15)
C3C C -0.1667(2) 0.3186(2) 0.1907(2)
H2C H -0.2616(2) 0.3722(2) 0.1372(2)
C5C C 0.2283(3) 0.3600(2) 0.0514(2)
H4C H 0.2642(3) 0.4469(2) 0.0720(2)
C6C C 0.0651(3) 0.3176(2) -0.0451(2)
H5C H -0.0282(3) 0.3712(2) -0.1003(2)
#END
