
#######################################################################
#
#                 Cambridge Crystallographic Data Centre
#                                CCDC
#
#######################################################################
#
# If this CIF has been generated from an entry in the Cambridge
# Structural Database, then it will include bibliographic, chemical,
# crystal, experimental, refinement or atomic coordinate data resulting
# from the CCDC's data processing and validation procedures.
#
#######################################################################

data_CSD_CIF_IBASOW
_audit_creation_date 2016-11-16
_audit_creation_method CSD-ConQuest-V1
_database_code_CSD IBASOW
_database_code_depnum_ccdc_archive 'CCDC 979310'
_chemical_formula_sum 'C10 H19 Co1 N2 O11'
_chemical_formula_moiety
;
C10 H15 Co1 N2 O9,2(H2 O1)
;
_journal_coden_Cambridge 1489
_journal_volume 606
_journal_year 2015
_journal_page_first 237
_journal_name_full 'Mol.Cryst.Liq.Cryst. '
loop_
_publ_author_name
"R.K.Mudsainiyan"
"S.K.Chawla"
_chemical_name_systematic
;
aqua-(2,2'-((2-((carboxylatomethyl)(carboxymethyl)amino)ethyl)azanediyl)diacet
ato)-cobalt dihydrate
;
_cell_volume    781.360
_exptl_crystal_colour 'pink'
_exptl_crystal_density_diffrn 1.709
_exptl_crystal_description 'Rectangular'
_diffrn_ambient_temperature 296
#These two values have been output from a single CSD field.
_refine_ls_R_factor_gt 0.0581
_refine_ls_wR_factor_gt 0.0581
_symmetry_cell_setting triclinic
_symmetry_space_group_name_H-M 'P -1'
_symmetry_Int_Tables_number 2
loop_
_symmetry_equiv_pos_site_id
_symmetry_equiv_pos_as_xyz
1 x,y,z
2 -x,-y,-z
_cell_length_a 7.463(5)
_cell_length_b 7.791(5)
_cell_length_c 13.885(8)
_cell_angle_alpha 79.37(3)
_cell_angle_beta 82.84(3)
_cell_angle_gamma 81.81(3)
_cell_formula_units_Z 2
loop_
_atom_type_symbol
_atom_type_radius_bond
C 0.68
H 0.23
Co 1.26
N 0.68
O 0.68
loop_
_atom_site_label
_atom_site_type_symbol
_atom_site_fract_x
_atom_site_fract_y
_atom_site_fract_z
C1 C 0.6668(5) 0.4234(5) 0.2328(3)
H1 H 0.69390 0.43830 0.16180
H2 H 0.70270 0.30110 0.25990
C2 C 0.7735(5) 0.5408(5) 0.2741(3)
H3 H 0.75500 0.51800 0.34550
H4 H 0.90230 0.51430 0.25440
C3 C 0.3608(6) 0.4131(5) 0.1881(3)
H5 H 0.24710 0.37880 0.22320
H6 H 0.42790 0.31080 0.16400
C4 C 0.3195(6) 0.5560(6) 0.1012(3)
C5 C 0.7932(6) 0.7838(5) 0.1356(3)
H7 H 0.78790 0.69320 0.09700
H8 H 0.91980 0.79940 0.13580
C6 C 0.6888(6) 0.9547(5) 0.0906(3)
C7 C 0.4109(6) 0.3915(6) 0.3602(3)
H9 H 0.50290 0.39780 0.40260
H10 H 0.39610 0.26870 0.36380
C8 C 0.2308(6) 0.4926(6) 0.3947(3)
C9 C 0.7605(6) 0.8446(6) 0.3027(3)
H11 H 0.79030 0.95530 0.26350
H12 H 0.86700 0.78770 0.33470
C10 C 0.6062(6) 0.8798(5) 0.3794(3)
N1 N 0.4685(4) 0.4690(4) 0.2580(2)
N2 N 0.7127(5) 0.7304(4) 0.2371(2)
O1 O 0.2464(6) 0.5220(5) 0.0331(3)
O2 O 0.3586(5) 0.7095(4) 0.1063(2)
O3 O 0.2007(5) 0.9706(5) 0.2364(3)
H13 H 0.158(8) 1.046(6) 0.192(3)
H14 H 0.156(8) 1.004(7) 0.287(2)
O4 O 0.5354(4) 1.0027(4) 0.1224(2)
O5 O 0.7813(5) 1.0378(5) 0.0143(3)
H15 H 0.718(7) 1.126(5) -0.012(4)
O6 O 0.1453(5) 0.4176(5) 0.4728(3)
O7 O 0.1812(4) 0.6378(4) 0.3470(2)
O8 O 0.6374(5) 0.9694(4) 0.4434(2)
O9 O 0.4577(4) 0.8266(5) 0.3781(3)
Co1 Co 0.40663(8) 0.76208(7) 0.24221(4)
O10 O 0.0319(5) 1.2494(5) 0.1120(3)
H16 H -0.065(4) 1.273(7) 0.088(4)
H17 H 0.093(6) 1.326(6) 0.084(4)
O11 O -0.0073(8) 1.1260(8) 0.3931(4)
H18 H 0.091(4) 1.107(11) 0.417(4)
H19 H -0.075(5) 1.178(11) 0.434(4)
#END
