
#######################################################################
#
#                 Cambridge Crystallographic Data Centre
#                                CCDC
#
#######################################################################
#
# If this CIF has been generated from an entry in the Cambridge
# Structural Database, then it will include bibliographic, chemical,
# crystal, experimental, refinement or atomic coordinate data resulting
# from the CCDC's data processing and validation procedures.
#
#######################################################################

data_CSD_CIF_IBEDOI
_audit_creation_date 2001-10-05
_audit_creation_method CSD-ConQuest-V1
_database_code_CSD IBEDOI
_database_code_depnum_ccdc_archive 'CCDC 170561'
_chemical_formula_sum 'C18 H23 Cr1 N1 O4'
_chemical_formula_moiety
;
C18 H23 Cr1 N1 O4
;
_journal_coden_Cambridge 1336
_journal_volume 2
_journal_year 2000
_journal_page_first 1907
_journal_name_full 'Org.Lett. '
loop_
_publ_author_name
"T.Hata"
"H.Koide"
"N.Taniguchi"
"M.Uemura"
_chemical_name_systematic
;
(S~p~,R~ax~)-(-)-Tricarbonyl-(\h^6^-N-methyl-N-pivaloyl-2-methyl-6-ethylanilin
e)-chromium
;
_cell_volume    935.875
_exptl_crystal_colour 'yellow'
_exptl_crystal_density_diffrn 1.311
_exptl_crystal_description 'prism'
_diffrn_ambient_temperature 296
#These two values have been output from a single CSD field.
_refine_ls_R_factor_gt 0.031
_refine_ls_wR_factor_gt 0.031
_symmetry_cell_setting monoclinic
_symmetry_space_group_name_H-M 'P 21'
_symmetry_Int_Tables_number 4
loop_
_symmetry_equiv_pos_site_id
_symmetry_equiv_pos_as_xyz
1 x,y,z
2 -x,1/2+y,-z
_cell_length_a 7.880(1)
_cell_length_b 11.640(2)
_cell_length_c 10.206(1)
_cell_angle_alpha 90
_cell_angle_beta 91.33(1)
_cell_angle_gamma 90
_cell_formula_units_Z 2
loop_
_atom_type_symbol
_atom_type_radius_bond
C 0.68
H 0.23
Cr 1.35
N 0.68
O 0.68
loop_
_atom_site_label
_atom_site_type_symbol
_atom_site_fract_x
_atom_site_fract_y
_atom_site_fract_z
Cr1 Cr -0.13815(6) -0.00570 -0.11169(4)
O1 O -0.4601(4) 0.1164(2) -0.4915(3)
O2 O -0.3205(5) -0.2095(3) -0.0071(3)
O3 O 0.0527(5) 0.0049(5) 0.1434(3)
O4 O 0.1175(4) -0.1731(3) -0.2075(3)
N1 N -0.3621(3) -0.0408(2) -0.3931(2)
C1 C -0.2911(4) 0.0342(3) -0.2938(3)
C2 C -0.3880(4) 0.0655(3) -0.1844(3)
C3 C -0.3154(5) 0.1418(4) -0.0905(4)
C4 C -0.1523(6) 0.1842(4) -0.1045(4)
C5 C -0.0581(5) 0.1537(3) -0.2139(4)
C6 C -0.1251(4) 0.0781(3) -0.3090(3)
C7 C -0.5680(4) 0.0242(4) -0.1713(4)
C8 C -0.0196(4) 0.0476(4) -0.4253(4)
C9 C -0.0286(7) 0.1408(5) -0.5289(4)
C10 C -0.3589(5) -0.1643(3) -0.3669(4)
C11 C -0.4374(4) 0.0128(3) -0.4985(3)
C12 C -0.4901(5) -0.0533(3) -0.6236(3)
C13 C -0.3514(6) -0.1364(5) -0.6691(4)
C14 C -0.5191(8) 0.0365(4) -0.7327(4)
C15 C -0.6575(5) -0.1172(4) -0.6023(4)
C16 C -0.2524(6) -0.1293(4) -0.0455(4)
C17 C -0.0187(5) 0.0000(6) 0.0459(3)
C18 C 0.0195(5) -0.1081(4) -0.1704(4)
H1 H -0.37470 0.15470 -0.00960
H2 H -0.09790 0.22530 -0.03330
H3 H 0.05890 0.17190 -0.21380
H4 H -0.61670 0.05420 -0.09440
H5 H -0.63660 0.05230 -0.24600
H6 H -0.57390 -0.05650 -0.17150
H7 H 0.01800 0.21160 -0.49170
H8 H 0.03710 0.12260 -0.60350
H9 H -0.14210 0.15710 -0.55750
H10 H 0.09250 0.03040 -0.39910
H11 H -0.06790 -0.02390 -0.46450
H12 H -0.42410 -0.17960 -0.28820
H13 H -0.41010 -0.20540 -0.43670
H14 H -0.24700 -0.19020 -0.35030
H15 H -0.32600 -0.19160 -0.60730
H16 H -0.38500 -0.17060 -0.75140
H17 H -0.24990 -0.09070 -0.68610
H18 H -0.42460 0.07910 -0.74890
H19 H -0.56170 -0.00020 -0.81260
H20 H -0.61210 0.08870 -0.70710
H21 H -0.74280 -0.06630 -0.57840
H22 H -0.69190 -0.15520 -0.68370
H23 H -0.64110 -0.17530 -0.53770
#END
