
#######################################################################
#
#                 Cambridge Crystallographic Data Centre
#                                CCDC
#
#######################################################################
#
# If this CIF has been generated from an entry in the Cambridge
# Structural Database, then it will include bibliographic, chemical,
# crystal, experimental, refinement or atomic coordinate data resulting
# from the CCDC's data processing and validation procedures.
#
#######################################################################

data_CSD_CIF_IBUVUW
_audit_creation_date 2001-10-05
_audit_creation_method CSD-ConQuest-V1
_database_code_CSD IBUVUW
_database_code_depnum_ccdc_archive 'CCDC 169028'
_chemical_formula_sum 'C28 H20 Fe1 N18'
_chemical_formula_moiety
;
C28 H20 Fe1 N18
;
_journal_coden_Cambridge 9
_journal_volume 40
_journal_year 2001
_journal_page_first 3986
_journal_name_full 'Inorg.Chem. '
loop_
_publ_author_name
"N.Moliner"
"A.B.Gaspar"
"M.C.Munoz"
"V.Niel"
"J.Cano"
"J.A.Real"
_chemical_name_systematic
;
bis(4-Amino-3,5-bis(pyridin-2-yl)-1,2,4-triazole)-bis(dicyanamido)-iron(ii)
;
_cell_volume    710.440
_exptl_crystal_density_diffrn 1.553
_exptl_special_details
;
polymorph A

;
_diffrn_ambient_temperature 293
#These two values have been output from a single CSD field.
_refine_ls_R_factor_gt 0.034
_refine_ls_wR_factor_gt 0.034
_symmetry_cell_setting triclinic
_symmetry_space_group_name_H-M 'P -1'
_symmetry_Int_Tables_number 2
loop_
_symmetry_equiv_pos_site_id
_symmetry_equiv_pos_as_xyz
1 x,y,z
2 -x,-y,-z
_cell_length_a 8.4618(5)
_cell_length_b 9.6086(3)
_cell_length_c 9.6381(7)
_cell_angle_alpha 83.661(4)
_cell_angle_beta 86.642(5)
_cell_angle_gamma 65.821(4)
_cell_formula_units_Z 1
loop_
_atom_type_symbol
_atom_type_radius_bond
C 0.68
H 0.23
Fe 1.34
N 0.68
loop_
_atom_site_label
_atom_site_type_symbol
_atom_site_fract_x
_atom_site_fract_y
_atom_site_fract_z
Fe1 Fe 0.00000 0.50000 0.00000
N1 N -0.0047(2) 0.4187(2) 0.2133(2)
N2 N 0.0029(2) 0.1783(2) 0.6466(2)
N3 N 0.1232(2) 0.3333(2) 0.4124(2)
N4 N 0.1998(2) 0.5484(2) 0.0988(2)
C1 C 0.1264(2) 0.4104(2) 0.2871(2)
C2 C -0.0752(2) 0.2116(2) 0.5227(2)
N5 N 0.1909(2) 0.2758(2) -0.0406(2)
C3 C -0.0170(2) 0.2970(2) 0.4117(2)
N6 N -0.0958(2) 0.3489(2) 0.2911(2)
N7 N 0.2480(2) 0.2952(2) 0.5185(2)
H1 H 0.3419(37) 0.2167(32) 0.4916(29)
H2 H 0.1987(38) 0.2609(32) 0.5969(33)
C4 C 0.4168(3) -0.0386(2) -0.2078(2)
C5 C -0.2060(3) 0.1670(2) 0.4950(2)
H3 H -0.2533(32) 0.1943(28) 0.4092(27)
C6 C 0.2411(2) 0.4835(2) 0.2303(2)
C7 C -0.1761(3) 0.0460(3) 0.7251(2)
H4 H -0.2044(39) -0.0121(35) 0.7950(34)
N8 N 0.3354(3) 0.0090(2) -0.0913(2)
C8 C -0.2559(3) 0.0827(2) 0.5982(2)
H5 H -0.3377(31) 0.0551(26) 0.5860(25)
C9 C 0.2634(3) 0.1540(2) -0.0727(2)
C10 C 0.4610(3) 0.5763(3) 0.2360(3)
H6 H 0.5480(35) 0.5884(29) 0.2780(28)
C11 C 0.3735(3) 0.4939(2) 0.3014(2)
H7 H 0.3964(32) 0.4520(28) 0.3889(28)
C12 C 0.2850(3) 0.6291(2) 0.0384(2)
H8 H 0.2544(30) 0.6731(27) -0.0515(26)
C13 C -0.0489(3) 0.0964(3) 0.7444(2)
H9 H 0.0011(37) 0.0768(31) 0.8287(32)
C14 C 0.4153(3) 0.6470(3) 0.1042(3)
H10 H 0.4665(32) 0.7011(28) 0.0642(26)
N9 N 0.4876(3) -0.0980(2) -0.3027(2)
N1A N 0.0047(2) 0.5813(2) -0.2133(2)
N2A N -0.0029(2) 0.8217(2) -0.6466(2)
N3A N -0.1232(2) 0.6667(2) -0.4124(2)
N4A N -0.1998(2) 0.4516(2) -0.0988(2)
C1A C -0.1264(2) 0.5896(2) -0.2871(2)
C2A C 0.0752(2) 0.7884(2) -0.5227(2)
N5A N -0.1909(2) 0.7242(2) 0.0406(2)
C3A C 0.0170(2) 0.7030(2) -0.4117(2)
N6A N 0.0958(2) 0.6511(2) -0.2911(2)
N7A N -0.2480(2) 0.7048(2) -0.5185(2)
H1A H -0.3419(37) 0.7833(32) -0.4916(29)
H2A H -0.1987(38) 0.7391(32) -0.5969(33)
C4A C -0.4168(3) 1.0386(2) 0.2078(2)
C5A C 0.2060(3) 0.8330(2) -0.4950(2)
H3A H 0.2533(32) 0.8057(28) -0.4092(27)
C6A C -0.2411(2) 0.5165(2) -0.2303(2)
C7A C 0.1761(3) 0.9540(3) -0.7251(2)
H4A H 0.2044(39) 1.0121(35) -0.7950(34)
N8A N -0.3354(3) 0.9910(2) 0.0913(2)
C8A C 0.2559(3) 0.9173(2) -0.5982(2)
H5A H 0.3377(31) 0.9449(26) -0.5860(25)
C9A C -0.2634(3) 0.8460(2) 0.0727(2)
C10A C -0.4610(3) 0.4237(3) -0.2360(3)
H6A H -0.5480(35) 0.4116(29) -0.2780(28)
C11A C -0.3735(3) 0.5061(2) -0.3014(2)
H7A H -0.3964(32) 0.5480(28) -0.3889(28)
C12A C -0.2850(3) 0.3709(2) -0.0384(2)
H8A H -0.2544(30) 0.3269(27) 0.0515(26)
C13A C 0.0489(3) 0.9036(3) -0.7444(2)
H9A H -0.0011(37) 0.9232(31) -0.8287(32)
C14A C -0.4153(3) 0.3530(3) -0.1042(3)
H10A H -0.4665(32) 0.2989(28) -0.0642(26)
N9A N -0.4876(3) 1.0980(2) 0.3027(2)
#END
