
#######################################################################
#
#                 Cambridge Crystallographic Data Centre
#                                CCDC
#
#######################################################################
#
# If this CIF has been generated from an entry in the Cambridge
# Structural Database, then it will include bibliographic, chemical,
# crystal, experimental, refinement or atomic coordinate data resulting
# from the CCDC's data processing and validation procedures.
#
#######################################################################

data_CSD_CIF_ICEFAA
_audit_creation_date 2017-01-04
_audit_creation_method CSD-ConQuest-V1
_database_code_CSD ICEFAA
_database_code_depnum_ccdc_archive 'CCDC 1495858'
_chemical_formula_sum 'C21 H30 Mn1 N2'
_chemical_formula_moiety
;
C21 H30 Mn1 N2
;
_journal_coden_Cambridge 29
_journal_volume 642
_journal_year 2016
_journal_page_first 1259
_journal_name_full 'Z.Anorg.Allg.Chem. '
loop_
_publ_author_name
"M.D.Walter"
"D.Baabe"
"M.Freytag"
"P.G.Jones"
_chemical_name_systematic
;
bis(cyclopentadienyl)-(1,3-di-isopropyl-4,5-dimethylimidazol-2-ylidene)-mangan
ese
;
_cell_volume   3855.091
_exptl_crystal_colour 'colorless'
_exptl_crystal_density_diffrn 1.259
_exptl_crystal_description 'prism'
_diffrn_ambient_temperature 100
#These two values have been output from a single CSD field.
_refine_ls_R_factor_gt 0.021
_refine_ls_wR_factor_gt 0.021
_symmetry_cell_setting orthorhombic
_symmetry_space_group_name_H-M 'F d d 2'
_symmetry_Int_Tables_number 43
loop_
_symmetry_equiv_pos_site_id
_symmetry_equiv_pos_as_xyz
1 x,y,z
2 -x,-y,z
3 1/4+x,1/4-y,1/4+z
4 1/4-x,1/4+y,1/4+z
5 x,1/2+y,1/2+z
6 -x,1/2-y,1/2+z
7 1/4+x,3/4-y,3/4+z
8 1/4-x,3/4+y,3/4+z
9 1/2+x,y,1/2+z
10 1/2-x,-y,1/2+z
11 3/4+x,1/4-y,3/4+z
12 3/4-x,1/4+y,3/4+z
13 1/2+x,1/2+y,z
14 1/2-x,1/2-y,z
15 3/4+x,3/4-y,1/4+z
16 3/4-x,3/4+y,1/4+z
_cell_length_a 21.0262(12)
_cell_length_b 17.6824(11)
_cell_length_c 10.3689(7)
_cell_angle_alpha 90
_cell_angle_beta 90
_cell_angle_gamma 90
_cell_formula_units_Z 8
loop_
_atom_type_symbol
_atom_type_radius_bond
C 0.68
H 0.23
Mn 1.61
N 0.68
loop_
_atom_site_label
_atom_site_type_symbol
_atom_site_fract_x
_atom_site_fract_y
_atom_site_fract_z
Mn1 Mn 0.50000 0.50000 0.38182(3)
N1 N 0.53226(4) 0.54685(6) 0.09413(10)
C1 C 0.46448(6) 0.60531(8) 0.51186(15)
H1 H 0.49680 0.61940 0.57110
C2 C 0.42176(6) 0.54368(8) 0.52557(15)
H2 H 0.42010 0.50930 0.59590
C3 C 0.38224(6) 0.54269(8) 0.41605(15)
H3 H 0.34950 0.50700 0.39920
C4 C 0.39934(7) 0.60328(8) 0.33598(15)
H4 H 0.38000 0.61610 0.25620
C5 C 0.45023(7) 0.64176(7) 0.39459(16)
H5 H 0.47140 0.68490 0.36090
C6 C 0.50000 0.50000 0.17358(19)
C7 C 0.52067(6) 0.52985(7) -0.03492(13)
C8 C 0.57428(6) 0.60639(7) 0.14671(14)
H6 H 0.56870 0.60540 0.24250
C9 C 0.64410(6) 0.58914(9) 0.12108(16)
H7 H 0.65360 0.53720 0.14810
H8 H 0.67080 0.62440 0.17000
H9 H 0.65290 0.59460 0.02880
C10 C 0.55494(7) 0.68534(8) 0.10256(16)
H10 H 0.56730 0.69240 0.01230
H11 H 0.57630 0.72320 0.15620
H12 H 0.50880 0.69110 0.11080
C11 C 0.54783(6) 0.57104(8) -0.14794(13)
H13 H 0.53480 0.54580 -0.22780
H14 H 0.59440 0.57110 -0.14200
H15 H 0.53220 0.62330 -0.14820
N1A N 0.46774(4) 0.45315(6) 0.09413(10)
C7A C 0.47933(6) 0.47015(7) -0.03492(13)
C8A C 0.42572(6) 0.39361(7) 0.14671(14)
H6A H 0.43130 0.39460 0.24250
C9A C 0.35590(6) 0.41086(9) 0.12108(16)
H7A H 0.34640 0.46280 0.14810
H8A H 0.32920 0.37560 0.17000
H9A H 0.34710 0.40540 0.02880
C10A C 0.44506(7) 0.31466(8) 0.10256(16)
H10A H 0.43270 0.30760 0.01230
H11A H 0.42370 0.27680 0.15620
H12A H 0.49120 0.30890 0.11080
C11A C 0.45217(6) 0.42896(8) -0.14794(13)
H13A H 0.46520 0.45420 -0.22780
H14A H 0.40560 0.42890 -0.14200
H15A H 0.46780 0.37670 -0.14820
C1A C 0.53552(6) 0.39469(8) 0.51186(15)
H1A H 0.50320 0.38060 0.57110
C2A C 0.57824(6) 0.45632(8) 0.52557(15)
H2A H 0.57990 0.49070 0.59590
C3A C 0.61776(6) 0.45731(8) 0.41605(15)
H3A H 0.65050 0.49300 0.39920
C4A C 0.60066(7) 0.39672(8) 0.33598(15)
H4A H 0.62000 0.38390 0.25620
C5A C 0.54977(7) 0.35824(7) 0.39459(16)
H5A H 0.52860 0.31510 0.36090
#END
