
#######################################################################
#
#                 Cambridge Crystallographic Data Centre
#                                CCDC
#
#######################################################################
#
# If this CIF has been generated from an entry in the Cambridge
# Structural Database, then it will include bibliographic, chemical,
# crystal, experimental, refinement or atomic coordinate data resulting
# from the CCDC's data processing and validation procedures.
#
#######################################################################

data_CSD_CIF_ICPNMN
_audit_creation_date 1981-02-05
_audit_creation_method CSD-ConQuest-V1
_database_code_CSD ICPNMN
_chemical_formula_sum 'C7 H7 I1 Mn1 N1 O1 S1'
_chemical_formula_moiety
;
C7 H7 I1 Mn1 N1 O1 S1
;
_journal_coeditor_code "IUCr A19030"
_journal_coden_Cambridge 107
_journal_volume 36
_journal_year 1980
_journal_page_first 1933
_journal_name_full 'Acta Crystallogr.,Sect.B:Struct.Crystallogr.Cryst.Chem. '
loop_
_publ_author_name
"J.A.Potenza"
"R.Johnson"
"S.Rudich"
"A.Efraty"
_chemical_name_systematic
;
Iodo-(\h^5^-methylcyclopentadienyl)-nitrosyl-(thiocarbonyl)-manganese (ii)
;
_cell_volume   1029.085
_exptl_crystal_colour 'black'
_exptl_crystal_density_diffrn 2.17
_diffrn_ambient_temperature ?
_diffrn_special_details
;
The study was carried out at room temperature,in the range 283-303K

;
#These two values have been output from a single CSD field.
_refine_ls_R_factor_gt 0.036
_refine_ls_wR_factor_gt 0.036
_symmetry_cell_setting monoclinic
_symmetry_space_group_name_H-M 'P 21/a'
_symmetry_Int_Tables_number 14
loop_
_symmetry_equiv_pos_site_id
_symmetry_equiv_pos_as_xyz
1 x,y,z
2 1/2-x,1/2+y,-z
3 -x,-y,-z
4 -1/2+x,-1/2-y,z
_cell_length_a 12.811(9)
_cell_length_b 8.078(8)
_cell_length_c 12.435(18)
_cell_angle_alpha 90
_cell_angle_beta 126.90(3)
_cell_angle_gamma 90
_cell_formula_units_Z 4
loop_
_atom_type_symbol
_atom_type_radius_bond
C 0.68
H 0.23
I 1.40
Mn 1.35
N 0.68
O 0.68
S 1.02
loop_
_atom_site_label
_atom_site_type_symbol
_atom_site_fract_x
_atom_site_fract_y
_atom_site_fract_z
I1 I 0.50245 0.71008 0.20531
Mn1 Mn 0.63159 0.42700 0.29582
S1 S 0.37890 0.21190 0.04900
O1 O 0.58330 0.36850 0.48680
N1 N 0.60070 0.39690 0.40520
C1 C 0.75000 0.26950 0.26840
C2 C 0.81540 0.30200 0.40660
C3 C 0.83890 0.47720 0.42780
C4 C 0.78890 0.54920 0.30430
C5 C 0.73160 0.42450 0.20610
C6 C 0.71900 0.10240 0.20480
C7 C 0.49190 0.31560 0.15900
H1 H 0.84400 0.22300 0.47500
H2 H 0.88200 0.53400 0.51200
H3 H 0.79100 0.66500 0.29100
H4 H 0.69200 0.44200 0.11400
H5 H 0.67200 0.03300 0.23300
H6 H 0.65800 0.12100 0.09900
H7 H 0.80800 0.04900 0.23400
#END
