
#######################################################################
#
#                 Cambridge Crystallographic Data Centre
#                                CCDC
#
#######################################################################
#
# If this CIF has been generated from an entry in the Cambridge
# Structural Database, then it will include bibliographic, chemical,
# crystal, experimental, refinement or atomic coordinate data resulting
# from the CCDC's data processing and validation procedures.
#
#######################################################################

data_CSD_CIF_ICUNOK01
_audit_creation_date 2011-03-31
_audit_creation_method CSD-ConQuest-V1
_database_code_CSD ICUNOK01
_database_code_depnum_ccdc_archive 'CCDC 685671'
_chemical_formula_sum 'C7 H17 Co1 N1 O11'
_chemical_formula_moiety
;
C7 H13 Co1 N1 O9,2(H2 O1)
;
_journal_coden_Cambridge 1295
_journal_volume 13
_journal_year 2010
_journal_page_first 1178
_journal_name_full 'Inorg.Chem.Commun. '
loop_
_publ_author_name
"Jing-cai Yao"
"Jin-bo Guo"
"Jian-ge Wang"
"Yu-fang Wang"
"Li Zhang"
"Cui-ping Fan"
_chemical_name_systematic
;
Pentaaqua-(pyridine-3,5-dicarboxylate)-cobalt(ii) dihydrate
;
_cell_volume   1306.287
_exptl_crystal_colour 'pink'
_exptl_crystal_density_diffrn 1.78
_exptl_crystal_description 'block'
_diffrn_ambient_temperature 291
#These two values have been output from a single CSD field.
_refine_ls_R_factor_gt 0.0271
_refine_ls_wR_factor_gt 0.0271
_symmetry_cell_setting orthorhombic
_symmetry_space_group_name_H-M 'C m c 21'
_symmetry_Int_Tables_number 36
loop_
_symmetry_equiv_pos_site_id
_symmetry_equiv_pos_as_xyz
1 x,y,z
2 -x,-y,1/2+z
3 x,-y,1/2+z
4 -x,y,z
5 1/2+x,1/2+y,z
6 1/2-x,1/2-y,1/2+z
7 1/2+x,1/2-y,1/2+z
8 1/2-x,1/2+y,z
_cell_length_a 11.762(2)
_cell_length_b 15.885(2)
_cell_length_c 6.9915(12)
_cell_angle_alpha 90
_cell_angle_beta 90
_cell_angle_gamma 90
_cell_formula_units_Z 4
loop_
_atom_type_symbol
_atom_type_radius_bond
C 0.68
H 0.23
Co 1.26
N 0.68
O 0.68
loop_
_atom_site_label
_atom_site_type_symbol
_atom_site_fract_x
_atom_site_fract_y
_atom_site_fract_z
Co1 Co 0.00000 0.17200(3) 0.19130(12)
O1 O 0.2109(2) 0.56222(14) 0.1237(7)
O2 O 0.30476(18) 0.44350(13) 0.1363(4)
O3 O 0.1301(3) 0.18037(14) 0.3920(4)
H1 H 0.15730 0.13760 0.44040
H2 H 0.13890 0.22170 0.46190
O4 O 0.1273(4) 0.16108(18) -0.0182(6)
H3 H 0.14320 0.11910 -0.08340
H4 H 0.10240 0.19920 -0.08700
O5 O 0.00000 0.03986(16) 0.2258(6)
H5 H 0.05510 0.01800 0.17300
O6 O 0.1154(2) 0.71062(16) 0.1959(6)
H6 H 0.14190 0.66890 0.24860
H7 H 0.05460 0.70120 0.14130
N1 N 0.00000 0.30774(18) 0.1749(10)
C1 C 0.00000 0.4821(2) 0.1305(6)
H8 H 0.00000 0.54020 0.11410
C2 C 0.1021(2) 0.43829(17) 0.1428(4)
C3 C 0.0981(2) 0.35213(17) 0.1625(5)
H9 H 0.16650 0.32280 0.16760
C4 C 0.2146(3) 0.48488(18) 0.1314(5)
O1C O -0.2109(2) 0.56222(14) 0.1237(7)
O2C O -0.30476(18) 0.44350(13) 0.1363(4)
O3C O -0.1301(3) 0.18037(14) 0.3920(4)
H1C H -0.15730 0.13760 0.44040
H2C H -0.13890 0.22170 0.46190
O4C O -0.1273(4) 0.16108(18) -0.0182(6)
H3C H -0.14320 0.11910 -0.08340
H4C H -0.10240 0.19920 -0.08700
H5C H -0.05510 0.01800 0.17300
C2C C -0.1021(2) 0.43829(17) 0.1428(4)
C3C C -0.0981(2) 0.35213(17) 0.1625(5)
H9C H -0.16650 0.32280 0.16760
C4C C -0.2146(3) 0.48488(18) 0.1314(5)
#END
