
#######################################################################
#
#                 Cambridge Crystallographic Data Centre
#                                CCDC
#
#######################################################################
#
# If this CIF has been generated from an entry in the Cambridge
# Structural Database, then it will include bibliographic, chemical,
# crystal, experimental, refinement or atomic coordinate data resulting
# from the CCDC's data processing and validation procedures.
#
#######################################################################

data_CSD_CIF_ICUNOK
_audit_creation_date 2006-08-03
_audit_creation_method CSD-ConQuest-V1
_database_code_CSD ICUNOK
_database_code_depnum_ccdc_archive 'CCDC 604303'
_chemical_formula_sum 'C7 H17 Co1 N1 O11'
_chemical_formula_moiety
;
C7 H13 Co1 N1 O9,2(H2 O1)
;
_journal_coden_Cambridge 9
_journal_volume 45
_journal_year 2006
_journal_page_first 2430
_journal_name_full 'Inorg.Chem. '
loop_
_publ_author_name
"Yi-Long Lu"
"Jing-Yun Wu"
"Ming-Che Chan"
"Sheng-Ming Huang"
"Chia-Shiang Lin"
"Te-Wei Chiu"
"Yen-Hsiang Liu"
"Yuh-Sheng Wen"
"Chuen-Her Ueng"
"Tsung-Mei Chin"
"Chen-Hsiung Hung"
"Kuang-Lieh Lu"
_chemical_name_systematic
;
Pentaaqua-(pryridine-3,5-dicarboxylate)-cobalt(ii) dihydrate
;
_cell_volume   1296.473
_exptl_crystal_colour 'orange'
_exptl_crystal_density_diffrn 1.794
_exptl_crystal_description 'prism'
_diffrn_ambient_temperature 153
#These two values have been output from a single CSD field.
_refine_ls_R_factor_gt 0.0373
_refine_ls_wR_factor_gt 0.0373
_symmetry_cell_setting orthorhombic
_symmetry_space_group_name_H-M 'C m c 21'
_symmetry_Int_Tables_number 36
loop_
_symmetry_equiv_pos_site_id
_symmetry_equiv_pos_as_xyz
1 x,y,z
2 -x,-y,1/2+z
3 x,-y,1/2+z
4 -x,y,z
5 1/2+x,1/2+y,z
6 1/2-x,1/2-y,1/2+z
7 1/2+x,1/2-y,1/2+z
8 1/2-x,1/2+y,z
_cell_length_a 11.725(2)
_cell_length_b 15.846(3)
_cell_length_c 6.9780(14)
_cell_angle_alpha 90
_cell_angle_beta 90
_cell_angle_gamma 90
_cell_formula_units_Z 4
loop_
_atom_type_symbol
_atom_type_radius_bond
C 0.68
H 0.23
Co 1.33
N 0.68
O 0.68
loop_
_atom_site_label
_atom_site_type_symbol
_atom_site_fract_x
_atom_site_fract_y
_atom_site_fract_z
Co1 Co 0.00000 0.32801(3) 0.35490(15)
O1 O 0.2106(4) -0.0619(2) 0.4311(11)
O2 O 0.3047(3) 0.05629(19) 0.4164(6)
O3 O 0.00000 0.4608(2) 0.3257(9)
H1 H 0.06060 0.47980 0.36550
O4 O 0.1305(4) 0.31945(19) 0.1582(6)
H2 H 0.13670 0.36440 0.10110
O5 O 0.1266(7) 0.3386(3) 0.5705(8)
H3 H 0.17280 0.37500 0.53990
N1 N 0.00000 0.1921(2) 0.3805(9)
C1 C 0.0982(3) 0.1482(2) 0.3886(5)
H4 H 0.16660 0.17770 0.38040
C2 C 0.1022(3) 0.0610(2) 0.4088(6)
C3 C 0.00000 0.0181(3) 0.4209(9)
H5 H 0.00000 -0.04020 0.43740
C4 C 0.2151(3) 0.0155(2) 0.4201(7)
O6 O 0.1133(4) 0.2117(2) 0.8569(9)
H6 H 0.13160 0.28010 0.09980
H7 H 0.10670 0.32190 0.64810
H8 H 0.12910 0.17360 0.85670
H9 H 0.17650 0.24360 0.83810
O1C O -0.2106(4) -0.0619(2) 0.4311(11)
O2C O -0.3047(3) 0.05629(19) 0.4164(6)
H1C H -0.06060 0.47980 0.36550
O4C O -0.1305(4) 0.31945(19) 0.1582(6)
H2C H -0.13670 0.36440 0.10110
O5C O -0.1266(7) 0.3386(3) 0.5705(8)
H3C H -0.17280 0.37500 0.53990
C1C C -0.0982(3) 0.1482(2) 0.3886(5)
H4C H -0.16660 0.17770 0.38040
C2C C -0.1022(3) 0.0610(2) 0.4088(6)
C4C C -0.2151(3) 0.0155(2) 0.4201(7)
H6C H -0.13160 0.28010 0.09980
H7C H -0.10670 0.32190 0.64810
#END
