
#######################################################################
#
#                 Cambridge Crystallographic Data Centre
#                                CCDC
#
#######################################################################
#
# If this CIF has been generated from an entry in the Cambridge
# Structural Database, then it will include bibliographic, chemical,
# crystal, experimental, refinement or atomic coordinate data resulting
# from the CCDC's data processing and validation procedures.
#
#######################################################################

data_CSD_CIF_IDEFUU
_audit_creation_date 2012-01-25
_audit_creation_method CSD-ConQuest-V1
_database_code_CSD IDEFUU
_database_code_depnum_ccdc_archive 'CCDC 858174'
_chemical_formula_sum 'C20 H22 Mn1 N12 O4'
_chemical_formula_moiety
;
C20 H22 Mn1 N12 O4
;
_journal_coeditor_code "IUCr PV2481"
_journal_coden_Cambridge 1370
_journal_volume 67
_journal_year 2011
_journal_page_first m1757
_journal_name_full 'Acta Crystallogr.,Sect.E:Struct.Rep.Online '
loop_
_publ_author_name
"Xiao-Chun Cheng"
_chemical_name_systematic
;
Tetra-aqua-bis(5-(4-(imidazol-1-yl-\kN^3^)phenyl)tetrazolide)-manganese(ii)
;
_cell_volume    594.104
_exptl_crystal_colour 'colorless'
_exptl_crystal_density_diffrn 1.536
_exptl_crystal_description 'block'
_diffrn_ambient_temperature 293
#These two values have been output from a single CSD field.
_refine_ls_R_factor_gt 0.033
_refine_ls_wR_factor_gt 0.033
_symmetry_cell_setting triclinic
_symmetry_space_group_name_H-M 'P -1'
_symmetry_Int_Tables_number 2
loop_
_symmetry_equiv_pos_site_id
_symmetry_equiv_pos_as_xyz
1 x,y,z
2 -x,-y,-z
_cell_length_a 8.415(3)
_cell_length_b 8.458(3)
_cell_length_c 8.722(3)
_cell_angle_alpha 80.758(5)
_cell_angle_beta 75.880(4)
_cell_angle_gamma 88.791(5)
_cell_formula_units_Z 1
loop_
_atom_type_symbol
_atom_type_radius_bond
C 0.68
H 0.23
Mn 1.61
N 0.68
O 0.68
loop_
_atom_site_label
_atom_site_type_symbol
_atom_site_fract_x
_atom_site_fract_y
_atom_site_fract_z
C1 C 0.7451(2) 0.5606(2) 0.7075(2)
C2 C 0.8080(3) 0.6654(3) 0.5691(3)
H1 H 0.92080 0.67940 0.53040
C3 C 0.7036(2) 0.7498(3) 0.4877(3)
H2 H 0.74720 0.81960 0.39340
C4 C 0.5364(2) 0.7327(2) 0.5431(2)
C5 C 0.4748(3) 0.6291(3) 0.6838(3)
H3 H 0.36200 0.61690 0.72390
C6 C 0.5787(3) 0.5430(3) 0.7659(3)
H4 H 0.53570 0.47340 0.86050
C7 C 0.4287(2) 0.8208(2) 0.4509(2)
C8 C 0.8260(3) 0.3192(2) 0.8712(2)
H5 H 0.72570 0.26510 0.89540
C9 C 1.0742(3) 0.3767(3) 0.8576(3)
H6 H 1.18040 0.36910 0.87130
C10 C 1.0145(3) 0.5054(3) 0.7786(3)
H7 H 1.07070 0.60040 0.72800
Mn1 Mn 1.00000 0.00000 1.00000
N1 N 0.9560(2) 0.25905(19) 0.9145(2)
N2 N 0.8541(2) 0.46819(19) 0.7876(2)
N3 N 0.48043(19) 0.8941(2) 0.29971(18)
N4 N 0.3458(2) 0.9572(2) 0.25971(18)
N5 N 0.21984(19) 0.9230(2) 0.38155(19)
N6 N 0.26763(19) 0.8368(2) 0.50521(18)
O1 O 0.74178(16) -0.05589(19) 1.03254(16)
H8 H 0.66350 -0.06650 1.11680
H9 H 0.69960 -0.04100 0.94380
O2 O 1.03428(16) -0.04640(18) 0.75458(15)
H10 H 0.98010 -0.00740 0.68720
H11 H 1.11080 -0.09000 0.69960
C1A C 1.2549(2) -0.5606(2) 1.2925(2)
C2A C 1.1920(3) -0.6654(3) 1.4309(3)
H1A H 1.07920 -0.67940 1.46960
C3A C 1.2964(2) -0.7498(3) 1.5123(3)
H2A H 1.25280 -0.81960 1.60660
C4A C 1.4636(2) -0.7327(2) 1.4569(2)
C5A C 1.5252(3) -0.6291(3) 1.3162(3)
H3A H 1.63800 -0.61690 1.27610
C6A C 1.4213(3) -0.5430(3) 1.2341(3)
H4A H 1.46430 -0.47340 1.13950
C7A C 1.5713(2) -0.8208(2) 1.5491(2)
C8A C 1.1740(3) -0.3192(2) 1.1288(2)
H5A H 1.27430 -0.26510 1.10460
C9A C 0.9258(3) -0.3767(3) 1.1424(3)
H6A H 0.81960 -0.36910 1.12870
C10A C 0.9855(3) -0.5054(3) 1.2214(3)
H7A H 0.92930 -0.60040 1.27200
N1A N 1.0440(2) -0.25905(19) 1.0855(2)
N2A N 1.1459(2) -0.46819(19) 1.2124(2)
N3A N 1.51957(19) -0.8941(2) 1.70029(18)
N4A N 1.6542(2) -0.9572(2) 1.74029(18)
N5A N 1.78016(19) -0.9230(2) 1.61845(19)
N6A N 1.73237(19) -0.8368(2) 1.49479(18)
O1A O 1.25822(16) 0.05589(19) 0.96746(16)
H8A H 1.33650 0.06650 0.88320
H9A H 1.30040 0.04100 1.05620
O2A O 0.96572(16) 0.04640(18) 1.24542(15)
H10A H 1.01990 0.00740 1.31280
H11A H 0.88920 0.09000 1.30040
#END
