
#######################################################################
#
#                 Cambridge Crystallographic Data Centre
#                                CCDC
#
#######################################################################
#
# If this CIF has been generated from an entry in the Cambridge
# Structural Database, then it will include bibliographic, chemical,
# crystal, experimental, refinement or atomic coordinate data resulting
# from the CCDC's data processing and validation procedures.
#
#######################################################################

data_CSD_CIF_IDULOJ
_audit_creation_date 2006-08-03
_audit_creation_method CSD-ConQuest-V1
_database_code_CSD IDULOJ
_database_code_depnum_ccdc_archive 'CCDC 613831'
_chemical_formula_sum 'C12 H14 Mn1 N4 O14'
_chemical_formula_moiety
;
C12 H10 Mn1 N4 O12,2(H2 O1)
;
_journal_coeditor_code "IUCr TK2046"
_journal_coden_Cambridge 1370
_journal_volume 62
_journal_year 2006
_journal_page_first m1540
_journal_name_full 'Acta Crystallogr.,Sect.E:Struct.Rep.Online '
loop_
_publ_author_name
"Jing Chen"
"Yong Lu"
"Wen-Shi Wu"
"Jin-Cao Dai"
"Jian-Ming Lin"
_chemical_name_systematic
;
trans-Diaqua-bis(2-carboxylato-4-nitropyridine 1-oxide-O,O')-manganese(ii) 
dihydrate
;
_cell_volume    449.431
_exptl_crystal_colour 'red'
_exptl_crystal_density_diffrn 1.822
_exptl_crystal_description 'prism'
_diffrn_ambient_temperature 297
#These two values have been output from a single CSD field.
_refine_ls_R_factor_gt 0.053
_refine_ls_wR_factor_gt 0.053
_symmetry_cell_setting triclinic
_symmetry_space_group_name_H-M 'P -1'
_symmetry_Int_Tables_number 2
loop_
_symmetry_equiv_pos_site_id
_symmetry_equiv_pos_as_xyz
1 x,y,z
2 -x,-y,-z
_cell_length_a 7.566(6)
_cell_length_b 7.766(9)
_cell_length_c 8.582(8)
_cell_angle_alpha 65.57(4)
_cell_angle_beta 78.95(4)
_cell_angle_gamma 89.14(4)
_cell_formula_units_Z 1
loop_
_atom_type_symbol
_atom_type_radius_bond
C 0.68
H 0.23
Mn 1.35
N 0.68
O 0.68
loop_
_atom_site_label
_atom_site_type_symbol
_atom_site_fract_x
_atom_site_fract_y
_atom_site_fract_z
Mn1 Mn 0.50000 0.50000 0.00000
O1 O 0.5076(2) 0.3152(3) -0.1264(2)
O2 O 0.2175(2) 0.4529(2) 0.0217(3)
O3 O 0.3965(2) 0.0909(3) -0.1848(2)
O4 O -0.0535(3) -0.3785(3) 0.2770(3)
O5 O -0.1879(3) -0.3229(3) 0.4945(3)
O6 O 0.5000(3) 0.2431(3) 0.2393(3)
H1 H 0.539(5) 0.257(5) 0.322(5)
H2 H 0.550(6) 0.156(7) 0.226(6)
N1 N 0.1516(2) 0.2759(3) 0.0989(3)
N2 N -0.0855(3) -0.2765(3) 0.3538(3)
C1 C 0.2259(3) 0.1407(3) 0.0483(3)
C2 C 0.1473(3) -0.0421(3) 0.1329(3)
H3 H 0.19400 -0.13600 0.09950
C3 C -0.0003(3) -0.0841(3) 0.2667(3)
C4 C -0.0742(3) 0.0534(4) 0.3166(3)
H4 H -0.17420 0.02380 0.40760
C5 C 0.0032(3) 0.2334(4) 0.2290(3)
H5 H -0.04630 0.32880 0.25860
C6 C 0.3906(3) 0.1892(3) -0.1007(3)
O7 O 0.6485(3) 0.2749(4) 0.4985(3)
H6 H 0.580(6) 0.228(7) 0.596(6)
H7 H 0.684(7) 0.393(10) 0.476(8)
O1A O 0.4924(2) 0.6848(3) 0.1264(2)
O2A O 0.7825(2) 0.5471(2) -0.0217(3)
O3A O 0.6035(2) 0.9091(3) 0.1848(2)
O4A O 1.0535(3) 1.3785(3) -0.2770(3)
O5A O 1.1879(3) 1.3229(3) -0.4945(3)
O6A O 0.5000(3) 0.7569(3) -0.2393(3)
H1A H 0.461(5) 0.743(5) -0.322(5)
H2A H 0.450(6) 0.844(7) -0.226(6)
N1A N 0.8484(2) 0.7241(3) -0.0989(3)
N2A N 1.0855(3) 1.2765(3) -0.3538(3)
C1A C 0.7741(3) 0.8593(3) -0.0483(3)
C2A C 0.8527(3) 1.0421(3) -0.1329(3)
H3A H 0.80600 1.13600 -0.09950
C3A C 1.0003(3) 1.0841(3) -0.2667(3)
C4A C 1.0742(3) 0.9466(4) -0.3166(3)
H4A H 1.17420 0.97620 -0.40760
C5A C 0.9968(3) 0.7666(4) -0.2290(3)
H5A H 1.04630 0.67120 -0.25860
C6A C 0.6094(3) 0.8108(3) 0.1007(3)
#END
