
#######################################################################
#
#                 Cambridge Crystallographic Data Centre
#                                CCDC
#
#######################################################################
#
# If this CIF has been generated from an entry in the Cambridge
# Structural Database, then it will include bibliographic, chemical,
# crystal, experimental, refinement or atomic coordinate data resulting
# from the CCDC's data processing and validation procedures.
#
#######################################################################

data_CSD_CIF_IFADOJ
_audit_creation_date 2006-08-03
_audit_creation_method CSD-ConQuest-V1
_database_code_CSD IFADOJ
_database_code_depnum_ccdc_archive 'CCDC 614870'
_chemical_formula_sum 'C18 H16 Co1 N14 O2'
_chemical_formula_moiety
;
C18 H16 Co1 N14 O2
;
_journal_coeditor_code "IUCr LH2085"
_journal_coden_Cambridge 1370
_journal_volume 62
_journal_year 2006
_journal_page_first m1479
_journal_name_full 'Acta Crystallogr.,Sect.E:Struct.Rep.Online '
loop_
_publ_author_name
"Yu-Hong Ma"
"Pi-Zhuang Ma"
"Huan-Qin Zhu"
"Chang-Cheng Liu"
_chemical_name_systematic
;
Diaquabis(dicyanamido)bis(4-(2-pyridyl)-4H-1,2,4-triazole-\kN^1^)cobalt(ii)
;
_cell_volume    525.259
_exptl_crystal_colour 'red'
_exptl_crystal_density_diffrn 1.642
_exptl_crystal_description 'needle'
_diffrn_ambient_temperature 300
#These two values have been output from a single CSD field.
_refine_ls_R_factor_gt 0.0277
_refine_ls_wR_factor_gt 0.0277
_symmetry_cell_setting triclinic
_symmetry_space_group_name_H-M 'P -1'
_symmetry_Int_Tables_number 2
loop_
_symmetry_equiv_pos_site_id
_symmetry_equiv_pos_as_xyz
1 x,y,z
2 -x,-y,-z
_cell_length_a 5.8684(17)
_cell_length_b 7.661(2)
_cell_length_c 11.716(4)
_cell_angle_alpha 89.794(5)
_cell_angle_beta 88.512(5)
_cell_angle_gamma 85.991(5)
_cell_formula_units_Z 1
loop_
_atom_type_symbol
_atom_type_radius_bond
C 0.68
H 0.23
Co 1.33
N 0.68
O 0.68
loop_
_atom_site_label
_atom_site_type_symbol
_atom_site_fract_x
_atom_site_fract_y
_atom_site_fract_z
Co1 Co 0.50000 1.00000 0.00000
O1 O 0.2238(2) 0.86897(19) -0.06831(12)
H1 H 0.21290 0.76790 -0.03960
H2 H 0.08550 0.92610 -0.10170
N1 N 0.3119(3) 1.2404(2) 0.00171(14)
N2 N 0.2172(3) 1.5402(2) 0.06988(15)
N3 N -0.0207(4) 1.6048(3) 0.24291(17)
N4 N 0.3779(3) 0.9436(2) 0.16745(13)
N5 N 0.1701(3) 1.0087(2) 0.21424(13)
N6 N 0.3669(3) 0.8681(2) 0.34702(13)
N7 N 0.2614(3) 0.8139(2) 0.53482(14)
C1 C 0.2644(3) 1.3786(3) 0.03698(16)
C2 C 0.0891(3) 1.5670(3) 0.16272(18)
C3 C 0.1689(3) 0.9617(3) 0.32085(16)
H3 H 0.04870 0.98830 0.37260
C4 C 0.4909(3) 0.8596(2) 0.24743(16)
H4 H 0.63510 0.80230 0.23770
C5 C 0.4262(3) 0.7957(2) 0.45564(15)
C6 C 0.6400(3) 0.7142(3) 0.47213(17)
H5 H 0.75030 0.70570 0.41360
C7 C 0.6835(4) 0.6461(3) 0.57881(18)
H6 H 0.82510 0.58980 0.59390
C8 C 0.5149(4) 0.6621(3) 0.66328(18)
H7 H 0.54050 0.61680 0.73590
C9 C 0.3088(4) 0.7463(3) 0.63748(18)
H8 H 0.19560 0.75690 0.69460
O1A O 0.7762(2) 1.13103(19) 0.06831(12)
H1A H 0.78710 1.23210 0.03960
H2A H 0.91450 1.07390 0.10170
N1A N 0.6881(3) 0.7596(2) -0.00171(14)
N2A N 0.7828(3) 0.4598(2) -0.06988(15)
N3A N 1.0207(4) 0.3952(3) -0.24291(17)
N4A N 0.6221(3) 1.0564(2) -0.16745(13)
N5A N 0.8299(3) 0.9913(2) -0.21424(13)
N6A N 0.6331(3) 1.1319(2) -0.34702(13)
N7A N 0.7386(3) 1.1861(2) -0.53482(14)
C1A C 0.7356(3) 0.6214(3) -0.03698(16)
C2A C 0.9109(3) 0.4330(3) -0.16272(18)
C3A C 0.8311(3) 1.0383(3) -0.32085(16)
H3A H 0.95130 1.01170 -0.37260
C4A C 0.5091(3) 1.1404(2) -0.24743(16)
H4A H 0.36490 1.19770 -0.23770
C5A C 0.5738(3) 1.2043(2) -0.45564(15)
C6A C 0.3600(3) 1.2858(3) -0.47213(17)
H5A H 0.24970 1.29430 -0.41360
C7A C 0.3165(4) 1.3539(3) -0.57881(18)
H6A H 0.17490 1.41020 -0.59390
C8A C 0.4851(4) 1.3379(3) -0.66328(18)
H7A H 0.45950 1.38320 -0.73590
C9A C 0.6912(4) 1.2537(3) -0.63748(18)
H8A H 0.80440 1.24310 -0.69460
#END
