
#######################################################################
#
#                 Cambridge Crystallographic Data Centre
#                                CCDC
#
#######################################################################
#
# If this CIF has been generated from an entry in the Cambridge
# Structural Database, then it will include bibliographic, chemical,
# crystal, experimental, refinement or atomic coordinate data resulting
# from the CCDC's data processing and validation procedures.
#
#######################################################################

data_CSD_CIF_IFEWUN
_audit_creation_date 2013-08-07
_audit_creation_method CSD-ConQuest-V1
_database_code_CSD IFEWUN
_database_code_depnum_ccdc_archive 'CCDC 932365'
_chemical_formula_sum 'C17 H19 Mn1 O2'
_chemical_formula_moiety
;
C17 H19 Mn1 O2
;
_journal_coden_Cambridge 4
_journal_volume 135
_journal_year 2013
_journal_page_first 8726
_journal_name_full 'J.Am.Chem.Soc. '
loop_
_publ_author_name
"J.Bauer"
"H.Braunschweig"
"A.Damme"
"J.O.Carlos"
"Jimenez-Halla"
"T.Kramer"
"K.Radacki"
"Rong Shang"
"E.Siedler"
"Qing Ye"
_chemical_name_systematic
;
(2-adamantylidene)-dicarbonyl-(\h^5^-cyclopentadienyl)-manganese
;
_cell_volume    706.040
_exptl_crystal_colour 'orange'
_exptl_crystal_density_diffrn 1.459
_exptl_crystal_description 'block'
_diffrn_ambient_temperature 100
_diffrn_special_details
;
twin

;
#These two values have been output from a single CSD field.
_refine_ls_R_factor_gt 0.0447
_refine_ls_wR_factor_gt 0.0447
_symmetry_cell_setting triclinic
_symmetry_space_group_name_H-M 'P -1'
_symmetry_Int_Tables_number 2
loop_
_symmetry_equiv_pos_site_id
_symmetry_equiv_pos_as_xyz
1 x,y,z
2 -x,-y,-z
_cell_length_a 6.7387(13)
_cell_length_b 9.5344(19)
_cell_length_c 12.317(3)
_cell_angle_alpha 104.20(4)
_cell_angle_beta 102.87(3)
_cell_angle_gamma 104.90(3)
_cell_formula_units_Z 2
loop_
_atom_type_symbol
_atom_type_radius_bond
C 0.68
H 0.23
Mn 1.61
O 0.68
loop_
_atom_site_label
_atom_site_type_symbol
_atom_site_fract_x
_atom_site_fract_y
_atom_site_fract_z
Mn1 Mn 0.40062(8) 0.89490(6) 0.71287(4)
C1 C 0.6413(6) 0.9227(4) 0.8238(3)
O1 O 0.7943(4) 0.9369(4) 0.8963(2)
C2 C 0.4956(5) 0.7883(4) 0.6072(3)
O2 O 0.5610(4) 0.7191(3) 0.5408(2)
C3 C 0.4197(6) 1.1294(4) 0.7892(3)
H1 H 0.52110 1.19570 0.86240
C4 C 0.2094(6) 1.0295(4) 0.7731(4)
H2 H 0.14610 1.01810 0.83340
C5 C 0.1132(6) 0.9512(4) 0.6521(4)
H3 H -0.02680 0.87710 0.61610
C6 C 0.2628(6) 1.0024(4) 0.5924(3)
H4 H 0.23950 0.96830 0.51000
C7 C 0.4509(6) 1.1124(4) 0.6774(3)
H5 H 0.57630 1.16560 0.66240
C8 C 0.2677(5) 0.7183(4) 0.7434(3)
C9 C 0.3694(6) 0.5954(4) 0.7577(3)
H6 H 0.51240 0.62210 0.74300
C10 C 0.4023(6) 0.5878(5) 0.8850(3)
H7 H 0.47170 0.51010 0.89520
H8 H 0.49740 0.68840 0.94240
C11 C 0.1816(6) 0.5448(4) 0.9065(3)
H9 H 0.20150 0.54050 0.98840
C12 C 0.0790(6) 0.6673(4) 0.8909(3)
H10 H 0.17280 0.76840 0.94820
H11 H -0.06240 0.64230 0.90580
C13 C 0.0481(5) 0.6743(4) 0.7640(3)
H12 H -0.02170 0.75290 0.75360
C14 C -0.0992(6) 0.5150(4) 0.6762(3)
H13 H -0.24160 0.48870 0.68970
H14 H -0.12140 0.51790 0.59470
C15 C 0.0042(6) 0.3930(4) 0.6922(3)
H15 H -0.09090 0.29070 0.63490
C16 C 0.2222(7) 0.4364(4) 0.6695(4)
H16 H 0.20100 0.43940 0.58800
H17 H 0.29160 0.35830 0.67840
C17 C 0.0357(7) 0.3873(4) 0.8180(3)
H18 H 0.10230 0.30840 0.82850
H19 H -0.10590 0.35910 0.83220
#END
