
#######################################################################
#
#                 Cambridge Crystallographic Data Centre
#                                CCDC
#
#######################################################################
#
# If this CIF has been generated from an entry in the Cambridge
# Structural Database, then it will include bibliographic, chemical,
# crystal, experimental, refinement or atomic coordinate data resulting
# from the CCDC's data processing and validation procedures.
#
#######################################################################

data_CSD_CIF_IFEZAV
_audit_creation_date 2008-12-02
_audit_creation_method CSD-ConQuest-V1
_database_code_CSD IFEZAV
_database_code_depnum_ccdc_archive 'CCDC 640168'
_chemical_formula_sum 'C6 H15 Cr1 N12'
_chemical_formula_moiety
;
C6 H15 Cr1 N12
;
_journal_coden_Cambridge 211
_journal_volume 61
_journal_year 2008
_journal_page_first 1671
_journal_name_full 'J.Coord.Chem. '
loop_
_publ_author_name
"A.Kadziola"
"A.Dossing"
_chemical_name_systematic
;
rac-(1,4,7-Triazacyclononane)-triazido-chromium(iii)
;
_cell_volume    641.846
_exptl_crystal_colour 'red-violet'
_exptl_crystal_density_diffrn 1.59
_diffrn_ambient_temperature 122
#These two values have been output from a single CSD field.
_refine_ls_R_factor_gt 0.0319
_refine_ls_wR_factor_gt 0.0319
_symmetry_cell_setting triclinic
_symmetry_space_group_name_H-M 'P -1'
_symmetry_Int_Tables_number 2
loop_
_symmetry_equiv_pos_site_id
_symmetry_equiv_pos_as_xyz
1 x,y,z
2 -x,-y,-z
_cell_length_a 7.698(4)
_cell_length_b 8.5800(6)
_cell_length_c 10.236(3)
_cell_angle_alpha 89.497(15)
_cell_angle_beta 83.70(2)
_cell_angle_gamma 72.83(2)
_cell_formula_units_Z 2
loop_
_atom_type_symbol
_atom_type_radius_bond
C 0.68
H 0.23
Cr 1.35
N 0.68
loop_
_atom_site_label
_atom_site_type_symbol
_atom_site_fract_x
_atom_site_fract_y
_atom_site_fract_z
Cr1 Cr 0.82083(2) 0.08696(2) 0.761799(17)
N1 N 0.64445(13) 0.30552(12) 0.84223(10)
H1 H 0.53410 0.28790 0.87390
N2 N 1.01631(13) 0.18310(11) 0.82938(9)
H2 H 1.08900 0.10570 0.88040
N3 N 0.85113(14) 0.23619(12) 0.60452(9)
H3 H 0.87400 0.17380 0.52720
N4 N 0.61133(16) 0.03627(14) 0.69257(12)
N5 N 0.60392(17) -0.09137(15) 0.65030(12)
N6 N 0.5909(2) -0.21121(19) 0.60735(17)
N7 N 0.79883(14) -0.03123(13) 0.9304(1)
N8 N 0.71404(15) -0.13044(13) 0.94442(11)
N9 N 0.63855(18) -0.22953(16) 0.96248(13)
N10 N 1.01710(16) -0.10480(12) 0.67187(10)
N11 N 1.06429(14) -0.24094(12) 0.7137(1)
N12 N 1.11432(18) -0.37337(14) 0.74777(12)
C1 C 0.72944(16) 0.34634(14) 0.95607(11)
H4 H 0.72330 0.26930 1.02780
H5 H 0.66240 0.45810 0.98980
C2 C 0.92782(16) 0.33503(13) 0.91148(11)
H6 H 0.93350 0.43170 0.85960
H7 H 0.99430 0.33350 0.98920
C3 C 1.13242(16) 0.21031(15) 0.71012(12)
H8 H 1.20930 0.10430 0.67020
H9 H 1.21400 0.27300 0.73420
C4 C 1.00690(17) 0.30496(15) 0.61253(12)
H10 H 0.95900 0.42130 0.64090
H11 H 1.07700 0.29840 0.52470
C5 C 0.67075(18) 0.36334(14) 0.60396(12)
H12 H 0.57980 0.31390 0.57510
H13 H 0.68250 0.44960 0.54180
C6 C 0.60693(17) 0.43728(14) 0.74251(12)
H14 H 0.67200 0.51760 0.75940
H15 H 0.47420 0.49500 0.75020
#END
