
#######################################################################
#
#                 Cambridge Crystallographic Data Centre
#                                CCDC
#
#######################################################################
#
# If this CIF has been generated from an entry in the Cambridge
# Structural Database, then it will include bibliographic, chemical,
# crystal, experimental, refinement or atomic coordinate data resulting
# from the CCDC's data processing and validation procedures.
#
#######################################################################

data_CSD_CIF_IFOCEL
_audit_creation_date 2002-09-05
_audit_creation_method CSD-ConQuest-V1
_database_code_CSD IFOCEL
_database_code_depnum_ccdc_archive 'CCDC 189212'
_chemical_formula_sum 'C12 H24 Co1 Cr1 N6 O12'
_chemical_formula_moiety
;
C6 H24 Co1 N6 1+,C6 Cr1 O12 1-
;
_journal_coden_Cambridge 1295
_journal_volume 4
_journal_year 2001
_journal_page_first 635
_journal_name_full 'Inorg.Chem.Commun. '
loop_
_publ_author_name
"Xaio Hua"
"K.Larsson"
"T.J.Neal"
"G.R.A.Wyllie"
"Maoyu Shang"
"A.G.Lappin"
_chemical_name_systematic
;
\D-tris(Ethylenediamine)-cobalt \D-tris(oxalato)-chromium(iii)
;
_cell_volume   1470.507
_exptl_crystal_colour 'brown'
_exptl_crystal_density_diffrn 1.881
_exptl_special_details
;
Isostructural and isomorphous with the cobalt/rhodium and dichromium 
;
_exptl_crystal_description 'bar-shaped'
_diffrn_ambient_temperature 293
#These two values have been output from a single CSD field.
_refine_ls_R_factor_gt 0.0221
_refine_ls_wR_factor_gt 0.0221
_symmetry_cell_setting rhombohedral
_symmetry_space_group_name_H-M 'R 3'
_symmetry_Int_Tables_number 146
loop_
_symmetry_equiv_pos_site_id
_symmetry_equiv_pos_as_xyz
1 x,y,z
2 -y,x-y,z
3 -x+y,-x,z
4 -1/3+x,1/3+y,1/3+z
5 -1/3-y,1/3+x-y,1/3+z
6 -1/3-x+y,1/3-x,1/3+z
7 1/3+x,-1/3+y,-1/3+z
8 1/3-y,-1/3+x-y,-1/3+z
9 1/3-x+y,-1/3-x,-1/3+z
_cell_length_a 13.0505(4)
_cell_length_b 13.0505(4)
_cell_length_c 9.9697(4)
_cell_angle_alpha 90
_cell_angle_beta 90
_cell_angle_gamma 120
_cell_formula_units_Z 3
loop_
_atom_type_symbol
_atom_type_radius_bond
C 0.68
H 0.23
Co 1.33
Cr 1.35
N 0.68
O 0.68
loop_
_atom_site_label
_atom_site_type_symbol
_atom_site_fract_x
_atom_site_fract_y
_atom_site_fract_z
Co1 Co 0.00000 0.00000 0.50382(4)
N1 N 0.0137(3) 0.1296(3) 0.3932(3)
N2 N 0.1233(3) 0.1253(4) 0.6167(3)
C1 C 0.1135(3) 0.2443(3) 0.4373(4)
C2 C 0.1248(3) 0.2385(3) 0.5872(4)
Cr1 Cr 0.00000 0.00000 0.00009(9)
O1 O 0.0016(3) 0.1261(3) -0.1098(2)
O2 O 0.1092(3) 0.1337(3) 0.1136(2)
O3 O 0.0766(2) 0.3219(2) -0.1100(3)
O4 O 0.1922(2) 0.3292(2) 0.1274(3)
C3 C 0.0650(3) 0.2322(3) -0.0620(3)
C4 C 0.1288(3) 0.2357(3) 0.0713(3)
H1 H 0.0337(35) 0.1280(33) 0.3047(39)
H2 H -0.0552(35) 0.1274(31) 0.4053(33)
H3 H 0.0983(37) 0.3006(40) 0.4219(40)
H4 H 0.1752(38) 0.2543(34) 0.4086(36)
H5 H 0.0603(38) 0.2331(39) 0.6326(36)
H6 H 0.1945(47) 0.2989(42) 0.6136(50)
H7 H 0.1052(36) 0.1023(34) 0.7036(44)
H8 H 0.1860(35) 0.1392(30) 0.5970(32)
N1A N -0.1296(3) -0.1159(3) 0.3932(3)
C1A C -0.2443(3) -0.1308(3) 0.4373(4)
C2A C -0.2385(3) -0.1137(3) 0.5872(4)
N2A N -0.1253(3) -0.0020(4) 0.6167(3)
N1B N 0.1159(3) -0.0137(3) 0.3932(3)
C1B C 0.1308(3) -0.1135(3) 0.4373(4)
C2B C 0.1137(3) -0.1248(3) 0.5872(4)
N2B N 0.0020(3) -0.1233(4) 0.6167(3)
H7B H -0.0029(36) -0.1052(34) 0.7036(44)
H8B H -0.0468(35) -0.186(3) 0.5970(32)
H5B H 0.1728(38) -0.0603(39) 0.6326(36)
H6B H 0.1044(47) -0.1945(42) 0.6136(50)
H3B H 0.2023(37) -0.0983(40) 0.4219(40)
H4B H 0.0791(38) -0.1752(34) 0.4086(36)
H1B H 0.0943(35) -0.0337(33) 0.3047(39)
H2B H 0.1826(35) 0.0552(31) 0.4053(33)
H7A H -0.1023(36) 0.0029(34) 0.7036(44)
H8A H -0.1392(35) 0.0468(30) 0.5970(32)
H5A H -0.2331(38) -0.1728(39) 0.6326(36)
H6A H -0.2989(47) -0.1044(42) 0.6136(50)
H3A H -0.3006(37) -0.2023(40) 0.4219(40)
H4A H -0.2543(38) -0.0791(34) 0.4086(36)
H1A H -0.1280(35) -0.0943(33) 0.3047(39)
H2A H -0.1274(35) -0.1826(31) 0.4053(33)
O1A O -0.1261(3) -0.1245(3) -0.1098(2)
C3A C -0.2322(3) -0.1672(3) -0.0620(3)
O3A O -0.3219(2) -0.2453(2) -0.1100(3)
C4A C -0.2357(3) -0.1069(3) 0.0713(3)
O2A O -0.1337(3) -0.0245(3) 0.1136(2)
O1B O 0.1245(3) -0.0016(3) -0.1098(2)
C3B C 0.1672(3) -0.0650(3) -0.0620(3)
O3B O 0.2453(2) -0.0766(2) -0.1100(3)
C4B C 0.1069(3) -0.1288(3) 0.0713(3)
O2B O 0.0245(3) -0.1092(3) 0.1136(2)
O4B O 0.1370(2) -0.1922(2) 0.1274(3)
O4A O -0.3292(2) -0.1370(2) 0.1274(3)
#END
