
#######################################################################
#
#                 Cambridge Crystallographic Data Centre
#                                CCDC
#
#######################################################################
#
# If this CIF has been generated from an entry in the Cambridge
# Structural Database, then it will include bibliographic, chemical,
# crystal, experimental, refinement or atomic coordinate data resulting
# from the CCDC's data processing and validation procedures.
#
#######################################################################

data_CSD_CIF_IFOCIP
_audit_creation_date 2002-09-05
_audit_creation_method CSD-ConQuest-V1
_database_code_CSD IFOCIP
_database_code_depnum_ccdc_archive 'CCDC 189213'
_chemical_formula_sum 'C12 H24 Cr2 N6 O12'
_chemical_formula_moiety
;
C6 H24 Cr1 N6 1+,C6 Cr1 O12 1-
;
_journal_coden_Cambridge 1295
_journal_volume 4
_journal_year 2001
_journal_page_first 635
_journal_name_full 'Inorg.Chem.Commun. '
loop_
_publ_author_name
"Xaio Hua"
"K.Larsson"
"T.J.Neal"
"G.R.A.Wyllie"
"Maoyu Shang"
"A.G.Lappin"
_chemical_name_systematic
;
\D-tris(Ethylenediamine)-chromium \D-tris(oxalato)-chromium(iii)
;
_cell_volume   1499.184
_exptl_crystal_colour 'purple'
_exptl_crystal_density_diffrn 1.822
_exptl_special_details
;
Isostructural and isomorphous with the cobalt/rhodium and cobalt/chromium 
analogues
;
_exptl_crystal_description 'bar-shaped'
_diffrn_ambient_temperature 293
#These two values have been output from a single CSD field.
_refine_ls_R_factor_gt 0.0184
_refine_ls_wR_factor_gt 0.0184
_symmetry_cell_setting rhombohedral
_symmetry_space_group_name_H-M 'R 3'
_symmetry_Int_Tables_number 146
loop_
_symmetry_equiv_pos_site_id
_symmetry_equiv_pos_as_xyz
1 x,y,z
2 -y,x-y,z
3 -x+y,-x,z
4 -1/3+x,1/3+y,1/3+z
5 -1/3-y,1/3+x-y,1/3+z
6 -1/3-x+y,1/3-x,1/3+z
7 1/3+x,-1/3+y,-1/3+z
8 1/3-y,-1/3+x-y,-1/3+z
9 1/3-x+y,-1/3-x,-1/3+z
_cell_length_a 13.1287(7)
_cell_length_b 13.1287(7)
_cell_length_c 10.0434(7)
_cell_angle_alpha 90
_cell_angle_beta 90
_cell_angle_gamma 120
_cell_formula_units_Z 3
loop_
_atom_type_symbol
_atom_type_radius_bond
C 0.68
H 0.23
Cr 1.35
N 0.68
O 0.68
loop_
_atom_site_label
_atom_site_type_symbol
_atom_site_fract_x
_atom_site_fract_y
_atom_site_fract_z
Cr1 Cr 0.00000 0.00000 0.50390(5)
N1 N 0.0207(2) 0.1397(3) 0.3899(2)
N2 N 0.1296(2) 0.1344(3) 0.6196(2)
C1 C 0.1201(3) 0.2516(2) 0.4388(3)
C2 C 0.1284(3) 0.2445(2) 0.5883(3)
Cr2 Cr 0.00000 0.00000 0.00001(5)
O1 O 0.0014(2) 0.1249(2) -0.1094(2)
O2 O 0.1083(2) 0.1339(2) 0.1122(2)
O3 O 0.0757(2) 0.3195(2) -0.1108(3)
O4 O 0.1888(2) 0.3282(2) 0.1264(2)
C3 C 0.0640(2) 0.2301(2) -0.0623(3)
C4 C 0.1272(2) 0.2345(2) 0.0710(2)
H1 H 0.0421(27) 0.1344(26) 0.2971(30)
H2 H -0.0435(35) 0.1375(33) 0.3924(33)
H3 H 0.1051(34) 0.3105(35) 0.4245(34)
H4 H 0.1870(28) 0.2620(28) 0.3995(33)
H5 H 0.0624(31) 0.2457(31) 0.6227(31)
H6 H 0.2067(42) 0.3174(40) 0.6154(51)
H7 H 0.1207(30) 0.1205(29) 0.6990(41)
H8 H 0.2053(29) 0.1472(24) 0.5945(26)
N1A N -0.1397(2) -0.1190(3) 0.3899(2)
C1A C -0.2516(3) -0.1315(2) 0.4388(3)
C2A C -0.2445(3) -0.1161(2) 0.5883(3)
N2A N -0.1344(2) -0.0048(3) 0.6196(2)
N1B N 0.1190(2) -0.0207(3) 0.3899(2)
C1B C 0.1315(3) -0.1201(2) 0.4388(3)
C2B C 0.1161(3) -0.1284(2) 0.5883(3)
N2B N 0.0048(2) -0.1296(3) 0.6196(2)
H7B H -0.0002(30) -0.1207(29) 0.6990(41)
H8B H -0.0581(29) -0.2053(24) 0.5945(26)
H5B H 0.1833(31) -0.0624(31) 0.6227(31)
H6B H 0.1107(42) -0.2067(40) 0.6154(51)
H3B H 0.2054(34) -0.1051(35) 0.4245(34)
H4B H 0.0750(28) -0.1870(28) 0.3995(33)
H1B H 0.0923(27) -0.0421(26) 0.2971(30)
H2B H 0.1810(35) 0.0435(33) 0.3924(33)
H7A H -0.1205(30) 0.0002(29) 0.6990(41)
H8A H -0.1472(29) 0.0581(24) 0.5945(26)
H5A H -0.2457(31) -0.1833(31) 0.6227(31)
H6A H -0.3174(42) -0.1107(40) 0.6154(51)
H3A H -0.3105(34) -0.2054(35) 0.4245(34)
H4A H -0.2620(28) -0.0750(28) 0.3995(33)
H1A H -0.1344(27) -0.0923(26) 0.2971(30)
H2A H -0.1375(35) -0.1810(33) 0.3924(33)
O1A O -0.1249(2) -0.1235(2) -0.1094(2)
C3A C -0.2301(2) -0.1661(2) -0.0623(3)
O3A O -0.3195(2) -0.2438(2) -0.1108(3)
C4A C -0.2345(2) -0.1073(2) 0.0710(2)
O2A O -0.1339(2) -0.0256(2) 0.1122(2)
O1B O 0.1235(2) -0.0014(2) -0.1094(2)
C3B C 0.1661(2) -0.0640(2) -0.0623(3)
O3B O 0.2438(2) -0.0757(2) -0.1108(3)
C4B C 0.1073(2) -0.1272(2) 0.0710(2)
O2B O 0.0256(2) -0.1083(2) 0.1122(2)
O4B O 0.1394(2) -0.1888(2) 0.1264(2)
O4A O -0.3282(2) -0.1394(2) 0.1264(2)
#END
