
#######################################################################
#
#                 Cambridge Crystallographic Data Centre
#                                CCDC
#
#######################################################################
#
# If this CIF has been generated from an entry in the Cambridge
# Structural Database, then it will include bibliographic, chemical,
# crystal, experimental, refinement or atomic coordinate data resulting
# from the CCDC's data processing and validation procedures.
#
#######################################################################

data_CSD_CIF_IFODIR
_audit_creation_date 2008-12-02
_audit_creation_method CSD-ConQuest-V1
_database_code_CSD IFODIR
_database_code_depnum_ccdc_archive 'CCDC 683069'
_chemical_formula_sum 'C12 H14 Fe1 N2 O2 S2'
_chemical_formula_moiety
;
C12 H14 Fe1 N2 O2 S2
;
_journal_coden_Cambridge 182
_journal_year 2008
_journal_page_first 3555
_journal_name_full 'Chem.Commun. '
loop_
_publ_author_name
"Xiufeng Wang"
"Zhimei Li"
"Xirui Zeng"
"Qiuyan Luo"
"D.J.Evans"
"C.J.Pickett"
"Xiaoming Liu"
_chemical_name_systematic
;
Dicarbonyl-((2-pyridylmethyl)-bis(2-thioethyl)amine)-iron(ii)
;
_cell_volume    693.033
_exptl_crystal_colour 'dark red'
_exptl_crystal_density_diffrn 1.621
_exptl_crystal_description 'block'
_diffrn_ambient_temperature 273
#These two values have been output from a single CSD field.
_refine_ls_R_factor_gt 0.0446
_refine_ls_wR_factor_gt 0.0446
_symmetry_cell_setting triclinic
_symmetry_space_group_name_H-M 'P -1'
_symmetry_Int_Tables_number 2
loop_
_symmetry_equiv_pos_site_id
_symmetry_equiv_pos_as_xyz
1 x,y,z
2 -x,-y,-z
_cell_length_a 7.1525(11)
_cell_length_b 7.6915(12)
_cell_length_c 13.464(2)
_cell_angle_alpha 91.659(2)
_cell_angle_beta 95.127(2)
_cell_angle_gamma 109.733(1)
_cell_formula_units_Z 2
loop_
_atom_type_symbol
_atom_type_radius_bond
C 0.68
H 0.23
Fe 1.34
N 0.68
O 0.68
S 1.02
loop_
_atom_site_label
_atom_site_type_symbol
_atom_site_fract_x
_atom_site_fract_y
_atom_site_fract_z
Fe1 Fe 0.10862(7) 0.73370(7) 0.25891(4)
S1 S 0.02618(15) 0.94008(16) 0.15790(8)
S2 S 0.20283(15) 0.51133(14) 0.33983(8)
C1 C 0.3311(5) 1.0703(5) 0.3979(3)
H1 H 0.20810 1.05760 0.42030
C2 C 0.5156(5) 0.9732(5) 0.2915(3)
C3 C 0.4943(6) 1.2133(5) 0.4394(3)
H2 H 0.48270 1.29350 0.48960
C4 C 0.6863(6) 1.1162(5) 0.3295(3)
H3 H 0.80710 1.13130 0.30400
C5 C 0.6765(6) 1.2361(5) 0.4051(3)
H4 H 0.79080 1.33090 0.43260
N1 N 0.3376(4) 0.9461(4) 0.3264(2)
C6 C -0.0895(6) 0.5560(6) 0.1920(3)
C7 C -0.0503(5) 0.7414(5) 0.3493(3)
O1 O -0.1533(4) 0.7437(5) 0.4090(2)
O2 O -0.2225(5) 0.4422(5) 0.1502(2)
C8 C 0.5184(5) 0.8328(5) 0.2139(3)
H5 H 0.57720 0.74800 0.24440
H6 H 0.60170 0.89450 0.16350
N2 N 0.3147(4) 0.7259(4) 0.1652(2)
C9 C 0.2383(6) 0.9832(7) 0.0863(3)
H7 H 0.21090 1.03130 0.02300
H8 H 0.35520 1.07430 0.12270
C10 C 0.2770(6) 0.8041(7) 0.0684(3)
H9 H 0.16250 0.71570 0.02900
H10 H 0.39190 0.82640 0.03110
C11 C 0.3204(7) 0.4349(6) 0.2414(4)
H11 H 0.46030 0.46060 0.26380
H12 H 0.25800 0.30210 0.22840
C12 C 0.3037(6) 0.5294(6) 0.1455(3)
H13 H 0.41080 0.52780 0.10640
H14 H 0.17790 0.46100 0.10650
#END
