
#######################################################################
#
#                 Cambridge Crystallographic Data Centre
#                                CCDC
#
#######################################################################
#
# If this CIF has been generated from an entry in the Cambridge
# Structural Database, then it will include bibliographic, chemical,
# crystal, experimental, refinement or atomic coordinate data resulting
# from the CCDC's data processing and validation procedures.
#
#######################################################################

data_CSD_CIF_IFODIR01
_audit_creation_date 2019-09-12
_audit_creation_method CSD-ConQuest-V1
_database_code_CSD IFODIR01
_database_code_depnum_ccdc_archive 'CCDC 1953364'
_chemical_formula_sum 'C12 H14 Fe1 N2 O2 S2'
_chemical_formula_moiety
;
C12 H14 Fe1 N2 O2 S2
;
_journal_coden_Cambridge 1078
_journal_year 2019
_journal_name_full 'CSD Communication(Private Communication) '
loop_
_publ_author_name
"A.L.Rheingold"
"C.G.Riordan"
_chemical_name_systematic
;
dicarbonyl-[2,2'-{[(pyridin-2-yl)methyl]azanediyl}bis(ethane-1-thiolato)]-iron
;
_cell_volume    678.241
_exptl_crystal_colour 'red'
_exptl_crystal_density_diffrn 1.656
_exptl_crystal_description 'block'
_diffrn_ambient_temperature 173.2
#These two values have been output from a single CSD field.
_refine_ls_R_factor_gt 0.0295
_refine_ls_wR_factor_gt 0.0295
_symmetry_cell_setting triclinic
_symmetry_space_group_name_H-M 'P -1'
_symmetry_Int_Tables_number 2
loop_
_symmetry_equiv_pos_site_id
_symmetry_equiv_pos_as_xyz
1 x,y,z
2 -x,-y,-z
_cell_length_a 7.1089(10)
_cell_length_b 7.6191(11)
_cell_length_c 13.3834(19)
_cell_angle_alpha 91.047(2)
_cell_angle_beta 95.350(2)
_cell_angle_gamma 109.768(2)
_cell_formula_units_Z 2
loop_
_atom_type_symbol
_atom_type_radius_bond
C 0.68
H 0.23
Fe 1.52
N 0.68
O 0.68
S 1.02
loop_
_atom_site_label
_atom_site_type_symbol
_atom_site_fract_x
_atom_site_fract_y
_atom_site_fract_z
Fe1 Fe 0.39248(3) 0.76769(3) 0.24048(2)
S1 S 0.47499(7) 0.55745(7) 0.34243(3)
S2 S 0.29730(7) 0.99375(6) 0.15894(3)
O1 O 0.6575(2) 0.7595(2) 0.08896(11)
O2 O 0.7265(2) 1.0603(2) 0.35142(11)
N1 N 0.1616(2) 0.5530(2) 0.17261(10)
N2 N 0.1849(2) 0.7745(2) 0.33517(11)
C1 C 0.1705(3) 0.4307(2) 0.10035(13)
H1 H 0.29691 0.44568 0.07696
C2 C 0.0043(3) 0.2850(3) 0.05907(14)
H2 H 0.01598 0.20244 0.00784
C3 C -0.1795(3) 0.2614(3) 0.09360(14)
H3 H -0.29678 0.16375 0.06541
C4 C -0.1904(3) 0.3814(3) 0.16960(14)
H4 H -0.31442 0.36516 0.19591
C5 C -0.0177(2) 0.5260(2) 0.20693(12)
C6 C -0.0203(3) 0.6670(3) 0.28517(14)
H5 H -0.10662 0.60252 0.33667
H6 H -0.08008 0.75516 0.25365
C7 C 0.2214(3) 0.6923(3) 0.43246(13)
H7 H 0.10300 0.66875 0.47049
H8 H 0.33907 0.78184 0.47334
C8 C 0.2591(3) 0.5117(3) 0.41409(14)
H9 H 0.13910 0.41929 0.37620
H10 H 0.28592 0.45981 0.47901
C9 C 0.1955(3) 0.9725(3) 0.35491(14)
H11 H 0.32519 1.04295 0.39424
H12 H 0.08621 0.97323 0.39552
C10 C 0.1762(3) 1.0680(3) 0.25835(16)
H13 H 0.23800 1.20485 0.27133
H14 H 0.03203 1.03939 0.23543
C11 C 0.5530(3) 0.7608(2) 0.14873(13)
C12 C 0.5927(3) 0.9468(3) 0.30820(13)
#END
