
#######################################################################
#
#                 Cambridge Crystallographic Data Centre
#                                CCDC
#
#######################################################################
#
# If this CIF has been generated from an entry in the Cambridge
# Structural Database, then it will include bibliographic, chemical,
# crystal, experimental, refinement or atomic coordinate data resulting
# from the CCDC's data processing and validation procedures.
#
#######################################################################

data_CSD_CIF_IFUNAZ
_audit_creation_date 2008-12-02
_audit_creation_method CSD-ConQuest-V1
_database_code_CSD IFUNAZ
_database_code_depnum_ccdc_archive 'CCDC 603214'
_chemical_formula_sum 'C12 H20 Co1 N10 O6'
_chemical_formula_moiety
;
C12 H16 Co1 N10 O4,2(H2 O1)
;
_journal_coeditor_code "IUCr BR2083"
_journal_coden_Cambridge 1370
_journal_volume 64
_journal_year 2008
_journal_page_first m1478
_journal_name_full 'Acta Crystallogr.,Sect.E:Struct.Rep.Online '
loop_
_publ_author_name
"Wei-Feng Zhu"
"Xing-Fen Zhou"
_chemical_name_systematic
;
bis(5-(4-pyridyl)tetrazolido)-tetraaqua-cobalt(ii) dihydrate
;
_cell_volume    478.452
_exptl_crystal_colour 'red'
_exptl_crystal_density_diffrn 1.594
_diffrn_ambient_temperature 294
#These two values have been output from a single CSD field.
_refine_ls_R_factor_gt 0.0314
_refine_ls_wR_factor_gt 0.0314
_symmetry_cell_setting triclinic
_symmetry_space_group_name_H-M 'P -1'
_symmetry_Int_Tables_number 2
loop_
_symmetry_equiv_pos_site_id
_symmetry_equiv_pos_as_xyz
1 x,y,z
2 -x,-y,-z
_cell_length_a 7.2087(16)
_cell_length_b 7.8002(17)
_cell_length_c 8.6702(18)
_cell_angle_alpha 91.406(3)
_cell_angle_beta 90.482(3)
_cell_angle_gamma 100.953(3)
_cell_formula_units_Z 1
loop_
_atom_type_symbol
_atom_type_radius_bond
C 0.68
H 0.23
Co 1.33
N 0.68
O 0.68
loop_
_atom_site_label
_atom_site_type_symbol
_atom_site_fract_x
_atom_site_fract_y
_atom_site_fract_z
Co1 Co 0.50000 0.50000 0.00000
O1 O 0.6737(2) 0.6584(2) 0.16137(19)
O2 O 0.7102(3) 0.3451(2) -0.0278(2)
N1 N 0.3835(3) 0.3267(2) 0.1789(2)
N2 N 0.2607(3) 0.0110(3) 0.6942(2)
N3 N 0.2040(3) -0.1406(3) 0.7653(2)
N4 N 0.1459(3) -0.2640(3) 0.6620(2)
N5 N 0.1617(3) -0.1980(3) 0.5206(2)
C1 C 0.3706(4) 0.3835(3) 0.3237(3)
H1 H 0.39750 0.50340 0.34410
C2 C 0.3196(4) 0.2748(3) 0.4445(3)
H2 H 0.31200 0.32130 0.54350
C3 C 0.2795(3) 0.0948(3) 0.4185(3)
C4 C 0.2848(5) 0.0366(3) 0.2677(3)
H3 H 0.25420 -0.08230 0.24330
C5 C 0.3357(5) 0.1551(3) 0.1530(3)
H4 H 0.33660 0.11270 0.05190
C6 C 0.2333(3) -0.0290(3) 0.5441(3)
H5 H 0.670(4) 0.7610(19) 0.197(3)
H6 H 0.782(3) 0.629(4) 0.170(4)
H7 H 0.736(4) 0.276(3) 0.040(2)
H8 H 0.794(3) 0.372(4) -0.096(3)
O3 O 0.0218(2) 0.5988(2) 0.25348(19)
H9 H 0.066(4) 0.662(3) 0.332(2)
H10 H -0.018(4) 0.4918(15) 0.272(3)
O1A O 0.3263(2) 0.3416(2) -0.16137(19)
O2A O 0.2898(3) 0.6549(2) 0.0278(2)
N1A N 0.6165(3) 0.6733(2) -0.1789(2)
N2A N 0.7393(3) 0.9890(3) -0.6942(2)
N3A N 0.7960(3) 1.1406(3) -0.7653(2)
N4A N 0.8541(3) 1.2640(3) -0.6620(2)
N5A N 0.8383(3) 1.1980(3) -0.5206(2)
C1A C 0.6294(4) 0.6165(3) -0.3237(3)
H1A H 0.60250 0.49660 -0.34410
C2A C 0.6804(4) 0.7252(3) -0.4445(3)
H2A H 0.68800 0.67870 -0.54350
C3A C 0.7205(3) 0.9052(3) -0.4185(3)
C4A C 0.7152(5) 0.9634(3) -0.2677(3)
H3A H 0.74580 1.08230 -0.24330
C5A C 0.6643(5) 0.8449(3) -0.1530(3)
H4A H 0.66340 0.88730 -0.05190
C6A C 0.7667(3) 1.0290(3) -0.5441(3)
H5A H 0.330(4) 0.2390(19) -0.197(3)
H6A H 0.218(3) 0.371(4) -0.170(4)
H7A H 0.264(4) 0.724(3) -0.040(2)
H8A H 0.206(3) 0.628(4) 0.096(3)
#END
