
#######################################################################
#
#                 Cambridge Crystallographic Data Centre
#                                CCDC
#
#######################################################################
#
# If this CIF has been generated from an entry in the Cambridge
# Structural Database, then it will include bibliographic, chemical,
# crystal, experimental, refinement or atomic coordinate data resulting
# from the CCDC's data processing and validation procedures.
#
#######################################################################

data_CSD_CIF_IFUNAZ01
_audit_creation_date 2013-08-05
_audit_creation_method CSD-ConQuest-V1
_database_code_CSD IFUNAZ01
_database_code_depnum_ccdc_archive 'CCDC 924460'
_chemical_formula_sum 'C12 H20 Co1 N10 O6'
_chemical_formula_moiety
;
C12 H16 Co1 N10 O4,2(H2 O1)
;
_journal_coden_Cambridge 119
_journal_volume 1048
_journal_year 2013
_journal_page_first 214
_journal_name_full 'J.Mol.Struct. '
loop_
_publ_author_name
"S.Pellizzeri"
"E.M.Witko"
"T.M.Korter"
"J.Zubieta"
_chemical_name_systematic
;
Tetra-aqua-bis(5-(4-pyridyl)tetrazolato)-cobalt dihydrate
;
_cell_volume    469.716
_exptl_crystal_colour 'red'
_exptl_crystal_density_diffrn 1.624
_exptl_crystal_description 'rod'
_diffrn_ambient_temperature 90
#These two values have been output from a single CSD field.
_refine_ls_R_factor_gt 0.0271
_refine_ls_wR_factor_gt 0.0271
_symmetry_cell_setting triclinic
_symmetry_space_group_name_H-M 'P -1'
_symmetry_Int_Tables_number 2
loop_
_symmetry_equiv_pos_site_id
_symmetry_equiv_pos_as_xyz
1 x,y,z
2 -x,-y,-z
_cell_length_a 7.112(2)
_cell_length_b 7.767(2)
_cell_length_c 8.659(3)
_cell_angle_alpha 91.685(6)
_cell_angle_beta 90.069(5)
_cell_angle_gamma 100.743(5)
_cell_formula_units_Z 1
loop_
_atom_type_symbol
_atom_type_radius_bond
C 0.68
H 0.23
Co 1.26
N 0.68
O 0.68
loop_
_atom_site_label
_atom_site_type_symbol
_atom_site_fract_x
_atom_site_fract_y
_atom_site_fract_z
Co1 Co 0.50000 0.00000 1.00000
O1 O 0.3280(2) -0.1579(2) 0.83815(17)
H1 H 0.219(3) -0.138(3) 0.820(3)
H2 H 0.322(3) -0.264(2) 0.803(2)
O2 O 0.7108(2) -0.1576(2) 0.97287(17)
H3 H 0.742(3) -0.218(3) 1.039(2)
H4 H 0.796(3) -0.131(3) 0.911(2)
N1 N 0.6187(2) 0.1714(2) 0.82199(19)
N2 N 0.7394(2) 0.4882(2) 0.3056(2)
N3 N 0.7949(2) 0.6407(2) 0.2352(2)
N4 N 0.8535(3) 0.7654(2) 0.3397(2)
N5 N 0.8371(3) 0.6989(2) 0.48182(19)
C1 C 0.7661(3) 0.5280(3) 0.4566(2)
C2 C 0.7209(3) 0.4036(3) 0.5817(2)
C3 C 0.6834(3) 0.2230(3) 0.5542(2)
H5 H 0.69260 0.17550 0.45270
C4 C 0.6329(3) 0.1140(3) 0.6758(2)
H6 H 0.60650 -0.00890 0.65490
C5 C 0.6609(3) 0.3457(3) 0.8483(2)
H7 H 0.65550 0.38940 0.95150
C6 C 0.7115(3) 0.4638(3) 0.7340(2)
H8 H 0.73980 0.58600 0.75860
O3 O 0.0203(2) 0.09856(19) 0.25274(17)
H9 H 0.060(3) 0.157(3) 0.331(2)
H10 H -0.015(3) -0.001(2) 0.283(3)
O1A O 0.6720(2) 0.1579(2) 1.16185(17)
H1A H 0.781(3) 0.138(3) 1.180(3)
H2A H 0.678(3) 0.264(2) 1.197(2)
O2A O 0.2892(2) 0.1576(2) 1.02713(17)
H3A H 0.258(3) 0.218(3) 0.961(2)
H4A H 0.204(3) 0.131(3) 1.089(2)
N1A N 0.3813(2) -0.1714(2) 1.17801(19)
N2A N 0.2606(2) -0.4882(2) 1.6944(2)
N3A N 0.2051(2) -0.6407(2) 1.7648(2)
N4A N 0.1465(3) -0.7654(2) 1.6603(2)
N5A N 0.1629(3) -0.6989(2) 1.51818(19)
C1A C 0.2339(3) -0.5280(3) 1.5434(2)
C2A C 0.2791(3) -0.4036(3) 1.4183(2)
C3A C 0.3166(3) -0.2230(3) 1.4458(2)
H5A H 0.30740 -0.17550 1.54730
C4A C 0.3671(3) -0.1140(3) 1.3242(2)
H6A H 0.39350 0.00890 1.34510
C5A C 0.3391(3) -0.3457(3) 1.1517(2)
H7A H 0.34450 -0.38940 1.04850
C6A C 0.2885(3) -0.4638(3) 1.2660(2)
H8A H 0.26020 -0.58600 1.24140
#END
