
#######################################################################
#
#                 Cambridge Crystallographic Data Centre
#                                CCDC
#
#######################################################################
#
# If this CIF has been generated from an entry in the Cambridge
# Structural Database, then it will include bibliographic, chemical,
# crystal, experimental, refinement or atomic coordinate data resulting
# from the CCDC's data processing and validation procedures.
#
#######################################################################

data_CSD_CIF_IGAYAQ01
_audit_creation_date 2004-06-04
_audit_creation_method CSD-ConQuest-V1
_database_code_CSD IGAYAQ01
_database_code_depnum_ccdc_archive 'CCDC 195903'
_chemical_formula_sum 'C26 H28 Co1 N6 O12 S2'
_chemical_formula_moiety
;
C12 H20 Co1 N4 O6 2+,2(C7 H4 N1 O3 S1 1-)
;
_journal_coden_Cambridge 1003
_journal_volume 33
_journal_year 2003
_journal_page_first 875
_journal_name_full 'J.Chem.Cryst. '
loop_
_publ_author_name
"S.Cakir"
"I.Bulut"
"K.Aoki"
_chemical_name_systematic
;
Tetra-aqua-bis(3-nicotinamide)-cobalt(ii) bis(saccharinate)
;
_cell_volume    781.281
_exptl_crystal_colour 'pale pink'
_exptl_crystal_density_diffrn 1.572
_exptl_special_details
;
isomorphous with the Ni analogue

;
_diffrn_ambient_temperature 295
#These two values have been output from a single CSD field.
_refine_ls_R_factor_gt 0.047
_refine_ls_wR_factor_gt 0.047
_symmetry_cell_setting triclinic
_symmetry_space_group_name_H-M 'P -1'
_symmetry_Int_Tables_number 2
loop_
_symmetry_equiv_pos_site_id
_symmetry_equiv_pos_as_xyz
1 x,y,z
2 -x,-y,-z
_cell_length_a 9.0180(8)
_cell_length_b 10.267(1)
_cell_length_c 8.687(2)
_cell_angle_alpha 101.50(1)
_cell_angle_beta 93.43(1)
_cell_angle_gamma 82.699(8)
_cell_formula_units_Z 1
loop_
_atom_type_symbol
_atom_type_radius_bond
C 0.68
H 0.23
Co 1.33
N 0.68
O 0.68
S 1.02
loop_
_atom_site_label
_atom_site_type_symbol
_atom_site_fract_x
_atom_site_fract_y
_atom_site_fract_z
Co1 Co 0.00000 0.00000 0.00000
S1 S 0.4638(1) 0.26642(9) 0.2284(1)
O1 O -0.0738(4) 0.3406(3) -0.5827(3)
O2 O 0.4385(4) 0.2391(4) 0.3798(4)
O3 O 0.5965(4) 0.1917(3) 0.1522(4)
O4 O 0.1399(3) 0.3771(3) -0.0046(4)
O5 O 0.2107(3) 0.0273(3) -0.0588(4)
O6 O -0.0376(3) 0.2085(3) 0.1028(3)
N1 N -0.0804(3) 0.0469(3) -0.2243(3)
N2 N 0.0178(5) 0.4061(4) -0.3366(4)
N3 N 0.3174(4) 0.2477(3) 0.1136(4)
C1 C -0.0364(4) 0.1538(3) -0.2682(4)
C2 C -0.0934(4) 0.1989(3) -0.4028(4)
C3 C -0.1981(4) 0.1285(4) -0.4975(4)
C4 C -0.2434(5) 0.0181(4) -0.4525(5)
C5 C -0.1825(4) -0.0194(4) -0.3158(4)
C6 C -0.0476(4) 0.3206(4) -0.4468(4)
C7 C 0.4679(4) 0.4374(4) 0.2299(4)
C8 C 0.5705(5) 0.5218(5) 0.3018(5)
C9 C 0.5494(6) 0.6517(5) 0.2717(5)
C10 C 0.4316(6) 0.6928(4) 0.1770(5)
C11 C 0.3277(5) 0.6059(4) 0.1067(5)
C12 C 0.3486(4) 0.4775(3) 0.1354(4)
C13 C 0.2586(4) 0.3643(4) 0.0731(4)
H1 H 0.051(5) 0.195(4) -0.209(5)
H2 H -0.230(5) 0.151(5) -0.608(6)
H3 H -0.329(6) -0.027(5) -0.510(6)
H4 H -0.213(4) -0.100(4) -0.280(4)
H5 H 0.006(7) 0.408(7) -0.219(8)
H6 H 0.037(5) 0.482(5) -0.347(6)
H7 H 0.662(6) 0.484(5) 0.386(6)
H8 H 0.645(6) 0.720(6) 0.320(6)
H9 H 0.410(6) 0.793(5) 0.155(6)
H10 H 0.229(5) 0.635(4) 0.038(5)
H11 H 0.272(7) 0.088(6) -0.005(7)
H12 H 0.259(6) -0.014(6) -0.089(7)
H13 H 0.000(5) 0.273(5) 0.078(6)
H14 H -0.048(5) 0.234(4) 0.208(6)
O5A O -0.2107(3) -0.0273(3) 0.0588(4)
H11A H -0.272(7) -0.088(6) 0.005(7)
H12A H -0.259(6) 0.014(6) 0.089(7)
O6A O 0.0376(3) -0.2085(3) -0.1028(3)
H13A H 0.000(5) -0.273(5) -0.078(6)
H14A H 0.048(5) -0.234(4) -0.208(6)
N1A N 0.0804(3) -0.0469(3) 0.2243(3)
C1A C 0.0364(4) -0.1538(3) 0.2682(4)
C2A C 0.0934(4) -0.1989(3) 0.4028(4)
C3A C 0.1981(4) -0.1285(4) 0.4975(4)
C4A C 0.2434(5) -0.0181(4) 0.4525(5)
C5A C 0.1825(4) 0.0194(4) 0.3158(4)
H4A H 0.213(4) 0.100(4) 0.280(4)
H3A H 0.329(6) 0.027(5) 0.510(6)
H2A H 0.230(5) -0.151(5) 0.608(6)
C6A C 0.0476(4) -0.3206(4) 0.4468(4)
O1A O 0.0738(4) -0.3406(3) 0.5827(3)
N2A N -0.0178(5) -0.4061(4) 0.3366(4)
H5A H -0.006(7) -0.408(7) 0.219(8)
H6A H -0.037(5) -0.482(5) 0.347(6)
H1A H -0.051(5) -0.195(4) 0.209(5)
#END
