
#######################################################################
#
#                 Cambridge Crystallographic Data Centre
#                                CCDC
#
#######################################################################
#
# If this CIF has been generated from an entry in the Cambridge
# Structural Database, then it will include bibliographic, chemical,
# crystal, experimental, refinement or atomic coordinate data resulting
# from the CCDC's data processing and validation procedures.
#
#######################################################################

data_CSD_CIF_IGAYAQ
_audit_creation_date 2002-09-05
_audit_creation_method CSD-ConQuest-V1
_database_code_CSD IGAYAQ
_database_code_depnum_ccdc_archive 'CCDC 182692'
_chemical_formula_sum 'C26 H28 Co1 N6 O12 S2'
_chemical_formula_moiety
;
C12 H20 Co1 N4 O6 2+,2(C7 H4 N1 O3 S1 1-)
;
_journal_coden_Cambridge 644
_journal_volume 57
_journal_year 2002
_journal_page_first 657
_journal_name_full 'Z.Naturforsch.,B:Chem.Sci. '
loop_
_publ_author_name
"E.E.Castellano"
"O.E.Piro"
"B.S.Parajon-Costa"
"E.J.Baran"
_chemical_name_systematic
;
Tetraaqua-bis(nicotinamide)-cobalt(ii) disaccharinate
;
_cell_volume    767.632
_exptl_crystal_colour 'pink'
_exptl_crystal_density_diffrn 1.6
_exptl_special_details
;
isomorphous with the Ni- and Zn-analogues

;
_diffrn_ambient_temperature 116
#These two values have been output from a single CSD field.
_refine_ls_R_factor_gt 0.0271
_refine_ls_wR_factor_gt 0.0271
_symmetry_cell_setting triclinic
_symmetry_space_group_name_H-M 'P -1'
_symmetry_Int_Tables_number 2
loop_
_symmetry_equiv_pos_site_id
_symmetry_equiv_pos_as_xyz
1 x,y,z
2 -x,-y,-z
_cell_length_a 8.6687(2)
_cell_length_b 8.8855(2)
_cell_length_c 10.2515(2)
_cell_angle_alpha 82.788(1)
_cell_angle_beta 78.562(1)
_cell_angle_gamma 87.328(1)
_cell_formula_units_Z 1
loop_
_atom_type_symbol
_atom_type_radius_bond
C 0.68
H 0.23
Co 1.33
N 0.68
O 0.68
S 1.02
loop_
_atom_site_label
_atom_site_type_symbol
_atom_site_fract_x
_atom_site_fract_y
_atom_site_fract_z
S1 S 0.23280(4) 0.53584(4) 0.72811(4)
Co1 Co 0.00000 0.00000 0.00000
N1 N 0.22365(15) -0.08085(15) 0.04539(13)
N2 N 0.33707(16) 0.01723(17) 0.40664(14)
H1 H 0.35930 0.04310 0.48080
H2 H 0.24210 0.03490 0.38910
N3 N 0.11639(16) 0.68174(15) 0.74927(14)
O1 O 0.58311(13) -0.07591(14) 0.34167(12)
O2 O 0.06219(14) 0.21268(13) 0.03011(13)
O3 O 0.10102(14) 0.04072(13) -0.20796(12)
O4 O 0.16083(15) 0.39927(14) 0.80307(12)
O5 O 0.38566(14) 0.56486(15) 0.75295(13)
O6 O -0.00668(14) 0.86180(13) 0.62354(12)
C1 C 0.31522(19) -0.18427(18) -0.02175(16)
H3 H 0.28470 -0.21610 -0.09780
C2 C 0.45184(19) -0.24577(19) 0.01576(17)
H4 H 0.51370 -0.31800 -0.03410
C3 C 0.49729(19) -0.20067(18) 0.12709(16)
H5 H 0.59070 -0.24120 0.15460
C4 C 0.40307(18) -0.09475(18) 0.19770(16)
C5 C 0.26908(19) -0.03712(18) 0.15241(16)
H6 H 0.20640 0.03690 0.19940
C6 C 0.44710(19) -0.04869(18) 0.32098(16)
C7 C 0.07351(18) 0.74204(18) 0.63376(16)
C8 C 0.13459(18) 0.65244(18) 0.51908(16)
C9 C 0.10264(19) 0.67281(19) 0.39078(16)
H7 H 0.03660 0.75430 0.36360
C10 C 0.1708(2) 0.5695(2) 0.30268(17)
H8 H 0.15030 0.58070 0.21430
C11 C 0.2679(2) 0.4507(2) 0.34201(18)
H9 H 0.31290 0.38230 0.27990
C12 C 0.30076(19) 0.42983(19) 0.47102(17)
H10 H 0.36740 0.34910 0.49850
C13 C 0.23147(18) 0.53255(18) 0.55651(16)
H11 H 0.075(3) -0.011(3) -0.261(3)
H12 H 0.088(3) 0.273(3) -0.036(3)
H13 H 0.196(3) 0.059(3) -0.239(3)
H14 H 0.006(3) 0.257(3) 0.093(3)
N1A N -0.22365(15) 0.08085(15) -0.04539(13)
C1A C -0.31522(19) 0.18427(18) 0.02175(16)
H3A H -0.28470 0.21610 0.09780
C2A C -0.45184(19) 0.24577(19) -0.01576(17)
H4A H -0.51370 0.31800 0.03410
C3A C -0.49729(19) 0.20067(18) -0.12709(16)
H5A H -0.59070 0.24120 -0.15460
C4A C -0.40307(18) 0.09475(18) -0.19770(16)
C5A C -0.26908(19) 0.03712(18) -0.15241(16)
H6A H -0.20640 -0.03690 -0.19940
C6A C -0.44710(19) 0.04869(18) -0.32098(16)
N2A N -0.33707(16) -0.01723(17) -0.40664(14)
H1A H -0.35930 -0.04310 -0.48080
H2A H -0.24210 -0.03490 -0.38910
O1A O -0.58311(13) 0.07591(14) -0.34167(12)
O2A O -0.06219(14) -0.21268(13) -0.03011(13)
H12A H -0.088(3) -0.273(3) 0.036(3)
H14A H -0.006(3) -0.257(3) -0.093(3)
O3A O -0.10102(14) -0.04072(13) 0.20796(12)
H11A H -0.075(3) 0.011(3) 0.261(3)
H13A H -0.196(3) -0.059(3) 0.239(3)
#END
