
#######################################################################
#
#                 Cambridge Crystallographic Data Centre
#                                CCDC
#
#######################################################################
#
# If this CIF has been generated from an entry in the Cambridge
# Structural Database, then it will include bibliographic, chemical,
# crystal, experimental, refinement or atomic coordinate data resulting
# from the CCDC's data processing and validation procedures.
#
#######################################################################

data_CSD_CIF_IHIDIM
_audit_creation_date 2003-10-14
_audit_creation_method CSD-ConQuest-V1
_database_code_CSD IHIDIM
_database_code_depnum_ccdc_archive 'CCDC 206280'
_chemical_formula_sum 'C16 H20 Co1 N14'
_chemical_formula_moiety
;
C16 H20 Co1 N14
;
_journal_coden_Cambridge 440
_journal_volume 27
_journal_year 2003
_journal_page_first 983
_journal_name_full 'New J.Chem. '
loop_
_publ_author_name
"A.Mohamadou"
"G.A.van Albada"
"H.Kooijman"
"B.Wieczorek"
"A.L.Spek"
"J.Reedijk"
_chemical_name_systematic
;
bis(2,2'-Biimidazoline)-bis(dicyanamido)-cobalt(ii)
;
_chemical_melting_point 508.15
_cell_volume    477.336
_exptl_crystal_colour 'orange'
_exptl_crystal_density_diffrn 1.626
_exptl_special_details
;
Melts with decomposition.
Isostructural with the Cu analogue

;
_exptl_crystal_description 'block'
_diffrn_ambient_temperature 150
#These two values have been output from a single CSD field.
_refine_ls_R_factor_gt 0.024
_refine_ls_wR_factor_gt 0.024
_symmetry_cell_setting triclinic
_symmetry_space_group_name_H-M 'P -1'
_symmetry_Int_Tables_number 2
loop_
_symmetry_equiv_pos_site_id
_symmetry_equiv_pos_as_xyz
1 x,y,z
2 -x,-y,-z
_cell_length_a 6.7844(10)
_cell_length_b 8.097(2)
_cell_length_c 9.462(2)
_cell_angle_alpha 67.890(8)
_cell_angle_beta 82.440(9)
_cell_angle_gamma 86.531(10)
_cell_formula_units_Z 1
loop_
_atom_type_symbol
_atom_type_radius_bond
C 0.68
H 0.23
Co 1.33
N 0.68
loop_
_atom_site_label
_atom_site_type_symbol
_atom_site_fract_x
_atom_site_fract_y
_atom_site_fract_z
Co1 Co 0.00000 0.50000 0.00000
N1 N 0.13811(18) 0.25594(15) -0.02906(13)
N2 N 0.2850(2) 0.02773(18) 0.19077(16)
N3 N 0.1324(2) 0.23228(17) -0.28162(14)
N4 N -0.13425(16) 0.32969(15) 0.21488(12)
N5 N -0.10632(18) 0.19534(16) 0.46702(14)
N6 N 0.20218(16) 0.50793(15) 0.14820(12)
N7 N 0.25375(19) 0.43566(18) 0.39389(15)
C1 C 0.2186(2) 0.12885(18) 0.08500(16)
C2 C 0.1395(2) 0.23496(17) -0.16078(15)
C3 C -0.03665(19) 0.31226(17) 0.32870(15)
C4 C -0.2904(2) 0.11986(19) 0.45242(16)
C5 C -0.2944(2) 0.19587(18) 0.27616(15)
C6 C 0.14523(19) 0.41968(17) 0.29188(15)
C7 C 0.4110(2) 0.56554(19) 0.31134(16)
C8 C 0.3763(2) 0.61324(19) 0.14195(16)
H1 H -0.063(3) 0.184(2) 0.551(2)
H2 H -0.40780 0.16040 0.50540
H3 H -0.28480 -0.01210 0.49400
H4 H -0.26850 0.10040 0.23440
H5 H -0.42490 0.25230 0.24940
H6 H 0.230(3) 0.387(2) 0.488(2)
H7 H 0.54460 0.51200 0.33090
H8 H 0.39530 0.67160 0.34010
H9 H 0.34880 0.74240 0.09200
H10 H 0.49450 0.58100 0.08380
N1A N -0.13811(18) 0.74406(15) 0.02906(13)
C1A C -0.2186(2) 0.87115(18) -0.08500(16)
N2A N -0.2850(2) 0.97227(18) -0.19077(16)
C2A C -0.1395(2) 0.76504(17) 0.16078(15)
N3A N -0.1324(2) 0.76772(17) 0.28162(14)
N4A N 0.13425(16) 0.67031(15) -0.21488(12)
C3A C 0.03665(19) 0.68774(17) -0.32870(15)
N5A N 0.10632(18) 0.80466(16) -0.46702(14)
C4A C 0.2904(2) 0.88014(19) -0.45242(16)
C5A C 0.2944(2) 0.80413(18) -0.27616(15)
H4A H 0.26850 0.89960 -0.23440
H5A H 0.42490 0.74770 -0.24940
H2A H 0.40780 0.83960 -0.50540
H3A H 0.28480 1.01210 -0.49400
H1A H 0.063(3) 0.816(2) -0.551(2)
C6A C -0.14523(19) 0.58032(17) -0.29188(15)
N6A N -0.20218(16) 0.49207(15) -0.14820(12)
C8A C -0.3763(2) 0.38676(19) -0.14195(16)
C7A C -0.4110(2) 0.43446(19) -0.31134(16)
N7A N -0.25375(19) 0.56434(18) -0.39389(15)
H6A H -0.230(3) 0.613(2) -0.488(2)
H7A H -0.54460 0.48800 -0.33090
H8A H -0.39530 0.32840 -0.34010
H9A H -0.34880 0.25760 -0.09200
H10A H -0.49450 0.41900 -0.08380
#END
