
#######################################################################
#
#                 Cambridge Crystallographic Data Centre
#                                CCDC
#
#######################################################################
#
# If this CIF has been generated from an entry in the Cambridge
# Structural Database, then it will include bibliographic, chemical,
# crystal, experimental, refinement or atomic coordinate data resulting
# from the CCDC's data processing and validation procedures.
#
#######################################################################

data_CSD_CIF_IHIGEN
_audit_creation_date 2015-05-07
_audit_creation_method CSD-ConQuest-V1
_database_code_CSD IHIGEN
_database_code_depnum_ccdc_archive 'CCDC 1056900'
_chemical_formula_sum 'C16 H14 Mn1 N3 O4'
_chemical_formula_moiety
;
C16 H14 Mn1 N3 O4
;
_journal_coeditor_code "ly3011"
_journal_coden_Cambridge 1777
_journal_volume 71
_journal_year 2015
_journal_page_first 423
_journal_name_full 'Acta Crystallogr.,Sect.C:Cryst.Struct.Chem. '
loop_
_publ_author_name
"D.T.Marake"
"P.P.Mokolokolo"
"H.G.Visser"
"A.Brink"
_chemical_name_systematic
;
fac-Tricarbonyl-(2-((2-(1H-imidazol-4-yl)ethyl)iminomethyl)-5-methylphenolato)
-manganese(i) methanol solvate
;
_cell_volume    795.650
_exptl_crystal_colour 'yellow'
_exptl_crystal_density_diffrn 1.533
_exptl_crystal_description 'Cuboid'
_diffrn_ambient_temperature 100
#These two values have been output from a single CSD field.
_refine_ls_R_factor_gt 0.0274
_refine_ls_wR_factor_gt 0.0274
_symmetry_cell_setting triclinic
_symmetry_space_group_name_H-M 'P -1'
_symmetry_Int_Tables_number 2
loop_
_symmetry_equiv_pos_site_id
_symmetry_equiv_pos_as_xyz
1 x,y,z
2 -x,-y,-z
_cell_length_a 7.4262(11)
_cell_length_b 9.0038(12)
_cell_length_c 13.0780(18)
_cell_angle_alpha 108.494(4)
_cell_angle_beta 104.058(5)
_cell_angle_gamma 93.363(4)
_cell_formula_units_Z 2
loop_
_atom_type_symbol
_atom_type_radius_bond
C 0.68
H 0.23
Mn 1.61
N 0.68
O 0.68
loop_
_atom_site_label
_atom_site_type_symbol
_atom_site_fract_x
_atom_site_fract_y
_atom_site_fract_z
Mn1 Mn 0.33044(3) 0.28915(2) 0.20671(2)
N1 N 0.49591(17) 0.27765(14) 0.35149(9)
N2 N 0.36595(17) 0.05560(14) 0.13724(9)
N3 N 0.35498(19) -0.17573(16) 0.00903(11)
O1 O 0.1128(2) 0.3236(2) -0.00342(11)
O2 O 0.57914(14) 0.35750(12) 0.18199(8)
O3 O -0.03464(16) 0.19609(14) 0.23735(10)
O4 O 0.29572(18) 0.62397(14) 0.31472(10)
C1 C 0.6465(2) 0.37608(17) 0.41049(11)
H1 H 0.71020 0.36780 0.48040
C2 C 0.1990(2) 0.3054(2) 0.07546(13)
C3 C 0.1103(2) 0.22980(17) 0.22737(11)
C4 C 0.4559(2) 0.14201(18) 0.38527(11)
H2 H 0.31910 0.11800 0.37390
H3 H 0.51980 0.16650 0.46580
C5 C 0.3104(2) 0.49447(18) 0.27341(12)
C6 C 0.5257(2) -0.00027(19) 0.31443(13)
H4 H 0.66390 0.02330 0.33150
H5 H 0.49760 -0.09220 0.33700
C7 C 0.9950(3) 0.8520(2) 0.28463(16)
H6 H 1.07770 0.80520 0.23890
H7 H 1.06890 0.93760 0.35240
H8 H 0.89800 0.89470 0.24130
C8 C 0.7243(2) 0.49784(17) 0.37729(11)
C9 C 0.69326(19) 0.47922(16) 0.26234(11)
C10 C 0.7893(2) 0.59395(18) 0.23528(12)
H9 H 0.77560 0.58030 0.15860
C11 C 0.9038(2) 0.72695(18) 0.31738(13)
C12 C 0.9313(2) 0.74383(18) 0.43009(13)
H10 H 1.00840 0.83470 0.48690
C13 C 0.8473(2) 0.62951(18) 0.45900(12)
H11 H 0.87260 0.63940 0.53580
C14 C 0.4431(2) -0.04588(18) 0.19044(12)
C15 C 0.3148(2) -0.02888(18) 0.02809(12)
H12 H 0.25680 0.01070 -0.02910
C16 C 0.4371(2) -0.18877(19) 0.11063(13)
H13 H 0.48160 -0.27990 0.12340
H14 H 0.354(3) -0.236(3) -0.0497(19)
#END
