
#######################################################################
#
#                 Cambridge Crystallographic Data Centre
#                                CCDC
#
#######################################################################
#
# If this CIF has been generated from an entry in the Cambridge
# Structural Database, then it will include bibliographic, chemical,
# crystal, experimental, refinement or atomic coordinate data resulting
# from the CCDC's data processing and validation procedures.
#
#######################################################################

data_CSD_CIF_IJEWEA
_audit_creation_date 2011-03-25
_audit_creation_method CSD-ConQuest-V1
_database_code_CSD IJEWEA
_database_code_depnum_ccdc_archive 'CCDC 810748'
_chemical_formula_sum 'C38 H42 Cr1 N4'
_chemical_formula_moiety
;
C38 H42 Cr1 N4
;
_journal_coden_Cambridge 579
_journal_volume 29
_journal_year 2010
_journal_page_first 2180
_journal_name_full 'Organometallics '
loop_
_publ_author_name
"S.Latreche"
"F.Schaper"
_chemical_name_systematic
;
bis(N,N'-Dibenzylpent-2-ene-2-amino-4-iminato)-chromium(ii)
;
_cell_volume    792.170
_exptl_crystal_colour 'red'
_exptl_crystal_density_diffrn 1.272
_exptl_crystal_description 'plate'
_diffrn_ambient_temperature 150
#These two values have been output from a single CSD field.
_refine_ls_R_factor_gt 0.0349
_refine_ls_wR_factor_gt 0.0349
_symmetry_cell_setting triclinic
_symmetry_space_group_name_H-M 'P -1'
_symmetry_Int_Tables_number 2
loop_
_symmetry_equiv_pos_site_id
_symmetry_equiv_pos_as_xyz
1 x,y,z
2 -x,-y,-z
_cell_length_a 9.2442(4)
_cell_length_b 9.3053(4)
_cell_length_c 9.8732(4)
_cell_angle_alpha 103.695(2)
_cell_angle_beta 98.265(2)
_cell_angle_gamma 101.495(2)
_cell_formula_units_Z 1
loop_
_atom_type_symbol
_atom_type_radius_bond
C 0.68
H 0.23
Cr 1.39
N 0.68
loop_
_atom_site_label
_atom_site_type_symbol
_atom_site_fract_x
_atom_site_fract_y
_atom_site_fract_z
Cr1 Cr 0.50000 0.00000 0.00000
N1 N 0.45908(15) -0.13086(14) 0.13829(14)
N2 N 0.56079(15) 0.18498(14) 0.17689(14)
C1 C 0.5482(2) -0.2162(2) 0.3470(2)
H1 H 0.56060 -0.31000 0.28960
H2 H 0.62780 -0.17780 0.42980
H3 H 0.45280 -0.23400 0.37570
C2 C 0.55332(18) -0.10087(18) 0.26164(17)
C3 C 0.7299(2) 0.3214(2) 0.41197(19)
H4 H 0.78230 0.39410 0.37030
H5 H 0.80100 0.29570 0.47750
H6 H 0.66000 0.36460 0.46170
C4 C 0.64495(18) 0.17888(18) 0.29589(17)
C5 C 0.65728(18) 0.04085(19) 0.32437(17)
H7 H 0.74100 0.04300 0.39010
C6 C 0.33065(18) -0.26325(17) 0.10147(17)
H8 H 0.28780 -0.28610 0.00090
H9 H 0.36730 -0.35020 0.11630
C7 C 0.20637(18) -0.24547(18) 0.18434(16)
C8 C 0.19162(19) -0.10428(19) 0.25991(17)
H10 H 0.26460 -0.01640 0.26770
C9 C 0.0684(2) -0.0944(2) 0.32356(18)
H11 H 0.05920 0.00020 0.37400
C10 C -0.0410(2) -0.2242(2) 0.31267(19)
H12 H -0.12410 -0.21690 0.35460
C11 C -0.0260(2) -0.3654(2) 0.2388(2)
H13 H -0.09900 -0.45300 0.23140
C12 C 0.09711(19) -0.3760(2) 0.17641(18)
H14 H 0.10730 -0.47120 0.12850
C13 C 0.5081(2) 0.32435(18) 0.17503(19)
H15 H 0.52070 0.35110 0.08750
H16 H 0.56770 0.40830 0.25430
C14 C 0.34378(19) 0.29786(17) 0.18571(17)
C15 C 0.3010(2) 0.33674(18) 0.31605(18)
H17 H 0.37440 0.38430 0.39810
C16 C 0.1502(2) 0.3055(2) 0.3255(2)
H18 H 0.12310 0.33300 0.41350
C17 C 0.0400(2) 0.2335(2) 0.2043(2)
H19 H -0.06100 0.21110 0.21040
C18 C 0.0817(2) 0.1950(2) 0.0737(2)
H20 H 0.00820 0.14710 -0.00820
C19 C 0.2318(2) 0.2275(2) 0.06431(18)
H21 H 0.25840 0.20210 -0.02410
N1A N 0.54092(15) 0.13086(14) -0.13829(14)
N2A N 0.43921(15) -0.18498(14) -0.17689(14)
C1A C 0.4518(2) 0.2162(2) -0.3470(2)
H1A H 0.43940 0.31000 -0.28960
H2A H 0.37220 0.17780 -0.42980
H3A H 0.54720 0.23400 -0.37570
C2A C 0.44668(18) 0.10087(18) -0.26164(17)
C3A C 0.2701(2) -0.3214(2) -0.41197(19)
H4A H 0.21770 -0.39410 -0.37030
H5A H 0.19900 -0.29570 -0.47750
H6A H 0.34000 -0.36460 -0.46170
C4A C 0.35505(18) -0.17888(18) -0.29589(17)
C5A C 0.34272(18) -0.04085(19) -0.32437(17)
H7A H 0.25900 -0.04300 -0.39010
C6A C 0.66935(18) 0.26325(17) -0.10147(17)
H8A H 0.71220 0.28610 -0.00090
H9A H 0.63270 0.35020 -0.11630
C7A C 0.79363(18) 0.24547(18) -0.18434(16)
C8A C 0.80838(19) 0.10428(19) -0.25991(17)
H10A H 0.73540 0.01640 -0.26770
C9A C 0.9316(2) 0.0944(2) -0.32356(18)
H11A H 0.94080 -0.00020 -0.37400
C10A C 1.0410(2) 0.2242(2) -0.31267(19)
H12A H 1.12410 0.21690 -0.35460
C11A C 1.0260(2) 0.3654(2) -0.2388(2)
H13A H 1.09900 0.45300 -0.23140
C12A C 0.90289(19) 0.3760(2) -0.17641(18)
H14A H 0.89270 0.47120 -0.12850
C13A C 0.4919(2) -0.32435(18) -0.17503(19)
H15A H 0.47930 -0.35110 -0.08750
H16A H 0.43230 -0.40830 -0.25430
C14A C 0.65622(19) -0.29786(17) -0.18571(17)
C15A C 0.6990(2) -0.33674(18) -0.31605(18)
H17A H 0.62560 -0.38430 -0.39810
C16A C 0.8498(2) -0.3055(2) -0.3255(2)
H18A H 0.87690 -0.33300 -0.41350
C17A C 0.9600(2) -0.2335(2) -0.2043(2)
H19A H 1.06100 -0.21110 -0.21040
C18A C 0.9183(2) -0.1950(2) -0.0737(2)
H20A H 0.99180 -0.14710 0.00820
C19A C 0.7682(2) -0.2275(2) -0.06431(18)
H21A H 0.74160 -0.20210 0.02410
#END
