
#######################################################################
#
#                 Cambridge Crystallographic Data Centre
#                                CCDC
#
#######################################################################
#
# If this CIF has been generated from an entry in the Cambridge
# Structural Database, then it will include bibliographic, chemical,
# crystal, experimental, refinement or atomic coordinate data resulting
# from the CCDC's data processing and validation procedures.
#
#######################################################################

data_CSD_CIF_IKEZEE
_audit_creation_date 2011-04-19
_audit_creation_method CSD-ConQuest-V1
_database_code_CSD IKEZEE
_database_code_depnum_ccdc_archive 'CCDC 784770'
_chemical_formula_sum 'C28 H36 Co1 N2 O16'
_chemical_formula_moiety
;
C28 H28 Co1 N2 O12,4(H2 O1)
;
_journal_coden_Cambridge 211
_journal_volume 64
_journal_year 2011
_journal_page_first 244
_journal_name_full 'J.Coord.Chem. '
loop_
_publ_author_name
"Xiu-Mei Zhang"
"Xiu-Bing Li"
"En-Qing Gao"
_chemical_name_systematic
;
Tetraaqua-bis(1-(carboxymethyl)pyridinio-4-benzoato)-cobalt(ii) tetrahydrate
;
_cell_volume   1560.905
_exptl_crystal_colour 'red'
_exptl_crystal_density_diffrn 1.522
_exptl_special_details
;
isomorphous with the Mn analogue

;
_exptl_crystal_description 'block'
_diffrn_ambient_temperature 293
#These two values have been output from a single CSD field.
_refine_ls_R_factor_gt 0.0304
_refine_ls_wR_factor_gt 0.0304
_symmetry_cell_setting monoclinic
_symmetry_space_group_name_H-M 'C 2/m'
_symmetry_Int_Tables_number 12
loop_
_symmetry_equiv_pos_site_id
_symmetry_equiv_pos_as_xyz
1 x,y,z
2 -x,y,-z
3 1/2+x,1/2+y,z
4 1/2-x,1/2+y,-z
5 -x,-y,-z
6 x,-y,z
7 -1/2-x,-1/2-y,-z
8 -1/2+x,-1/2-y,z
_cell_length_a 14.5705(6)
_cell_length_b 7.0987(3)
_cell_length_c 15.0946(7)
_cell_angle_alpha 90
_cell_angle_beta 91.220(1)
_cell_angle_gamma 90
_cell_formula_units_Z 2
loop_
_atom_type_symbol
_atom_type_radius_bond
C 0.68
H 0.23
Co 1.26
N 0.68
O 0.68
loop_
_atom_site_label
_atom_site_type_symbol
_atom_site_fract_x
_atom_site_fract_y
_atom_site_fract_z
Co1 Co 0.50000 0.50000 0.50000
C1 C 0.28705(12) 0.50000 0.48916(11)
C2 C 0.20329(12) 0.50000 0.42606(12)
H1 H 0.1696(11) 0.607(3) 0.4349(11)
C3 C 0.24715(13) 0.3373(2) 0.29199(10)
H2 H 0.23380 0.22460 0.32030
C4 C 0.28321(14) 0.3340(2) 0.20853(11)
H3 H 0.29420 0.21900 0.18130
C5 C 0.30350(13) 0.50000 0.16441(12)
C6 C 0.34114(13) 0.50000 0.07390(12)
C7 C 0.35917(14) 0.3328(3) 0.0303(1)
H4 H 0.34910 0.21870 0.05870
C8 C 0.39215(14) 0.3337(3) -0.05530(11)
H5 H 0.40400 0.21990 -0.08340
C9 C 0.40764(14) 0.50000 -0.09920(12)
C10 C 0.44088(15) 0.50000 -0.19389(13)
O1 O 0.36380(9) 0.50000 0.45475(9)
O2 O 0.2695(1) 0.50000 0.56970(9)
O3 O 0.45199(10) 0.6560(2) -0.23025(7)
O4 O 0.52652(7) 0.28974(16) 0.40651(6)
H6 H 0.5332(13) 0.315(3) 0.3529(15)
H7 H 0.4912(14) 0.209(3) 0.4059(14)
N1 N 0.23113(10) 0.50000 0.33261(10)
O5 O 0.40527(11) 0.00000 0.37719(11)
H8 H 0.352(2) 0.00000 0.388(2)
H9 H 0.411(2) 0.00000 0.322(3)
O6 O 0.45343(15) 0.00000 0.19838(14)
H10 H 0.4885(17) 0.077(4) 0.2035(18)
C1A C 0.71295(12) 0.50000 0.51084(11)
C2A C 0.79671(12) 0.50000 0.57394(12)
H1E H 0.1696(11) 0.393(3) 0.4349(11)
H1A H 0.8304(11) 0.607(3) 0.5651(11)
H1D H 0.8304(11) 0.393(3) 0.5651(11)
C3E C 0.24715(13) 0.6627(2) 0.29199(10)
C3A C 0.75285(13) 0.3373(2) 0.70801(10)
C3D C 0.75285(13) 0.6627(2) 0.70801(10)
H2E H 0.23380 0.77540 0.32030
H2A H 0.76620 0.22460 0.67970
H2D H 0.76620 0.77540 0.67970
C4E C 0.28321(14) 0.6660(2) 0.20853(11)
C4A C 0.71679(14) 0.3340(2) 0.79147(11)
C4D C 0.71679(14) 0.6660(2) 0.79147(11)
H3E H 0.29420 0.78100 0.18130
H3A H 0.70580 0.21900 0.81870
H3D H 0.70580 0.78100 0.81870
C5A C 0.69650(13) 0.50000 0.83559(12)
C6A C 0.65886(13) 0.50000 0.92610(12)
C7E C 0.35917(14) 0.6672(3) 0.0303(1)
C7A C 0.64083(14) 0.3328(3) 0.9697(1)
C7D C 0.64083(14) 0.6672(3) 0.9697(1)
H4E H 0.34910 0.78130 0.05870
H4A H 0.65090 0.21870 0.94130
H4D H 0.65090 0.78130 0.94130
C8E C 0.39215(14) 0.6663(3) -0.05530(11)
C8A C 0.60785(14) 0.3337(3) 1.05530(11)
C8D C 0.60785(14) 0.6663(3) 1.05530(11)
H5E H 0.40400 0.78010 -0.08340
H5A H 0.59600 0.21990 1.08340
H5D H 0.59600 0.78010 1.08340
C9A C 0.59236(14) 0.50000 1.09920(12)
C10A C 0.55912(15) 0.50000 1.19389(13)
O1A O 0.63620(9) 0.50000 0.54525(9)
O2A O 0.7305(1) 0.50000 0.43030(9)
O3E O 0.45199(10) 0.3440(2) -0.23025(7)
O3A O 0.54801(10) 0.6560(2) 1.23025(7)
O3D O 0.54801(10) 0.3440(2) 1.23025(7)
O4A O 0.47348(7) 0.28974(16) 0.59349(6)
O4D O 0.47348(7) 0.71026(16) 0.59349(6)
O4E O 0.52652(7) 0.71026(16) 0.40651(6)
H6A H 0.4668(13) 0.315(3) 0.6471(15)
H6D H 0.4668(13) 0.685(3) 0.6471(15)
H6E H 0.5332(13) 0.685(3) 0.3529(15)
H7A H 0.5088(14) 0.209(3) 0.5941(14)
H7D H 0.5088(14) 0.791(3) 0.5941(14)
H7E H 0.4912(14) 0.791(3) 0.4059(14)
N1A N 0.76887(10) 0.50000 0.66739(10)
H10E H 0.4885(17) -0.077(4) 0.2035(18)
#END
