
#######################################################################
#
#                 Cambridge Crystallographic Data Centre
#                                CCDC
#
#######################################################################
#
# If this CIF has been generated from an entry in the Cambridge
# Structural Database, then it will include bibliographic, chemical,
# crystal, experimental, refinement or atomic coordinate data resulting
# from the CCDC's data processing and validation procedures.
#
#######################################################################

data_CSD_CIF_IKUNOT
_audit_creation_date 2016-04-06
_audit_creation_method CSD-ConQuest-V1
_database_code_CSD IKUNOT
_database_code_depnum_ccdc_archive 'CCDC 1031684'
_chemical_formula_sum 'C14 H14 Fe1 N6 O2 S2'
_chemical_formula_moiety
;
(C14 H14 Fe1 N6 O2 S2)n
;
_journal_coden_Cambridge 1295
_journal_volume 71
_journal_year 2016
_journal_page_first 5
_journal_name_full 'Inorg.Chem.Commun. '
loop_
_publ_author_name
"Bin Zhai"
"Zhongyi Li"
"Bin Ding"
"Fuqiang Zhang"
"Xiangfei Zhang"
"Ying Liu"
"Guangxiu Cao"
_chemical_name_systematic
;
catena-[(\m-3-((((pyridin-3-yl)methylene)hydrazono)methyl)pyridine)-diaqua-bis
(isothiocyanato)-iron(ii)]
;
_cell_volume    453.665
_exptl_crystal_colour 'red'
_exptl_crystal_density_diffrn 1.531
_exptl_crystal_description 'block'
_diffrn_ambient_temperature 296
#These two values have been output from a single CSD field.
_refine_ls_R_factor_gt 0.0462
_refine_ls_wR_factor_gt 0.0462
_symmetry_cell_setting triclinic
_symmetry_space_group_name_H-M 'P -1'
_symmetry_Int_Tables_number 2
loop_
_symmetry_equiv_pos_site_id
_symmetry_equiv_pos_as_xyz
1 x,y,z
2 -x,-y,-z
_cell_length_a 6.5691(7)
_cell_length_b 9.0679(9)
_cell_length_c 9.2571(9)
_cell_angle_alpha 112.838(2)
_cell_angle_beta 96.568(2)
_cell_angle_gamma 110.937(2)
_cell_formula_units_Z 1
loop_
_atom_type_symbol
_atom_type_radius_bond
C 0.68
H 0.23
Fe 1.52
N 0.68
O 0.68
S 1.02
loop_
_atom_site_label
_atom_site_type_symbol
_atom_site_fract_x
_atom_site_fract_y
_atom_site_fract_z
Fe1 Fe 0.50000 0.00000 0.50000
S1 S 1.22122(19) 0.3353(2) 0.92569(14)
O1 O 0.3407(5) 0.1714(4) 0.5853(3)
H1 H 0.32750 0.20320 0.68170
H2 H 0.35840 0.25710 0.56330
N1 N 0.6650(5) 0.1381(4) 0.3586(3)
N2 N 1.3853(5) 0.4400(4) 0.4842(4)
N3 N 0.7892(5) 0.1732(4) 0.7068(4)
C1 C 0.9993(6) 0.3288(4) 0.3237(4)
C2 C 0.8911(6) 0.2292(5) 0.3996(4)
H3 H 0.98120 0.22650 0.48270
C3 C 0.5376(6) 0.1409(5) 0.2367(4)
H4 H 0.38010 0.07580 0.20520
C4 C 0.6290(6) 0.2356(5) 0.1561(4)
H5 H 0.53460 0.23500 0.07280
C5 C 0.8611(6) 0.3309(5) 0.1999(4)
H6 H 0.92550 0.39660 0.14710
C6 C 1.2460(6) 0.4362(4) 0.3750(4)
H7 H 1.30400 0.50600 0.32440
C7 C 0.9666(6) 0.2376(5) 0.7989(4)
N1A N 2.3350(5) 0.8619(4) 0.6414(3)
N2A N 1.6147(5) 0.5600(4) 0.5158(4)
C1A C 2.0007(6) 0.6712(4) 0.6763(4)
C2A C 2.1089(6) 0.7708(5) 0.6004(4)
H3A H 2.01880 0.77350 0.51730
C3A C 2.4624(6) 0.8591(5) 0.7633(4)
H4A H 2.61990 0.92420 0.79480
C4A C 2.3710(6) 0.7644(5) 0.8439(4)
H5A H 2.46540 0.76500 0.92720
C5A C 2.1389(6) 0.6691(5) 0.8001(4)
H6A H 2.07450 0.60340 0.85290
C6A C 1.7540(6) 0.5638(4) 0.6250(4)
H7A H 1.69600 0.49400 0.67560
S1A S -0.22122(19) -0.3353(2) 0.07431(14)
O1A O 0.6593(5) -0.1714(4) 0.4147(3)
H1A H 0.67250 -0.20320 0.31830
H2A H 0.64160 -0.25710 0.43670
N3A N 0.2108(5) -0.1732(4) 0.2932(4)
C7A C 0.0334(6) -0.2376(5) 0.2011(4)
Fe1* Fe 2.50000 1.00000 0.50000
N1A* N 0.3350(5) -0.1381(4) 0.6414(3)
#END
