
#######################################################################
#
#                 Cambridge Crystallographic Data Centre
#                                CCDC
#
#######################################################################
#
# If this CIF has been generated from an entry in the Cambridge
# Structural Database, then it will include bibliographic, chemical,
# crystal, experimental, refinement or atomic coordinate data resulting
# from the CCDC's data processing and validation procedures.
#
#######################################################################

data_CSD_CIF_IMOQIL
_audit_creation_date 2011-05-25
_audit_creation_method CSD-ConQuest-V1
_database_code_CSD IMOQIL
_database_code_depnum_ccdc_archive 'CCDC 705663'
_chemical_formula_sum 'C11 H20 Co1 N2 O9'
_chemical_formula_moiety
;
C11 H16 Co1 N2 O7,2(H2 O1)
;
_journal_coden_Cambridge 211
_journal_volume 64
_journal_year 2011
_journal_page_first 920
_journal_name_full 'J.Coord.Chem. '
loop_
_publ_author_name
"Qiu-Yue Lin"
"Yun-Yun Wang"
"Yun-Long Feng"
"Dong-Mei Yan"
"Yan-Jun Wang"
"Fan Zhang"
_chemical_name_systematic
;
Diaqua-(1H-imidazole)-(7-oxabicyclo[2.2.1]heptane-2,3-dicarboxylato)-cobalt(ii
) dihydrate
;
_cell_volume    742.844
_exptl_crystal_colour 'red'
_exptl_crystal_density_diffrn 1.713
_exptl_crystal_description 'block'
_diffrn_ambient_temperature 296
#These two values have been output from a single CSD field.
_refine_ls_R_factor_gt 0.0291
_refine_ls_wR_factor_gt 0.0291
_symmetry_cell_setting monoclinic
_symmetry_space_group_name_H-M 'P 21/m'
_symmetry_Int_Tables_number 11
loop_
_symmetry_equiv_pos_site_id
_symmetry_equiv_pos_as_xyz
1 x,y,z
2 -x,1/2+y,-z
3 -x,-y,-z
4 x,-1/2-y,z
_cell_length_a 6.3479(1)
_cell_length_b 9.6303(1)
_cell_length_c 12.2177(1)
_cell_angle_alpha 90
_cell_angle_beta 95.970(1)
_cell_angle_gamma 90
_cell_formula_units_Z 2
loop_
_atom_type_symbol
_atom_type_radius_bond
C 0.68
H 0.23
Co 1.26
N 0.68
O 0.68
loop_
_atom_site_label
_atom_site_type_symbol
_atom_site_fract_x
_atom_site_fract_y
_atom_site_fract_z
Co1 Co 0.45365(5) 0.25000 0.56694(2)
O1 O 0.6979(2) 0.10595(14) 0.60614(10)
O2 O 0.2262(2) 0.40313(15) 0.54123(11)
H1 H 0.239(4) 0.468(2) 0.4948(16)
H2 H 0.155(4) 0.432(2) 0.5910(15)
O3 O 0.9808(2) 0.03478(15) 0.71295(10)
O4 O -0.0371(3) 0.1025(2) 0.08426(16)
H3 H -0.020(5) 0.072(3) 0.1543(15)
H4 H 0.060(4) 0.067(3) 0.053(2)
O5 O 0.3880(3) 0.25000 0.73676(13)
N1 N 0.5099(4) 0.25000 0.40215(18)
N2 N 0.6598(6) 0.25000 0.2495(3)
H5 H 0.75720 0.25000 0.20560
C1 C 0.7257(3) 0.16803(18) 0.79751(13)
H6 H 0.80610 0.13440 0.86510
C2 C 0.4885(3) 0.13750(18) 0.80233(13)
H7 H 0.44510 0.04480 0.77560
C3 C 0.4274(3) 0.1699(2) 0.91736(14)
H8 H 0.53070 0.13310 0.97410
H9 H 0.28860 0.13310 0.92760
C4 C 0.8098(3) 0.09846(18) 0.69817(13)
C5 C 0.6909(6) 0.25000 0.3593(3)
H10 H 0.82320 0.25000 0.39990
C6 C 0.4461(7) 0.25000 0.2188(3)
H11 H 0.37670 0.25000 0.14790
C7 C 0.3598(5) 0.25000 0.3145(2)
H12 H 0.21480 0.25000 0.32010
O1C O 0.6979(2) 0.39405(14) 0.60614(10)
O2C O 0.2262(2) 0.09687(15) 0.54123(11)
H1C H 0.239(4) 0.032(2) 0.4948(16)
H2C H 0.155(4) 0.068(2) 0.5910(15)
O3C O 0.9808(2) 0.46522(15) 0.71295(10)
C1C C 0.7257(3) 0.33197(18) 0.79751(13)
H6C H 0.80610 0.36560 0.86510
C2C C 0.4885(3) 0.36250(18) 0.80233(13)
H7C H 0.44510 0.45520 0.77560
C3C C 0.4274(3) 0.3301(2) 0.91736(14)
H8C H 0.53070 0.36690 0.97410
H9C H 0.28860 0.36690 0.92760
C4C C 0.8098(3) 0.40154(18) 0.69817(13)
#END
