
#######################################################################
#
#                 Cambridge Crystallographic Data Centre
#                                CCDC
#
#######################################################################
#
# If this CIF has been generated from an entry in the Cambridge
# Structural Database, then it will include bibliographic, chemical,
# crystal, experimental, refinement or atomic coordinate data resulting
# from the CCDC's data processing and validation procedures.
#
#######################################################################

data_CSD_CIF_INUVUI
_audit_creation_date 2004-04-21
_audit_creation_method CSD-ConQuest-V1
_database_code_CSD INUVUI
_database_code_depnum_ccdc_archive 'CCDC 228489'
_chemical_formula_sum 'C15 H25 Co1 N4 O4'
_chemical_formula_moiety
;
C15 H25 Co1 N4 O4
;
_journal_coden_Cambridge 9
_journal_volume 42
_journal_year 2003
_journal_page_first 7602
_journal_name_full 'Inorg.Chem. '
loop_
_publ_author_name
"Chuanjiang Hu"
"R.M.Chin"
"T.D.Nguyen"
"K.T.Nguyen"
"P.S.Wagenknecht"
"L.C.Nathan"
_chemical_name_systematic
;
(acetylacetonato)-(1,4,8,11-tetraazacyclotetradecane-5,7-dione)-cobalt(iii)
;
_cell_volume    834.015
_exptl_crystal_colour 'violet'
_exptl_crystal_density_diffrn 1.53
_exptl_crystal_description 'pillar'
_exptl_crystal_preparation 'ether/acetonitrile/ethanol'
_diffrn_ambient_temperature 297
#These two values have been output from a single CSD field.
_refine_ls_R_factor_gt 0.0416
_refine_ls_wR_factor_gt 0.0416
_symmetry_cell_setting triclinic
_symmetry_space_group_name_H-M 'P -1'
_symmetry_Int_Tables_number 2
loop_
_symmetry_equiv_pos_site_id
_symmetry_equiv_pos_as_xyz
1 x,y,z
2 -x,-y,-z
_cell_length_a 8.0073(15)
_cell_length_b 8.4241(10)
_cell_length_c 12.751(2)
_cell_angle_alpha 87.090(8)
_cell_angle_beta 87.594(11)
_cell_angle_gamma 76.258(10)
_cell_formula_units_Z 2
loop_
_atom_type_symbol
_atom_type_radius_bond
C 0.68
H 0.23
Co 0.93
N 0.68
O 0.68
loop_
_atom_site_label
_atom_site_type_symbol
_atom_site_fract_x
_atom_site_fract_y
_atom_site_fract_z
Co1 Co 0.61890(6) 0.84279(5) 0.73627(3)
N1 N 0.3792(4) 0.8795(3) 0.7790(2)
O1 O 0.1024(3) 1.0035(4) 0.7376(3)
N2 N 0.5677(3) 0.6650(3) 0.6542(2)
H1 H 0.59720 0.75380 0.63450
O2 O 0.4522(4) 1.2667(3) 0.5687(2)
N3 N 0.8602(3) 0.7897(3) 0.6783(2)
H2 H 0.81410 0.84580 0.73090
N4 N 0.5730(4) 1.0050(3) 0.6240(2)
C1 C 0.3151(5) 1.1585(4) 0.7138(3)
H3 H 0.21570 1.24130 0.69080
H4 H 0.35660 1.19750 0.77560
C2 C 0.2569(5) 1.0050(4) 0.7453(3)
C3 C 0.3344(5) 0.7205(4) 0.7846(3)
H5 H 0.21190 0.73330 0.79810
H6 H 0.39620 0.64980 0.83980
C4 C 0.3875(4) 0.6514(4) 0.6786(3)
H7 H 0.38120 0.53780 0.67930
H8 H 0.31140 0.71200 0.62560
C5 C 0.6890(4) 0.5018(4) 0.6692(3)
H9 H 0.64810 0.42190 0.63160
H10 H 0.69000 0.46890 0.74330
C6 C 0.8696(5) 0.5014(5) 0.6313(4)
H11 H 0.86800 0.53130 0.55680
H12 H 0.94000 0.39100 0.63970
C7 C 0.9538(5) 0.6156(4) 0.6869(3)
H13 H 0.96280 0.58140 0.76070
H14 H 1.06960 0.60540 0.65790
C8 C 0.8551(5) 0.8559(5) 0.5682(3)
H15 H 0.82020 0.78160 0.52270
H16 H 0.96830 0.86800 0.54470
C9 C 0.7294(5) 1.0185(4) 0.5633(3)
H17 H 0.77890 1.10060 0.59240
H18 H 0.70170 1.05130 0.49090
C10 C 0.4531(4) 1.1437(4) 0.6285(3)
O3 O 0.6791(3) 0.6866(3) 0.8524(2)
O4 O 0.6677(3) 1.0161(3) 0.8110(2)
C11 C 0.7535(7) 0.5776(5) 1.0204(3)
H19 H 0.72920 0.48430 0.98950
H20 H 0.67790 0.60680 1.08040
H21 H 0.87070 0.55160 1.04190
C12 C 0.7263(5) 0.7187(4) 0.9412(3)
C13 C 0.7531(6) 0.8656(5) 0.9674(3)
H22 H 0.79440 0.87190 1.03380
C14 C 0.7235(5) 1.0061(4) 0.9029(3)
C15 C 0.7600(7) 1.1602(5) 0.9396(4)
H23 H 0.73250 1.24490 0.88560
H24 H 0.87960 1.14120 0.95510
H25 H 0.69130 1.19320 1.00180
#END
