
#######################################################################
#
#                 Cambridge Crystallographic Data Centre
#                                CCDC
#
#######################################################################
#
# If this CIF has been generated from an entry in the Cambridge
# Structural Database, then it will include bibliographic, chemical,
# crystal, experimental, refinement or atomic coordinate data resulting
# from the CCDC's data processing and validation procedures.
#
#######################################################################

data_CSD_CIF_IPEMIZ
_audit_creation_date 2004-04-21
_audit_creation_method CSD-ConQuest-V1
_database_code_CSD IPEMIZ
_database_code_depnum_ccdc_archive 'CCDC 220972'
_chemical_formula_sum 'C10 H14 Cr1 F3 N3 O5 S1'
_chemical_formula_moiety
;
C9 H14 Cr1 N3 O2 1+,C1 F3 O3 S1 1-
;
_journal_coden_Cambridge 29
_journal_volume 629
_journal_year 2003
_journal_page_first 2485
_journal_name_full 'Z.Anorg.Allg.Chem. '
loop_
_publ_author_name
"R.Wilberger"
"H.Piotrowski"
"M.Warchhold"
"I.-P.Lorenz"
_chemical_name_systematic
;
(\h^5^-Cyclopentadienyl)-dinitroso-(2-ethylaziridine)-chromium 
trifluoromethanesulfonate
;
_chemical_melting_point 347.15
_cell_volume   1608.442
_exptl_crystal_colour 'dark green'
_exptl_crystal_density_diffrn 1.641
_exptl_crystal_description 'prism'
_diffrn_ambient_temperature 193
#These two values have been output from a single CSD field.
_refine_ls_R_factor_gt 0.0329
_refine_ls_wR_factor_gt 0.0329
_symmetry_cell_setting monoclinic
_symmetry_space_group_name_H-M 'C c'
_symmetry_Int_Tables_number 9
loop_
_symmetry_equiv_pos_site_id
_symmetry_equiv_pos_as_xyz
1 x,y,z
2 x,-y,1/2+z
3 1/2+x,1/2+y,z
4 1/2+x,1/2-y,1/2+z
_cell_length_a 14.150(3)
_cell_length_b 8.6333(18)
_cell_length_c 14.655(3)
_cell_angle_alpha 90
_cell_angle_beta 116.047(3)
_cell_angle_gamma 90
_cell_formula_units_Z 4
loop_
_atom_type_symbol
_atom_type_radius_bond
C 0.68
H 0.23
Cr 1.35
F 0.64
N 0.68
O 0.68
S 1.02
loop_
_atom_site_label
_atom_site_type_symbol
_atom_site_fract_x
_atom_site_fract_y
_atom_site_fract_z
Cr1 Cr 0.41821(4) 0.93431(5) 0.19815(3)
S1 S 0.65000(8) 0.48226(9) 0.35390(6)
F1 F 0.4953(4) 0.4735(5) 0.4051(4)
F2 F 0.6439(3) 0.4045(4) 0.5236(2)
F3 F 0.5584(3) 0.2512(3) 0.4011(2)
O1 O 0.4820(3) 0.8134(4) 0.39939(19)
O2 O 0.3115(3) 1.1920(4) 0.2367(3)
O3 O 0.6783(2) 0.6359(3) 0.39645(19)
O4 O 0.7358(3) 0.3793(4) 0.3762(2)
O5 O 0.5705(3) 0.4778(3) 0.25060(19)
N1 N 0.4510(3) 0.8543(3) 0.3157(2)
N2 N 0.3474(3) 1.0826(4) 0.2181(3)
N3 N 0.2959(2) 0.7917(3) 0.1145(2)
H1 H 0.269(3) 0.812(4) 0.054(3)
C1 C 0.5344(4) 0.8354(6) 0.1523(4)
H2 H 0.55570 0.72410 0.15740
C2 C 0.5821(4) 0.9499(10) 0.2273(4)
H3 H 0.64450 0.93550 0.29440
C3 C 0.5311(6) 1.0919(7) 0.1859(5)
H4 H 0.55100 1.19660 0.21790
C4 C 0.4561(4) 1.0595(5) 0.0878(4)
H5 H 0.40910 1.13220 0.04130
C5 C 0.4614(4) 0.9062(5) 0.0696(3)
H6 H 0.41940 0.85590 0.00720
C6 C 0.2200(4) 0.7340(6) 0.1506(3)
H7 H 0.23420 0.75740 0.22160
H8 H 0.14470 0.73290 0.10160
C7 C 0.2896(4) 0.6248(4) 0.1343(3)
H9 H 0.34870 0.58480 0.19770
C8 C 0.2503(4) 0.5134(5) 0.0460(3)
H10 H 0.18450 0.55490 -0.00860
H11 H 0.23330 0.41330 0.06830
C9 C 0.3288(5) 0.4849(6) 0.0032(4)
H12 H 0.39650 0.45390 0.05820
H13 H 0.33800 0.58000 -0.02850
H14 H 0.30270 0.40220 -0.04770
C10 C 0.5838(4) 0.3994(5) 0.4244(3)
#END
