
#######################################################################
#
#                 Cambridge Crystallographic Data Centre
#                                CCDC
#
#######################################################################
#
# If this CIF has been generated from an entry in the Cambridge
# Structural Database, then it will include bibliographic, chemical,
# crystal, experimental, refinement or atomic coordinate data resulting
# from the CCDC's data processing and validation procedures.
#
#######################################################################

data_CSD_CIF_IPIBUE
_audit_creation_date 2004-04-21
_audit_creation_method CSD-ConQuest-V1
_database_code_CSD IPIBUE
_database_code_depnum_ccdc_archive 'CCDC 205803'
_chemical_formula_sum 'C8 H18 Br2 Mn1 N6 O4'
_chemical_formula_moiety
;
C8 H14 Br2 Mn1 N6 O2,2(H2 O1)
;
_journal_coden_Cambridge 211
_journal_volume 56
_journal_year 2003
_journal_page_first 1425
_journal_name_full 'J.Coord.Chem. '
loop_
_publ_author_name
"J.-H.P.Lee"
"B.D.Lewis"
"J.M.Mendes"
"M.M.Turnbull"
"F.F.Awwadi"
_chemical_name_systematic
;
bis(2-Aminopyrimidine)-diaqua-dibromo-manganese(ii) dihydrate
;
_chemical_melting_point 553.15
_cell_volume    406.713
_exptl_crystal_colour 'colorless'
_exptl_crystal_density_diffrn 1.948
_exptl_crystal_description 'cube'
_diffrn_ambient_temperature 295
#These two values have been output from a single CSD field.
_refine_ls_R_factor_gt 0.0447
_refine_ls_wR_factor_gt 0.0447
_symmetry_cell_setting triclinic
_symmetry_space_group_name_H-M 'P -1'
_symmetry_Int_Tables_number 2
loop_
_symmetry_equiv_pos_site_id
_symmetry_equiv_pos_as_xyz
1 x,y,z
2 -x,-y,-z
_cell_length_a 7.3512(18)
_cell_length_b 7.7139(15)
_cell_length_c 8.7044(14)
_cell_angle_alpha 67.482(8)
_cell_angle_beta 84.834(13)
_cell_angle_gamma 63.659(13)
_cell_formula_units_Z 1
loop_
_atom_type_symbol
_atom_type_radius_bond
C 0.68
H 0.23
Br 1.21
Mn 1.35
N 0.68
O 0.68
loop_
_atom_site_label
_atom_site_type_symbol
_atom_site_fract_x
_atom_site_fract_y
_atom_site_fract_z
Mn1 Mn 0.00000 1.00000 1.00000
Br1 Br 0.26067(11) 0.79475(10) 0.81863(8)
O1 O 0.2402(7) 1.0548(8) 1.0649(6)
H1 H 0.258(10) 1.160(11) 0.995(9)
H2 H 0.332(11) 0.955(11) 1.108(9)
N1 N 0.1211(8) 0.6823(7) 1.2311(6)
C1 C 0.1861(9) 0.6432(9) 1.3872(7)
N2 N 0.177(1) 0.8003(10) 1.4204(7)
H3 H 0.091(11) 0.933(12) 1.352(9)
H4 H 0.186(12) 0.791(12) 1.51(1)
N3 N 0.2672(8) 0.4499(8) 1.5096(6)
C2 C 0.2789(11) 0.2931(10) 1.4743(9)
H5 H 0.33460 0.15880 1.55720
C3 C 0.2121(10) 0.3202(10) 1.3203(8)
H6 H 0.21910 0.20890 1.29790
C4 C 0.1355(10) 0.5181(10) 1.2030(8)
H7 H 0.09060 0.54100 1.09730
O2 O 0.3977(8) 0.3036(7) 0.8435(6)
H8 H 0.372(11) 0.350(11) 0.744(10)
H9 H 0.390(12) 0.391(12) 0.864(10)
Br1A Br -0.26067(11) 1.20525(10) 1.18137(8)
O1A O -0.2402(7) 0.9452(8) 0.9351(6)
H1A H -0.258(10) 0.840(11) 1.005(9)
H2A H -0.332(11) 1.045(11) 0.892(9)
N1A N -0.1211(8) 1.3177(7) 0.7689(6)
C1A C -0.1861(9) 1.3568(9) 0.6128(7)
N2A N -0.177(1) 1.1997(10) 0.5796(7)
H3A H -0.091(11) 1.067(12) 0.648(9)
H4A H -0.186(12) 1.209(12) 0.49(1)
N3A N -0.2672(8) 1.5501(8) 0.4904(6)
C2A C -0.2789(11) 1.7069(10) 0.5257(9)
H5A H -0.33460 1.84120 0.44280
C3A C -0.2121(10) 1.6798(10) 0.6797(8)
H6A H -0.21910 1.79110 0.70210
C4A C -0.1355(10) 1.4819(10) 0.7970(8)
H7A H -0.09060 1.45900 0.90270
#END
