
#######################################################################
#
#                 Cambridge Crystallographic Data Centre
#                                CCDC
#
#######################################################################
#
# If this CIF has been generated from an entry in the Cambridge
# Structural Database, then it will include bibliographic, chemical,
# crystal, experimental, refinement or atomic coordinate data resulting
# from the CCDC's data processing and validation procedures.
#
#######################################################################

data_CSD_CIF_IPUVUK
_audit_creation_date 2004-04-29
_audit_creation_method CSD-ConQuest-V1
_database_code_CSD IPUVUK
_database_code_depnum_ccdc_archive 'CCDC 227775'
_chemical_formula_sum 'C26 H28 Co1 N6 O8'
_chemical_formula_moiety
;
C26 H24 Co1 N6 O6,2(H2 O1)
;
_journal_coeditor_code "IUCr OB6324"
_journal_coden_Cambridge 1370
_journal_volume 59
_journal_year 2003
_journal_page_first m1192
_journal_name_full 'Acta Crystallogr.,Sect.E:Struct.Rep.Online '
loop_
_publ_author_name
"Hong-Yin He"
"Long-Guan Zhu"
_chemical_name_systematic
;
trans-bis(3-Aminopyridine)-bis(4-cyanobenzoato)-diaqua-cobalt(ii) dihydrate
;
_cell_volume    682.760
_exptl_crystal_colour 'purple'
_exptl_crystal_density_diffrn 1.487
_exptl_crystal_description 'plate'
_exptl_crystal_preparation 'methanol/water'
_diffrn_ambient_temperature 293
#These two values have been output from a single CSD field.
_refine_ls_R_factor_gt 0.0414
_refine_ls_wR_factor_gt 0.0414
_symmetry_cell_setting triclinic
_symmetry_space_group_name_H-M 'P -1'
_symmetry_Int_Tables_number 2
loop_
_symmetry_equiv_pos_site_id
_symmetry_equiv_pos_as_xyz
1 x,y,z
2 -x,-y,-z
_cell_length_a 7.2359(11)
_cell_length_b 7.7367(11)
_cell_length_c 13.2036(19)
_cell_angle_alpha 82.309(3)
_cell_angle_beta 76.268(3)
_cell_angle_gamma 72.365(2)
_cell_formula_units_Z 1
loop_
_atom_type_symbol
_atom_type_radius_bond
C 0.68
H 0.23
Co 1.33
N 0.68
O 0.68
loop_
_atom_site_label
_atom_site_type_symbol
_atom_site_fract_x
_atom_site_fract_y
_atom_site_fract_z
Co1 Co 0.00000 0.50000 1.00000
O1 O 0.1745(2) 0.5646(2) 0.85928(11)
O2 O -0.0370(2) 0.6649(2) 0.75114(13)
O3 O 0.2375(2) 0.4694(2) 1.07516(14)
O4 O 0.7688(4) 0.0495(4) 0.70500(19)
N1 N 0.1228(3) 0.2187(2) 0.96200(15)
N2 N 0.3739(3) -0.2206(3) 1.0805(2)
N3 N 0.9115(4) 0.7672(3) 0.39387(19)
C1 C 0.1328(4) 0.6222(3) 0.77109(18)
C2 C 0.3039(3) 0.6424(3) 0.68369(17)
C3 C 0.4965(4) 0.5757(3) 0.69851(19)
C4 C 0.6531(4) 0.6045(4) 0.6227(2)
C5 C 0.6176(4) 0.7001(3) 0.52967(18)
C6 C 0.4270(4) 0.7622(4) 0.5123(2)
C7 C 0.2716(4) 0.7323(3) 0.58881(19)
C8 C 0.7810(4) 0.7372(4) 0.4527(2)
C9 C 0.1934(3) 0.0872(3) 1.03063(19)
C10 C 0.3080(3) -0.0854(3) 1.00416(18)
C11 C 0.3508(4) -0.1229(3) 0.9006(2)
C12 C 0.2763(4) 0.0102(3) 0.8296(2)
C13 C 0.1632(4) 0.1772(3) 0.8620(2)
H1 H 0.518(3) 0.509(3) 0.7603(16)
H2 H 0.783(3) 0.561(3) 0.6326(17)
H3 H 0.403(3) 0.822(3) 0.4502(19)
H4 H 0.144(3) 0.778(3) 0.5788(15)
H5 H 0.162(3) 0.118(3) 1.0999(16)
H6 H 0.433(3) -0.243(3) 0.8822(16)
H7 H 0.300(3) -0.012(3) 0.7578(17)
H8 H 0.112(3) 0.275(3) 0.8123(16)
H9 H 0.360(4) -0.188(3) 1.143(2)
H10 H 0.492(4) -0.285(3) 1.0577(18)
H11 H 0.188(4) 0.426(4) 1.138(2)
H12 H 0.263(4) 0.561(4) 1.0836(19)
H13 H 0.860(5) 0.090(4) 0.675(3)
H14 H 0.823(6) -0.056(5) 0.708(3)
O1A O -0.1745(2) 0.4354(2) 1.14072(11)
C1A C -0.1328(4) 0.3778(3) 1.22891(18)
O2A O 0.0370(2) 0.3351(2) 1.24886(13)
C2A C -0.3039(3) 0.3576(3) 1.31631(17)
C3A C -0.4965(4) 0.4243(3) 1.30149(19)
C4A C -0.6531(4) 0.3955(4) 1.3773(2)
C5A C -0.6176(4) 0.2999(3) 1.47033(18)
C6A C -0.4270(4) 0.2378(4) 1.4877(2)
C7A C -0.2716(4) 0.2677(3) 1.41119(19)
H4A H -0.144(3) 0.222(3) 1.4212(15)
H3A H -0.403(3) 0.178(3) 1.5498(19)
C8A C -0.7810(4) 0.2628(4) 1.5473(2)
N3A N -0.9115(4) 0.2328(3) 1.60613(19)
H2A H -0.783(3) 0.439(3) 1.3674(17)
H1A H -0.518(3) 0.491(3) 1.2397(16)
O3A O -0.2375(2) 0.5306(2) 0.92484(14)
H11A H -0.188(4) 0.574(4) 0.862(2)
H12A H -0.263(4) 0.439(4) 0.9164(19)
N1A N -0.1228(3) 0.7813(2) 1.03800(15)
C9A C -0.1934(3) 0.9128(3) 0.96937(19)
C10A C -0.3080(3) 1.0854(3) 0.99584(18)
N2A N -0.3739(3) 1.2206(3) 0.9195(2)
H9A H -0.360(4) 1.188(3) 0.857(2)
H10A H -0.492(4) 1.285(3) 0.9423(18)
C11A C -0.3508(4) 1.1229(3) 1.0994(2)
C12A C -0.2763(4) 0.9898(3) 1.1704(2)
C13A C -0.1632(4) 0.8228(3) 1.1380(2)
H8A H -0.112(3) 0.725(3) 1.1877(16)
H7A H -0.300(3) 1.012(3) 1.2422(17)
H6A H -0.433(3) 1.243(3) 1.1178(16)
H5A H -0.162(3) 0.882(3) 0.9001(16)
#END
