
#######################################################################
#
#                 Cambridge Crystallographic Data Centre
#                                CCDC
#
#######################################################################
#
# If this CIF has been generated from an entry in the Cambridge
# Structural Database, then it will include bibliographic, chemical,
# crystal, experimental, refinement or atomic coordinate data resulting
# from the CCDC's data processing and validation procedures.
#
#######################################################################

data_CSD_CIF_IQUGEG
_audit_creation_date 2004-04-29
_audit_creation_method CSD-ConQuest-V1
_database_code_CSD IQUGEG
_database_code_depnum_ccdc_archive 'CCDC 231818'
_chemical_formula_sum 'C18 H15 Cl3 Co1 N2'
_chemical_formula_moiety
;
C9 H8 N1 1+,C9 H7 Cl3 Co1 N1 1-
;
_journal_coeditor_code "IUCr CV6252"
_journal_coden_Cambridge 1370
_journal_volume 60
_journal_year 2004
_journal_page_first m56
_journal_name_full 'Acta Crystallogr.,Sect.E:Struct.Rep.Online '
loop_
_publ_author_name
"Tian-Tian Pan"
"Duan-Jun Xu"
_chemical_name_systematic
;
Quinolinium trichloro-(quinoline-N)-cobalt(ii)
;
_cell_volume    882.560
_exptl_crystal_colour 'blue'
_exptl_crystal_density_diffrn 1.598
_exptl_crystal_description 'prism'
_exptl_crystal_preparation 'ethanol'
_diffrn_ambient_temperature 295
#These two values have been output from a single CSD field.
_refine_ls_R_factor_gt 0.032
_refine_ls_wR_factor_gt 0.032
_symmetry_cell_setting triclinic
_symmetry_space_group_name_H-M 'P -1'
_symmetry_Int_Tables_number 2
loop_
_symmetry_equiv_pos_site_id
_symmetry_equiv_pos_as_xyz
1 x,y,z
2 -x,-y,-z
_cell_length_a 8.2395(6)
_cell_length_b 9.4931(7)
_cell_length_c 11.9704(9)
_cell_angle_alpha 98.313(2)
_cell_angle_beta 94.589(2)
_cell_angle_gamma 106.191(3)
_cell_formula_units_Z 2
loop_
_atom_type_symbol
_atom_type_radius_bond
C 0.68
H 0.23
Cl 0.99
Co 1.33
N 0.68
loop_
_atom_site_label
_atom_site_type_symbol
_atom_site_fract_x
_atom_site_fract_y
_atom_site_fract_z
Co1 Co 0.24021(4) 0.34749(3) 0.26950(3)
Cl1 Cl 0.11133(11) 0.31935(11) 0.42726(7)
Cl2 Cl 0.17021(9) 0.14273(7) 0.13559(6)
Cl3 Cl 0.52367(8) 0.42345(7) 0.33229(6)
N1 N 0.1422(2) 0.4993(2) 0.20211(16)
N2 N 0.4532(3) 0.7398(2) 0.43838(19)
H1 H 0.49850 0.67780 0.46430
C1 C -0.0146(3) 0.4978(3) 0.2207(2)
H2 H -0.06940 0.43330 0.26680
C2 C -0.1025(3) 0.5866(3) 0.1756(2)
H3 H -0.21330 0.58000 0.19020
C3 C -0.0235(3) 0.6830(3) 0.1098(2)
H4 H -0.07940 0.74440 0.07980
C4 C 0.2329(4) 0.7878(3) 0.0196(2)
H5 H 0.18160 0.85150 -0.01150
C5 C 0.3933(4) 0.7896(3) -0.0002(2)
H6 H 0.45160 0.85490 -0.04440
C6 C 0.4712(3) 0.6939(3) 0.0455(2)
H7 H 0.58060 0.69540 0.03060
C7 C 0.3899(3) 0.5986(3) 0.1114(2)
H8 H 0.44390 0.53610 0.14160
C8 C 0.2233(3) 0.5946(2) 0.13410(18)
C9 C 0.1433(3) 0.6899(3) 0.0872(2)
C10 C 0.2983(4) 0.7360(3) 0.4598(2)
H9 H 0.24140 0.66770 0.50240
C11 C 0.2194(4) 0.8321(3) 0.4198(2)
H10 H 0.10980 0.82950 0.43500
C12 C 0.3049(3) 0.9314(3) 0.3573(2)
H11 H 0.25220 0.99610 0.32900
C13 C 0.5671(4) 1.0400(3) 0.2733(2)
H12 H 0.52000 1.10750 0.24420
C14 C 0.7274(4) 1.0407(3) 0.2564(3)
H13 H 0.79030 1.10940 0.21640
C15 C 0.7993(4) 0.9393(3) 0.2982(3)
H14 H 0.90960 0.94100 0.28530
C16 C 0.7116(4) 0.8380(3) 0.3575(3)
H15 H 0.76050 0.77030 0.38460
C17 C 0.5465(3) 0.8372(2) 0.3770(2)
C18 C 0.4706(3) 0.9374(2) 0.33509(19)
#END
