
#######################################################################
#
#                 Cambridge Crystallographic Data Centre
#                                CCDC
#
#######################################################################
#
# If this CIF has been generated from an entry in the Cambridge
# Structural Database, then it will include bibliographic, chemical,
# crystal, experimental, refinement or atomic coordinate data resulting
# from the CCDC's data processing and validation procedures.
#
#######################################################################

data_CSD_CIF_IRONUY
_audit_creation_date 2004-05-25
_audit_creation_method CSD-ConQuest-V1
_database_code_CSD IRONUY
_database_code_depnum_ccdc_archive 'CCDC 231836'
_chemical_formula_sum 'C12 H16 Co1 N2 O8'
_chemical_formula_moiety
;
C12 H12 Co1 N2 O6,2(H2 O1)
;
_journal_coeditor_code "IUCr CF6313"
_journal_coden_Cambridge 1370
_journal_volume 60
_journal_year 2004
_journal_page_first m116
_journal_name_full 'Acta Crystallogr.,Sect.E:Struct.Rep.Online '
loop_
_publ_author_name
"Ze-Qun Yan"
_chemical_name_systematic
;
trans-Diaqua-bis(pyridine-4-carboxylato)-cobalt(ii) dihydrate
;
_cell_volume    354.087
_exptl_crystal_colour 'red'
_exptl_crystal_density_diffrn 1.76
_exptl_crystal_description 'block'
_diffrn_ambient_temperature 293
#These two values have been output from a single CSD field.
_refine_ls_R_factor_gt 0.0436
_refine_ls_wR_factor_gt 0.0436
_symmetry_cell_setting triclinic
_symmetry_space_group_name_H-M 'P -1'
_symmetry_Int_Tables_number 2
loop_
_symmetry_equiv_pos_site_id
_symmetry_equiv_pos_as_xyz
1 x,y,z
2 -x,-y,-z
_cell_length_a 6.3367(8)
_cell_length_b 6.8936(9)
_cell_length_c 9.1801(12)
_cell_angle_alpha 99.396(2)
_cell_angle_beta 105.286(2)
_cell_angle_gamma 108.178(2)
_cell_formula_units_Z 1
loop_
_atom_type_symbol
_atom_type_radius_bond
C 0.68
H 0.23
Co 1.33
N 0.68
O 0.68
loop_
_atom_site_label
_atom_site_type_symbol
_atom_site_fract_x
_atom_site_fract_y
_atom_site_fract_z
Co1 Co 1.00000 1.00000 1.00000
O1 O 0.8465(5) 1.2048(5) 1.0410(3)
N1 N 0.7675(6) 0.8741(5) 0.7811(4)
C1 C 0.8451(7) 0.8721(6) 0.6588(4)
H1 H 1.00680 0.91960 0.67780
C2 C 0.5340(7) 0.7990(7) 0.7521(4)
H2 H 0.47840 0.79790 0.83630
C3 C 0.6948(7) 0.8024(6) 0.5060(4)
H3 H 0.75510 0.80520 0.42400
O2 O 0.0703(5) 0.5619(5) 0.2856(3)
O3 O 0.3730(6) 0.7019(5) 0.2062(3)
C4 C 0.4529(7) 0.7280(6) 0.4749(4)
C5 C 0.2835(7) 0.6569(6) 0.3088(5)
C6 C 0.3727(7) 0.7230(6) 0.6016(4)
H4 H 0.21180 0.66900 0.58550
H5 H 0.929(10) 1.315(6) 1.111(5)
H6 H 0.793(10) 1.250(9) 0.967(5)
O4 O 1.2453(6) 1.2675(6) 0.9053(4)
H7 H 1.368(6) 1.289(10) 0.884(7)
H8 H 1.171(13) 1.327(12) 0.854(8)
O1A O 1.1535(5) 0.7952(5) 0.9590(3)
H5A H 1.071(10) 0.685(6) 0.889(5)
H6A H 1.207(10) 0.750(9) 1.033(5)
N1A N 1.2325(6) 1.1259(5) 1.2189(4)
C1A C 1.1549(7) 1.1279(6) 1.3412(4)
H1A H 0.99320 1.08040 1.32220
C3A C 1.3052(7) 1.1976(6) 1.4940(4)
H3A H 1.24490 1.19480 1.57600
C4A C 1.5471(7) 1.2720(6) 1.5251(4)
C5A C 1.7165(7) 1.3431(6) 1.6912(5)
O2A O 1.9297(5) 1.4381(5) 1.7144(3)
O3A O 1.6270(6) 1.2981(5) 1.7938(3)
C6A C 1.6273(7) 1.2770(6) 1.3984(4)
C2A C 1.4660(7) 1.2010(7) 1.2479(4)
H2A H 1.52160 1.20210 1.16370
H4A H 1.78820 1.33100 1.41450
#END
