
#######################################################################
#
#                 Cambridge Crystallographic Data Centre
#                                CCDC
#
#######################################################################
#
# If this CIF has been generated from an entry in the Cambridge
# Structural Database, then it will include bibliographic, chemical,
# crystal, experimental, refinement or atomic coordinate data resulting
# from the CCDC's data processing and validation procedures.
#
#######################################################################

data_CSD_CIF_ISANUM
_audit_creation_date 2011-08-04
_audit_creation_method CSD-ConQuest-V1
_database_code_CSD ISANUM
_database_code_depnum_ccdc_archive 'CCDC 791352'
_chemical_formula_sum 'C11 H8 Cr1 O5'
_chemical_formula_moiety
;
C11 H8 Cr1 O5
;
_journal_coden_Cambridge 1093
_journal_volume 22
_journal_year 2011
_journal_page_first 294
_journal_name_full 'Heteroat.Chem. '
loop_
_publ_author_name
"B.Murugesapandian"
"P.W.Roesky"
_chemical_name_systematic
;
(\h^6^-Phenylacetic acid)-tricarbonyl-chromium
;
_cell_volume    561.896
_exptl_crystal_colour 'yellow'
_exptl_crystal_density_diffrn 1.609
_exptl_crystal_description 'plate'
_exptl_crystal_preparation 'diethyl ether'
_diffrn_ambient_temperature 200
#These two values have been output from a single CSD field.
_refine_ls_R_factor_gt 0.0343
_refine_ls_wR_factor_gt 0.0343
_symmetry_cell_setting triclinic
_symmetry_space_group_name_H-M 'P -1'
_symmetry_Int_Tables_number 2
loop_
_symmetry_equiv_pos_site_id
_symmetry_equiv_pos_as_xyz
1 x,y,z
2 -x,-y,-z
_cell_length_a 7.3768(15)
_cell_length_b 8.5655(17)
_cell_length_c 10.313(2)
_cell_angle_alpha 104.31(3)
_cell_angle_beta 109.44(3)
_cell_angle_gamma 102.71(3)
_cell_formula_units_Z 2
loop_
_atom_type_symbol
_atom_type_radius_bond
C 0.68
H 0.23
Cr 1.39
O 0.68
loop_
_atom_site_label
_atom_site_type_symbol
_atom_site_fract_x
_atom_site_fract_y
_atom_site_fract_z
C1 C 0.4351(3) 0.2982(2) 0.2245(2)
C2 C 0.3317(3) 0.1694(3) 0.2609(2)
H1 H 0.21120 0.08390 0.18890
C3 C 0.4086(3) 0.1677(3) 0.4065(2)
H2 H 0.33910 0.08100 0.43050
C4 C 0.5864(3) 0.2940(3) 0.5130(2)
H3 H 0.63700 0.29320 0.60920
C5 C 0.6912(3) 0.4237(2) 0.4768(2)
H4 H 0.81190 0.50880 0.54900
C6 C 0.6163(3) 0.4259(2) 0.3343(2)
H5 H 0.68660 0.51280 0.31090
C7 C 0.3568(4) 0.3020(3) 0.0712(2)
H6 H 0.29230 0.18460 0.00140
H7 H 0.47200 0.35710 0.05250
C8 C 0.2051(3) 0.3958(2) 0.0454(2)
C9 C 0.7488(3) 0.1625(2) 0.1804(2)
C10 C 0.5675(3) -0.0637(2) 0.2566(2)
C11 C 0.8995(3) 0.1795(2) 0.4527(2)
O1 O 0.14844(19) 0.45826(17) 0.13654(14)
O2 O 0.1439(3) 0.4040(3) -0.08708(19)
O3 O 0.8073(3) 0.1505(2) 0.08956(19)
O4 O 0.5159(3) -0.21017(17) 0.21324(18)
O5 O 1.0544(2) 0.1879(2) 0.5340(2)
Cr1 Cr 0.65043(4) 0.17236(3) 0.32441(3)
H8 H 0.021(6) 0.432(5) -0.122(4)
#END
