
#######################################################################
#
#                 Cambridge Crystallographic Data Centre
#                                CCDC
#
#######################################################################
#
# If this CIF has been generated from an entry in the Cambridge
# Structural Database, then it will include bibliographic, chemical,
# crystal, experimental, refinement or atomic coordinate data resulting
# from the CCDC's data processing and validation procedures.
#
#######################################################################

data_CSD_CIF_ITIGAU
_audit_creation_date 2011-07-22
_audit_creation_method CSD-ConQuest-V1
_database_code_CSD ITIGAU
_database_code_depnum_ccdc_archive 'CCDC 806969'
_chemical_formula_sum 'C11 H8 Fe1 I1 N1 O5'
_chemical_formula_moiety
;
C11 H8 Fe1 I1 N1 O5
;
_journal_coden_Cambridge 179
_journal_volume 50
_journal_year 2011
_journal_page_first 5671
_journal_name_full 'Angew.Chem.,Int.Ed. '
loop_
_publ_author_name
"Dafa Chen"
"R.Scopelliti"
"Xile Hu"
_chemical_name_systematic
;
Tricarbonyl-iodo-(2-(6-methoxypyridin-2-yl)acetyl)-iron
;
_cell_volume    654.986
_exptl_crystal_colour 'red'
_exptl_crystal_density_diffrn 2.114
_exptl_crystal_description 'block'
_diffrn_ambient_temperature 100
#These two values have been output from a single CSD field.
_refine_ls_R_factor_gt 0.0201
_refine_ls_wR_factor_gt 0.0201
_symmetry_cell_setting triclinic
_symmetry_space_group_name_H-M 'P -1'
_symmetry_Int_Tables_number 2
loop_
_symmetry_equiv_pos_site_id
_symmetry_equiv_pos_as_xyz
1 x,y,z
2 -x,-y,-z
_cell_length_a 7.4609(6)
_cell_length_b 8.6610(6)
_cell_length_c 10.3942(6)
_cell_angle_alpha 91.255(5)
_cell_angle_beta 93.967(6)
_cell_angle_gamma 101.988(6)
_cell_formula_units_Z 2
loop_
_atom_type_symbol
_atom_type_radius_bond
C 0.68
H 0.23
Fe 1.49
I 1.40
N 0.68
O 0.68
loop_
_atom_site_label
_atom_site_type_symbol
_atom_site_fract_x
_atom_site_fract_y
_atom_site_fract_z
I1 I 0.178361(9) 0.373298(8) 0.884000(7)
Fe1 Fe 0.28429(2) 0.270740(17) 0.664724(15)
O1 O -0.11230(13) 0.12040(12) 0.58468(10)
O2 O 0.09913(12) -0.07596(10) 0.73049(10)
O3 O 0.45239(14) 0.15833(11) 0.44388(9)
O4 O 0.21337(14) 0.55775(11) 0.54436(10)
O5 O 0.60024(14) 0.52918(11) 0.69534(11)
N1 N 0.37202(12) 0.09508(10) 0.76294(9)
C1 C 0.38441(15) 0.20485(12) 0.52658(11)
C2 C 0.55058(15) 0.13134(13) 0.81067(11)
C3 C 0.24028(15) 0.44520(13) 0.59030(11)
C4 C 0.35705(17) -0.17306(13) 0.82640(11)
H1 H 0.28670 -0.27700 0.83300
C5 C 0.64009(16) 0.01835(15) 0.86193(11)
H2 H 0.76610 0.04610 0.89210
C6 C 0.27660(15) -0.05435(12) 0.77438(10)
C7 C 0.03759(15) 0.16513(13) 0.61943(11)
C8 C 0.53273(15) 0.39469(13) 0.72127(11)
C9 C 0.54174(18) -0.13617(14) 0.86830(12)
H3 H 0.60090 -0.21580 0.90120
C10 C 0.64133(16) 0.30190(14) 0.80821(13)
H4 H 0.76560 0.31100 0.77750
H5 H 0.65550 0.34870 0.89700
C11 C -0.02014(17) -0.22679(14) 0.74756(13)
H6 H -0.14650 -0.22270 0.71760
H7 H -0.01520 -0.25130 0.83920
H8 H 0.02020 -0.30890 0.69760
#END
