
#######################################################################
#
#                 Cambridge Crystallographic Data Centre
#                                CCDC
#
#######################################################################
#
# If this CIF has been generated from an entry in the Cambridge
# Structural Database, then it will include bibliographic, chemical,
# crystal, experimental, refinement or atomic coordinate data resulting
# from the CCDC's data processing and validation procedures.
#
#######################################################################

data_CSD_CIF_IWINOT
_audit_creation_date 2016-09-15
_audit_creation_method CSD-ConQuest-V1
_database_code_CSD IWINOT
_database_code_depnum_ccdc_archive 'CCDC 1486988'
_chemical_formula_sum 'C8 H8 Co1 N2 O6 S2'
_chemical_formula_moiety
;
C8 H8 Co1 N2 O6 S2
;
_journal_coden_Cambridge 369
_journal_volume 41
_journal_year 2016
_journal_page_first 783
_journal_name_full 'Transition Met.Chem. '
loop_
_publ_author_name
"Natthaya Meundaeng"
"A.Rujiwatra"
"T.J.Prior"
_chemical_name_systematic
;
diaqua-bis(1,3-thiazole-4-carboxylato)-cobalt(ii)
;
_cell_volume    575.026
_exptl_crystal_colour 'orange'
_exptl_crystal_density_diffrn 2.028
_exptl_crystal_description 'Block'
_diffrn_ambient_temperature 150
#These two values have been output from a single CSD field.
_refine_ls_R_factor_gt 0.0243
_refine_ls_wR_factor_gt 0.0243
_symmetry_cell_setting monoclinic
_symmetry_space_group_name_H-M 'P 21/c'
_symmetry_Int_Tables_number 14
loop_
_symmetry_equiv_pos_site_id
_symmetry_equiv_pos_as_xyz
1 x,y,z
2 -x,1/2+y,1/2-z
3 -x,-y,-z
4 x,-1/2-y,-1/2+z
_cell_length_a 5.2099(6)
_cell_length_b 11.3765(10)
_cell_length_c 9.8322(10)
_cell_angle_alpha 90
_cell_angle_beta 99.344(9)
_cell_angle_gamma 90
_cell_formula_units_Z 2
loop_
_atom_type_symbol
_atom_type_radius_bond
C 0.68
H 0.23
Co 1.26
N 0.68
O 0.68
S 1.02
loop_
_atom_site_label
_atom_site_type_symbol
_atom_site_fract_x
_atom_site_fract_y
_atom_site_fract_z
Co1 Co 0.50000 0.50000 0.50000
S1 S 0.22895(9) 0.88807(4) 0.48693(4)
O1 O 0.7288(2) 0.5621(1) 0.35636(11)
O2 O 0.2013(2) 0.45928(10) 0.33557(12)
O3 O 0.8188(2) 0.72294(11) 0.24034(11)
N1 N 0.3866(3) 0.67672(11) 0.48616(12)
C1 C 0.5118(3) 0.73753(13) 0.39388(15)
C2 C 0.7009(3) 0.67118(14) 0.32300(15)
C3 C 0.2327(3) 0.74566(14) 0.54212(16)
H1 H 0.13130 0.71890 0.60800
C4 C 0.4481(3) 0.85372(14) 0.38114(16)
H2 H 0.51560 0.90770 0.32220
H3 H 0.18680 0.39300 0.30880
H4 H 0.05980 0.49150 0.33410
S1B S 0.77105(9) 0.11193(4) 0.51307(4)
O1B O 0.2712(2) 0.4379(1) 0.64364(11)
O2B O 0.7987(2) 0.54072(10) 0.66443(12)
O3B O 0.1812(2) 0.27706(11) 0.75966(11)
N1B N 0.6134(3) 0.32328(11) 0.51384(12)
C1B C 0.4882(3) 0.26247(13) 0.60612(15)
C2B C 0.2991(3) 0.32882(14) 0.67700(15)
C3B C 0.7673(3) 0.25434(14) 0.45788(16)
H1B H 0.86870 0.28110 0.39200
C4B C 0.5519(3) 0.14628(14) 0.61886(16)
H2B H 0.48440 0.09230 0.67780
H3B H 0.81320 0.60700 0.69120
H4B H 0.94020 0.50850 0.66590
#END
