
#######################################################################
#
#                 Cambridge Crystallographic Data Centre
#                                CCDC
#
#######################################################################
#
# If this CIF has been generated from an entry in the Cambridge
# Structural Database, then it will include bibliographic, chemical,
# crystal, experimental, refinement or atomic coordinate data resulting
# from the CCDC's data processing and validation procedures.
#
#######################################################################

data_CSD_CIF_IWOFUV
_audit_creation_date 2004-08-24
_audit_creation_method CSD-ConQuest-V1
_database_code_CSD IWOFUV
_database_code_depnum_ccdc_archive 'CCDC 239059'
_chemical_formula_sum 'C14 H12 Co1 N2 O10'
_chemical_formula_moiety
;
C14 H12 Co1 N2 O10
;
_journal_coeditor_code "IUCr WN6228"
_journal_coden_Cambridge 1370
_journal_volume 60
_journal_year 2004
_journal_page_first m585
_journal_name_full 'Acta Crystallogr.,Sect.E:Struct.Rep.Online '
loop_
_publ_author_name
"Ying Xu"
"Lei Han"
"Ben-Yong Lou"
"Mao-Chun Hong"
_chemical_name_systematic
;
Diaqua-bis(pyridine-2,5-dicarboxylato)-cobalt(ii)
;
_cell_volume    381.126
_exptl_crystal_colour 'pale yellow'
_exptl_crystal_density_diffrn 1.861
_exptl_crystal_description 'plate'
_diffrn_ambient_temperature 293
#These two values have been output from a single CSD field.
_refine_ls_R_factor_gt 0.039
_refine_ls_wR_factor_gt 0.039
loop_
_citation_database_id_CSD
_citation_special_details
NELPID "is a stereoisomer of this entry"
_symmetry_cell_setting triclinic
_symmetry_space_group_name_H-M 'P -1'
_symmetry_Int_Tables_number 2
loop_
_symmetry_equiv_pos_site_id
_symmetry_equiv_pos_as_xyz
1 x,y,z
2 -x,-y,-z
_cell_length_a 5.0699(1)
_cell_length_b 6.6184(1)
_cell_length_c 12.3638(7)
_cell_angle_alpha 94.71(3)
_cell_angle_beta 98.50(3)
_cell_angle_gamma 110.185(16)
_cell_formula_units_Z 1
loop_
_atom_type_symbol
_atom_type_radius_bond
C 0.68
H 0.23
Co 1.33
N 0.68
O 0.68
loop_
_atom_site_label
_atom_site_type_symbol
_atom_site_fract_x
_atom_site_fract_y
_atom_site_fract_z
Co1 Co 0.50000 1.00000 0.50000
O1 O -0.3538(7) 0.8131(5) -0.0009(2)
O2 O -0.2923(7) 1.0708(5) 0.1390(2)
H1 H -0.40270 1.10340 0.09470
O3 O 0.5986(7) 0.4807(5) 0.3324(2)
O4 O 0.6516(6) 0.7543(4) 0.4621(2)
O5 O 0.8235(7) 1.2190(5) 0.4357(3)
H2 H 0.786(11) 1.311(8) 0.410(4)
H3 H 0.986(12) 1.256(8) 0.462(4)
N1 N 0.2723(7) 0.8731(5) 0.3351(2)
C1 C 0.0915(9) 0.9390(6) 0.2703(3)
H4 H 0.06020 1.06330 0.29600
C2 C -0.0496(8) 0.8292(6) 0.1668(3)
C3 C -0.0115(9) 0.6408(7) 0.1295(3)
H5 H -0.11260 0.56020 0.06140
C4 C 0.1793(10) 0.5741(7) 0.1948(3)
H6 H 0.21290 0.44980 0.17080
C5 C 0.3182(9) 0.6948(6) 0.2958(3)
C6 C -0.2471(9) 0.9055(6) 0.0939(3)
C7 C 0.5411(8) 0.6358(6) 0.3693(3)
O4A O 0.3484(6) 1.2457(4) 0.5379(2)
C7A C 0.4589(8) 1.3642(6) 0.6307(3)
O3A O 0.4014(7) 1.5193(5) 0.6676(2)
C5A C 0.6818(9) 1.3052(6) 0.7042(3)
N1A N 0.7277(7) 1.1269(5) 0.6649(2)
O5A O 0.1765(7) 0.7810(5) 0.5643(3)
H2A H 0.214(11) 0.689(8) 0.590(4)
H3A H 0.014(12) 0.744(8) 0.538(4)
C1A C 0.9085(9) 1.0610(6) 0.7297(3)
H4A H 0.93980 0.93670 0.70400
C2A C 1.0496(8) 1.1708(6) 0.8332(3)
C3A C 1.0115(9) 1.3592(7) 0.8705(3)
H5A H 1.11260 1.43980 0.93860
C4A C 0.8207(10) 1.4259(7) 0.8052(3)
H6A H 0.78710 1.55020 0.82920
C6A C 1.2471(9) 1.0945(6) 0.9061(3)
O1A O 1.3538(7) 1.1869(5) 1.0009(2)
O2A O 1.2923(7) 0.9292(5) 0.8610(2)
H1A H 1.40270 0.89660 0.90530
#END
