
#######################################################################
#
#                 Cambridge Crystallographic Data Centre
#                                CCDC
#
#######################################################################
#
# If this CIF has been generated from an entry in the Cambridge
# Structural Database, then it will include bibliographic, chemical,
# crystal, experimental, refinement or atomic coordinate data resulting
# from the CCDC's data processing and validation procedures.
#
#######################################################################

data_CSD_CIF_IWOWEX
_audit_creation_date 2011-10-18
_audit_creation_method CSD-ConQuest-V1
_database_code_CSD IWOWEX
_database_code_depnum_ccdc_archive 'CCDC 665712'
_chemical_formula_sum 'C2 H12 Mn1 N14 O2'
_chemical_formula_moiety
;
C2 H12 Mn1 N14 O2
;
_journal_coden_Cambridge 1289
_journal_volume 16
_journal_year 2008
_journal_page_first 663
_journal_name_full 'Hanneng Cailiao(Chin.)(Energet.Mater.) '
loop_
_publ_author_name
"Zhen-hua Liu"
"Tong-lai Zhang"
"Jian-guo Zhang"
"Li Yang"
"Jin Zhang"
"Yan Zhang"
_chemical_name_systematic
;
cis-diazido-dicarbohydrazide-manganese(ii)
;
_chemical_name_common
;
Diazido-bis(carbonohydrazide)-manganese
;
_cell_volume    609.807
_exptl_crystal_colour 'faint yellow'
_exptl_crystal_density_diffrn 1.738
_exptl_crystal_description 'quadrate'
_diffrn_ambient_temperature 293
#These two values have been output from a single CSD field.
_refine_ls_R_factor_gt 0.0316
_refine_ls_wR_factor_gt 0.0316
_symmetry_cell_setting triclinic
_symmetry_space_group_name_H-M 'P -1'
_symmetry_Int_Tables_number 2
loop_
_symmetry_equiv_pos_site_id
_symmetry_equiv_pos_as_xyz
1 x,y,z
2 -x,-y,-z
_cell_length_a 8.2217(17)
_cell_length_b 8.7427(18)
_cell_length_c 9.4532(19)
_cell_angle_alpha 86.376(4)
_cell_angle_beta 69.104(3)
_cell_angle_gamma 74.019(3)
_cell_formula_units_Z 2
loop_
_atom_type_symbol
_atom_type_radius_bond
C 0.68
H 0.23
Mn 1.61
N 0.68
O 0.68
loop_
_atom_site_label
_atom_site_type_symbol
_atom_site_fract_x
_atom_site_fract_y
_atom_site_fract_z
Mn1 Mn 0.33471(5) 0.73629(4) 0.74574(4)
O1 O 0.4330(2) 0.93840(19) 0.79026(17)
O2 O 0.1119(2) 0.9226(2) 0.70243(18)
N1 N 0.1836(3) 0.8177(2) 0.9941(2)
H1 H 0.06630 0.82050 1.02030
H2 H 0.23080 0.74880 1.05330
N2 N 0.1990(3) 0.9709(2) 1.0152(2)
H3 H 0.12450 1.03150 1.09240
N3 N 0.3566(3) 1.1576(2) 0.9379(2)
H4 H 0.44340 1.19140 0.87540
N4 N 0.2368(3) 1.2490(3) 1.0707(3)
N5 N 0.4423(3) 0.8034(2) 0.4987(2)
H5 H 0.55700 0.80850 0.47350
H6 H 0.44090 0.72940 0.43740
N6 N 0.3308(3) 0.9527(2) 0.4821(2)
H7 H 0.36820 1.01060 0.40690
N7 N 0.0571(3) 1.1383(3) 0.5659(2)
H8 H -0.05170 1.17250 0.62880
N8 N 0.1238(4) 1.2263(3) 0.4386(3)
N9 N 0.2506(4) 0.5347(4) 0.7200(4)
N10 N 0.1405(3) 0.4721(3) 0.7605(3)
N11 N 0.0305(5) 0.4056(5) 0.8039(7)
N12 N 0.5887(4) 0.5809(3) 0.7528(4)
N13 N 0.6261(3) 0.4418(2) 0.7546(2)
N14 N 0.6659(3) 0.3031(2) 0.7555(3)
C1 C 0.3344(3) 1.0189(3) 0.9103(2)
C2 C 0.1647(3) 1.0019(3) 0.5871(2)
H9 H 0.179(4) 1.339(2) 1.038(4)
H10 H 0.119(5) 1.319(2) 0.478(4)
H11 H 0.305(4) 1.267(3) 1.121(3)
H12 H 0.052(5) 1.237(4) 0.384(5)
#END
