
#######################################################################
#
#                 Cambridge Crystallographic Data Centre
#                                CCDC
#
#######################################################################
#
# If this CIF has been generated from an entry in the Cambridge
# Structural Database, then it will include bibliographic, chemical,
# crystal, experimental, refinement or atomic coordinate data resulting
# from the CCDC's data processing and validation procedures.
#
#######################################################################

data_CSD_CIF_IXIFAW
_audit_creation_date 2004-09-28
_audit_creation_method CSD-ConQuest-V1
_database_code_CSD IXIFAW
_database_code_depnum_ccdc_archive 'CCDC 237162'
_chemical_formula_sum 'C20 H36 Cl2 Fe1 N12'
_chemical_formula_moiety
;
C20 H36 Cl2 Fe1 N12
;
_journal_coden_Cambridge 1078
_journal_year 2004
_journal_name_full 'CSD Communication(Private Communication) '
loop_
_publ_author_name
"A.L.Spek"
"J.J.A.Kolnar"
"J.Reedijk"
_chemical_name_systematic
;
tetrakis(1-n-Propyl-1,2,4-triazole-N^4^)-dichloro-iron(ii)
;
_cell_volume    682.646
_exptl_crystal_colour 'yellowish'
_exptl_crystal_density_diffrn 1.39
_exptl_special_details
;
contribution from Bijvoet Center for Biomolecular Research, Dept. Crystal and 
Structural Chemistry, Utrecht University, Padualaan 8, 3584 CH Utrecht, The 
Netherlands
;
_exptl_crystal_description 'block'
_diffrn_ambient_temperature 150
#These two values have been output from a single CSD field.
_refine_ls_R_factor_gt 0.0509
_refine_ls_wR_factor_gt 0.0509
_symmetry_cell_setting triclinic
_symmetry_space_group_name_H-M 'P -1'
_symmetry_Int_Tables_number 2
loop_
_symmetry_equiv_pos_site_id
_symmetry_equiv_pos_as_xyz
1 x,y,z
2 -x,-y,-z
_cell_length_a 7.3503(10)
_cell_length_b 8.8157(8)
_cell_length_c 12.1106(17)
_cell_angle_alpha 80.908(10)
_cell_angle_beta 72.644(11)
_cell_angle_gamma 65.806(10)
_cell_formula_units_Z 1
loop_
_atom_type_symbol
_atom_type_radius_bond
C 0.68
H 0.23
Cl 0.99
Fe 1.34
N 0.68
loop_
_atom_site_label
_atom_site_type_symbol
_atom_site_fract_x
_atom_site_fract_y
_atom_site_fract_z
Fe1 Fe 0.50000 0.00000 0.00000
Cl1 Cl 0.11951(10) 0.15870(9) 0.05449(6)
N1 N 0.6173(4) 0.0886(3) 0.3080(2)
N2 N 0.4293(4) 0.0804(4) 0.3584(2)
N3 N 0.5167(4) 0.0519(3) 0.1663(2)
N4 N 0.6849(4) 0.4135(3) -0.1313(2)
N5 N 0.5051(4) 0.4831(3) -0.1629(2)
N6 N 0.5502(4) 0.2273(3) -0.0800(2)
C1 C 0.3770(5) 0.0588(4) 0.2694(3)
C2 C 0.6658(5) 0.0717(4) 0.1950(2)
C3 C 0.7404(5) 0.1053(4) 0.3766(3)
C4 C 0.6426(6) 0.2701(4) 0.4340(3)
C5 C 0.7704(6) 0.2759(5) 0.5109(3)
C6 C 0.4299(5) 0.3660(4) -0.1295(3)
C7 C 0.7092(5) 0.2640(4) -0.0828(2)
C8 C 0.8238(5) 0.5016(4) -0.1515(3)
C9 C 0.9372(5) 0.5073(4) -0.2777(3)
C10 C 1.0789(6) 0.3374(5) -0.3253(3)
H1 H 0.25000 0.04880 0.27690
H2 H 0.78980 0.07350 0.14200
H3 H 0.87860 0.09310 0.32580
H4 H 0.75950 0.01430 0.43690
H5 H 0.50110 0.28620 0.48130
H6 H 0.63280 0.36140 0.37400
H7 H 0.70580 0.38410 0.54670
H8 H 0.91040 0.26010 0.46390
H9 H 0.77700 0.18720 0.57140
H10 H 0.30120 0.37800 -0.13940
H11 H 0.82420 0.19280 -0.05400
H12 H 0.92560 0.44530 -0.10510
H13 H 0.74270 0.61670 -0.12510
H14 H 1.02000 0.57540 -0.28740
H15 H 0.83460 0.56300 -0.32370
H16 H 1.14510 0.35010 -0.40750
H17 H 0.99820 0.26910 -0.31660
H18 H 1.18490 0.28320 -0.28260
Cl1A Cl 0.88049(10) -0.15870(9) -0.05449(6)
N3A N 0.4833(4) -0.0519(3) -0.1663(2)
C1A C 0.6230(5) -0.0588(4) -0.2694(3)
N2A N 0.5707(4) -0.0804(4) -0.3584(2)
N1A N 0.3827(4) -0.0886(3) -0.3080(2)
C2A C 0.3342(5) -0.0717(4) -0.1950(2)
H2A H 0.21020 -0.07350 -0.14200
C3A C 0.2596(5) -0.1053(4) -0.3766(3)
C4A C 0.3574(6) -0.2701(4) -0.4340(3)
C5A C 0.2296(6) -0.2759(5) -0.5109(3)
H7A H 0.29420 -0.38410 -0.54670
H8A H 0.08960 -0.26010 -0.46390
H9A H 0.22300 -0.18720 -0.57140
H5A H 0.49890 -0.28620 -0.48130
H6A H 0.36720 -0.36140 -0.37400
H3A H 0.12140 -0.09310 -0.32580
H4A H 0.24050 -0.01430 -0.43690
H1A H 0.75000 -0.04880 -0.27690
N6A N 0.4498(4) -0.2273(3) 0.0800(2)
C6A C 0.5701(5) -0.3660(4) 0.1295(3)
N5A N 0.4949(4) -0.4831(3) 0.1629(2)
N4A N 0.3151(4) -0.4135(3) 0.1313(2)
C7A C 0.2908(5) -0.2640(4) 0.0828(2)
H11A H 0.17580 -0.19280 0.05400
C8A C 0.1762(5) -0.5016(4) 0.1515(3)
C9A C 0.0628(5) -0.5073(4) 0.2777(3)
C10A C -0.0789(6) -0.3374(5) 0.3253(3)
H16A H -0.14510 -0.35010 0.40750
H17A H 0.00180 -0.26910 0.31660
H18A H -0.18490 -0.28320 0.28260
H14A H -0.02000 -0.57540 0.28740
H15A H 0.16540 -0.56300 0.32370
H12A H 0.07440 -0.44530 0.10510
H13A H 0.25730 -0.61670 0.12510
H10A H 0.69880 -0.37800 0.13940
#END
