
#######################################################################
#
#                 Cambridge Crystallographic Data Centre
#                                CCDC
#
#######################################################################
#
# If this CIF has been generated from an entry in the Cambridge
# Structural Database, then it will include bibliographic, chemical,
# crystal, experimental, refinement or atomic coordinate data resulting
# from the CCDC's data processing and validation procedures.
#
#######################################################################

data_CSD_CIF_IXOCED
_audit_creation_date 2004-09-28
_audit_creation_method CSD-ConQuest-V1
_database_code_CSD IXOCED
_database_code_depnum_ccdc_archive 'CCDC 186320'
_chemical_formula_sum 'C16 H30 Co1 N2 O4'
_chemical_formula_moiety
;
C16 H30 Co1 N2 O4
;
_journal_coden_Cambridge 580
_journal_volume 23
_journal_year 2004
_journal_page_first 735
_journal_name_full 'Polyhedron '
loop_
_publ_author_name
"S.Pasko"
"L.G.Hubert-Pfalzgraf"
"A.Abrutis"
"J.Vaissermann"
_chemical_name_systematic
;
bis(Acetylacetonato)-(N,N,N',N'-tetramethyl-1,2-diaminoethane)-cobalt(ii)
;
_cell_volume   1001.155
_exptl_crystal_colour 'pink'
_exptl_crystal_density_diffrn 1.24
_exptl_crystal_description 'plate'
_exptl_crystal_preparation 'sublimation'
_diffrn_ambient_temperature 295
#These two values have been output from a single CSD field.
_refine_ls_R_factor_gt 0.0476
_refine_ls_wR_factor_gt 0.0476
_symmetry_cell_setting monoclinic
_symmetry_space_group_name_H-M 'P n'
_symmetry_Int_Tables_number 7
loop_
_symmetry_equiv_pos_site_id
_symmetry_equiv_pos_as_xyz
1 x,y,z
2 1/2+x,-y,1/2+z
_cell_length_a 8.500(4)
_cell_length_b 10.193(3)
_cell_length_c 11.565(6)
_cell_angle_alpha 90
_cell_angle_beta 92.35(4)
_cell_angle_gamma 90
_cell_formula_units_Z 2
loop_
_atom_type_symbol
_atom_type_radius_bond
C 0.68
H 0.23
Co 1.33
N 0.68
O 0.68
loop_
_atom_site_label
_atom_site_type_symbol
_atom_site_fract_x
_atom_site_fract_y
_atom_site_fract_z
Co1 Co 0.5609(2) 0.31104(6) 0.1628(1)
O1 O 0.3555(5) 0.4052(4) 0.1060(4)
O2 O 0.6434(4) 0.4885(4) 0.2208(3)
O3 O 0.4757(6) 0.2685(5) 0.3256(3)
O4 O 0.4599(6) 0.1385(4) 0.1082(3)
N1 N 0.7944(6) 0.2217(5) 0.2126(5)
N2 N 0.6681(8) 0.3259(6) -0.0084(5)
C1 C 0.3229(6) 0.5220(5) 0.1193(4)
C2 C 0.4200(7) 0.6163(5) 0.1731(5)
C3 C 0.5711(6) 0.5958(5) 0.2186(4)
C4 C 0.1598(8) 0.5651(8) 0.0746(7)
C5 C 0.6585(8) 0.7103(6) 0.2747(7)
C6 C 0.3757(7) 0.1864(6) 0.3461(5)
C7 C 0.3080(7) 0.0947(6) 0.2676(5)
C8 C 0.3521(7) 0.0763(5) 0.1564(5)
C9 C 0.3189(9) 0.1858(7) 0.4702(6)
C10 C 0.265(1) -0.0242(7) 0.0820(7)
C11 C 0.8909(9) 0.247(1) 0.1138(8)
C12 C 0.808(1) 0.236(2) 0.0031(9)
C13 C 0.865(1) 0.281(1) 0.3186(9)
C14 C 0.775(1) 0.0807(8) 0.2330(7)
C15 C 0.576(1) 0.269(1) -0.1029(6)
C16 C 0.722(1) 0.4574(9) -0.0310(7)
H1 H 0.37640 0.70710 0.17930
H2 H 0.14590 0.66080 0.08990
H3 H 0.14840 0.54810 -0.01040
H4 H 0.07790 0.51430 0.11540
H5 H 0.59120 0.79080 0.26820
H6 H 0.75870 0.72550 0.23440
H7 H 0.68260 0.69020 0.35800
H8 H 0.22070 0.03840 0.29550
H9 H 0.23810 0.11560 0.47840
H10 H 0.41040 0.16840 0.52540
H11 H 0.27200 0.27300 0.48810
H12 H 0.18300 -0.06750 0.12820
H13 H 0.34150 -0.09170 0.05580
H14 H 0.21430 0.02020 0.01320
H15 H 0.93400 0.33830 0.12150
H16 H 0.97970 0.18290 0.11580
H17 H 0.88220 0.25900 -0.05870
H18 H 0.77090 0.14410 -0.00720
H19 H 0.79690 0.26180 0.38500
H20 H 0.97210 0.24240 0.33460
H21 H 0.87410 0.37760 0.30800
H22 H 0.70850 0.06720 0.30120
H23 H 0.88090 0.03980 0.24860
H24 H 0.72320 0.03920 0.16300
H25 H 0.47860 0.32210 -0.11770
H26 H 0.63920 0.26770 -0.17390
H27 H 0.54640 0.17710 -0.08230
H28 H 0.62940 0.51740 -0.03900
H29 H 0.79340 0.48690 0.03460
H30 H 0.78040 0.45780 -0.10430
#END
