
#######################################################################
#
#                 Cambridge Crystallographic Data Centre
#                                CCDC
#
#######################################################################
#
# If this CIF has been generated from an entry in the Cambridge
# Structural Database, then it will include bibliographic, chemical,
# crystal, experimental, refinement or atomic coordinate data resulting
# from the CCDC's data processing and validation procedures.
#
#######################################################################

data_CSD_CIF_IYOBAZ
_audit_creation_date 2004-10-11
_audit_creation_method CSD-ConQuest-V1
_database_code_CSD IYOBAZ
_database_code_depnum_ccdc_archive 'CCDC 222424'
_chemical_formula_sum 'C12 H20 Mn1 N2 O12'
_chemical_formula_moiety
;
H12 Mn1 O6 2+,2(C6 H4 N1 O3 1-)
;
_journal_coden_Cambridge 580
_journal_volume 23
_journal_year 2004
_journal_page_first 1109
_journal_name_full 'Polyhedron '
loop_
_publ_author_name
"N.Can"
"S.E.S.Can"
"A.Atac"
"F.Bardak"
_chemical_name_systematic
;
Hexa-aqua-manganese(ii) bis(isonicotinate N-oxide)
;
_cell_volume    440.001
_exptl_crystal_colour 'colorless'
_exptl_crystal_density_diffrn 1.658
_exptl_special_details
;
luminescent

;
_exptl_crystal_description 'prism'
_diffrn_ambient_temperature 173
#These two values have been output from a single CSD field.
_refine_ls_R_factor_gt 0.0279
_refine_ls_wR_factor_gt 0.0279
_symmetry_cell_setting triclinic
_symmetry_space_group_name_H-M 'P -1'
_symmetry_Int_Tables_number 2
loop_
_symmetry_equiv_pos_site_id
_symmetry_equiv_pos_as_xyz
1 x,y,z
2 -x,-y,-z
_cell_length_a 7.5380(3)
_cell_length_b 7.6939(3)
_cell_length_c 7.9118(4)
_cell_angle_alpha 100.276(2)
_cell_angle_beta 102.091(2)
_cell_angle_gamma 92.371(2)
_cell_formula_units_Z 1
loop_
_atom_type_symbol
_atom_type_radius_bond
C 0.68
H 0.23
Mn 1.35
N 0.68
O 0.68
loop_
_atom_site_label
_atom_site_type_symbol
_atom_site_fract_x
_atom_site_fract_y
_atom_site_fract_z
Mn1 Mn 0.50000 0.50000 0.50000
O1 O 0.4739(2) 0.5059(2) 0.7702(2)
H1 H 0.442(4) 0.575(5) 0.833(4)
H2 H 0.527(5) 0.433(5) 0.834(5)
O2 O 0.2052(2) 0.4532(2) 0.4050(2)
H3 H 0.135(5) 0.536(5) 0.386(4)
H4 H 0.167(5) 0.402(5) 0.476(5)
O3 O 0.5154(3) 0.2214(2) 0.4802(2)
H5 H 0.452(5) 0.154(5) 0.412(5)
H6 H 0.564(5) 0.172(5) 0.568(5)
O4 O 0.6536(2) 0.2823(2) 0.9607(2)
O5 O 0.6808(2) 0.0687(2) 0.73916(19)
O6 O 0.9565(2) -0.2988(2) 1.3818(2)
N1 N 0.8836(2) -0.2025(2) 1.2663(2)
C1 C 0.7545(3) 0.0101(3) 1.0282(3)
C2 C 0.8068(3) -0.1577(3) 0.9722(3)
H7 H 0.803(3) -0.204(3) 0.853(4)
C3 C 0.8706(3) -0.2614(3) 1.0925(3)
H8 H 0.906(4) -0.368(4) 1.067(4)
C4 C 0.8259(3) -0.0433(3) 1.3234(3)
H9 H 0.835(3) -0.013(3) 1.444(4)
C5 C 0.7640(3) 0.0647(3) 1.2066(3)
H10 H 0.725(4) 0.174(4) 1.252(3)
C6 C 0.6904(3) 0.1301(3) 0.8996(3)
O1A O 0.5261(2) 0.4941(2) 0.2298(2)
H1A H 0.558(4) 0.425(5) 0.167(4)
H2A H 0.473(5) 0.567(5) 0.166(5)
O2A O 0.7948(2) 0.5468(2) 0.5950(2)
H3A H 0.865(5) 0.464(5) 0.614(4)
H4A H 0.833(5) 0.598(5) 0.524(5)
O3A O 0.4846(3) 0.7786(2) 0.5198(2)
H5A H 0.548(5) 0.846(5) 0.588(5)
H6A H 0.436(5) 0.828(5) 0.432(5)
#END
