
#######################################################################
#
#                 Cambridge Crystallographic Data Centre
#                                CCDC
#
#######################################################################
#
# If this CIF has been generated from an entry in the Cambridge
# Structural Database, then it will include bibliographic, chemical,
# crystal, experimental, refinement or atomic coordinate data resulting
# from the CCDC's data processing and validation procedures.
#
#######################################################################

data_CSD_CIF_IYOBAZ01
_audit_creation_date 2016-10-26
_audit_creation_method CSD-ConQuest-V1
_database_code_CSD IYOBAZ01
_database_code_depnum_ccdc_archive 'CCDC 749997'
_chemical_formula_sum 'C12 H20 Mn1 N2 O12'
_chemical_formula_moiety
;
H12 Mn1 O6 2+,2(C6 H4 N1 O3 1-)
;
_journal_coden_Cambridge 1078
_journal_year 2016
_journal_name_full 'CSD Communication(Private Communication) '
loop_
_publ_author_name
"J.B.Baruah"
_chemical_name_systematic
;
hexa-aqua-manganese(ii) bis(1-oxo-1-pyridine-4-carboxylate)
;
_cell_volume    447.807
_exptl_crystal_colour 'colorless'
_exptl_crystal_density_diffrn 1.629
_exptl_crystal_description 'block'
_diffrn_ambient_temperature 296
#These two values have been output from a single CSD field.
_refine_ls_R_factor_gt 0.0271
_refine_ls_wR_factor_gt 0.0271
_symmetry_cell_setting triclinic
_symmetry_space_group_name_H-M 'P -1'
_symmetry_Int_Tables_number 2
loop_
_symmetry_equiv_pos_site_id
_symmetry_equiv_pos_as_xyz
1 x,y,z
2 -x,-y,-z
_cell_length_a 7.6640(3)
_cell_length_b 7.6781(3)
_cell_length_c 7.8641(4)
_cell_angle_alpha 99.888(2)
_cell_angle_beta 100.190(3)
_cell_angle_gamma 91.758(2)
_cell_formula_units_Z 1
loop_
_atom_type_symbol
_atom_type_radius_bond
C 0.68
H 0.23
Mn 1.61
N 0.68
O 0.68
loop_
_atom_site_label
_atom_site_type_symbol
_atom_site_fract_x
_atom_site_fract_y
_atom_site_fract_z
Mn1 Mn 0.50000 0.00000 0.50000
O1 O 0.4905(2) 0.27948(18) 0.5193(2)
H1 H 0.56320 0.32940 0.59650
O2 O 0.5224(2) -0.00778(19) 0.22723(17)
H2 H 0.46630 0.06850 0.18880
H3 H 0.57150 -0.08020 0.15550
O3 O 0.2120(2) -0.0357(2) 0.4177(2)
H4 H 0.171(4) -0.089(4) 0.487(4)
H5 H 0.142(4) 0.047(4) 0.395(4)
H6 H 0.438(5) 0.329(5) 0.435(5)
O4 O 0.6760(2) 0.56754(18) -0.26354(18)
O5 O 0.6549(2) 0.7823(2) -0.0416(2)
O6 O 0.9542(2) 0.1996(2) 0.3752(3)
N1 N 0.8841(2) 0.2976(2) 0.2608(2)
C1 C 0.6892(2) 0.6299(2) -0.1033(2)
C2 C 0.7556(2) 0.5098(2) 0.0248(2)
C3 C 0.8057(3) 0.3417(3) -0.0320(3)
H7 H 0.79650 0.29900 -0.15150
C4 C 0.8689(3) 0.2377(3) 0.0878(3)
H8 H 0.90170 0.12430 0.04870
C5 C 0.8305(3) 0.4574(3) 0.3189(3)
H9 H 0.83500 0.49520 0.43860
C6 C 0.7692(3) 0.5655(3) 0.2033(3)
H10 H 0.73620 0.67800 0.24550
O1A O 0.5095(2) -0.27948(18) 0.4807(2)
H1A H 0.43680 -0.32940 0.40350
O2A O 0.4776(2) 0.00778(19) 0.77277(17)
H2A H 0.53370 -0.06850 0.81120
H3A H 0.42850 0.08020 0.84450
O3A O 0.7880(2) 0.0357(2) 0.5823(2)
H4A H 0.829(4) 0.089(4) 0.513(4)
H5A H 0.858(4) -0.047(4) 0.605(4)
H6A H 0.562(5) -0.329(5) 0.565(5)
#END
