
#######################################################################
#
#                 Cambridge Crystallographic Data Centre
#                                CCDC
#
#######################################################################
#
# If this CIF has been generated from an entry in the Cambridge
# Structural Database, then it will include bibliographic, chemical,
# crystal, experimental, refinement or atomic coordinate data resulting
# from the CCDC's data processing and validation procedures.
#
#######################################################################

data_CSD_CIF_IZIHEF
_audit_creation_date 2011-11-21
_audit_creation_method CSD-ConQuest-V1
_database_code_CSD IZIHEF
_database_code_depnum_ccdc_archive 'CCDC 766524'
_chemical_formula_sum 'C10 H18 Co1 N4 O8'
_chemical_formula_moiety
;
C10 H14 Co1 N4 O6,2(H2 O1)
;
_journal_coden_Cambridge 524
_journal_volume 344
_journal_year 2011
_journal_page_first 605
_journal_name_full 'Arch.Pharm.Chem.Life Sci. '
loop_
_publ_author_name
"M.Buczkowska"
"A.Bodtke"
"U.Lindequist"
"M.Gdaniec"
"P.J.Bednarski"
_chemical_name_systematic
;
Diaqua-bis(1-methyl-1H-imidazole-2-carboxylato)-cobalt(ii) dihydrate
;
_cell_volume    738.708
_exptl_crystal_colour 'pale pink'
_exptl_crystal_density_diffrn 1.714
_exptl_crystal_description 'needle'
_diffrn_ambient_temperature 130
#These two values have been output from a single CSD field.
_refine_ls_R_factor_gt 0.0235
_refine_ls_wR_factor_gt 0.0235
_symmetry_cell_setting monoclinic
_symmetry_space_group_name_H-M 'P 21/n'
_symmetry_Int_Tables_number 14
loop_
_symmetry_equiv_pos_site_id
_symmetry_equiv_pos_as_xyz
1 x,y,z
2 1/2-x,1/2+y,1/2-z
3 -x,-y,-z
4 -1/2+x,-1/2-y,-1/2+z
_cell_length_a 10.8174(4)
_cell_length_b 4.9833(2)
_cell_length_c 13.7096(5)
_cell_angle_alpha 90
_cell_angle_beta 91.702(4)
_cell_angle_gamma 90
_cell_formula_units_Z 2
loop_
_atom_type_symbol
_atom_type_radius_bond
C 0.68
H 0.23
Co 1.26
N 0.68
O 0.68
loop_
_atom_site_label
_atom_site_type_symbol
_atom_site_fract_x
_atom_site_fract_y
_atom_site_fract_z
Co1 Co 0.00000 0.00000 0.00000
O1 O 0.31236(12) -0.4840(3) -0.23697(10)
H1 H 0.3186(19) -0.476(4) -0.1824(17)
H2 H 0.283(2) -0.633(5) -0.2478(17)
O2 O -0.03917(11) -0.2494(2) 0.12368(9)
H3 H -0.078(2) -0.394(5) 0.1043(17)
H4 H -0.0812(19) -0.181(5) 0.1624(16)
C1 C 0.25425(14) -0.0402(3) 0.05838(11)
N1 N 0.15960(11) 0.1228(3) 0.07546(9)
C2 C 0.20071(15) 0.3006(3) 0.14433(12)
H5 H 0.1514(15) 0.435(3) 0.1661(12)
C3 C 0.32047(16) 0.2450(3) 0.16981(12)
H6 H 0.3754(15) 0.327(3) 0.2154(13)
N2 N 0.35435(12) 0.0273(2) 0.11479(10)
C4 C 0.47504(14) -0.1062(4) 0.12284(13)
H7 H 0.47640 -0.25520 0.07850
H8 H 0.48880 -0.16970 0.18840
H9 H 0.53890 0.01880 0.10700
C5 C 0.24032(14) -0.2557(3) -0.01705(11)
O3 O 0.12975(9) -0.2813(2) -0.05061(8)
O4 O 0.33179(10) -0.3854(2) -0.04314(8)
O2B O 0.03917(11) 0.2494(2) -0.12368(9)
H3B H 0.078(2) 0.394(5) -0.1043(17)
H4B H 0.0812(19) 0.181(5) -0.1624(16)
C1B C -0.25425(14) 0.0402(3) -0.05838(11)
N1B N -0.15960(11) -0.1228(3) -0.07546(9)
C2B C -0.20071(15) -0.3006(3) -0.14433(12)
H5B H -0.1514(15) -0.435(3) -0.1661(12)
C3B C -0.32047(16) -0.2450(3) -0.16981(12)
H6B H -0.3754(15) -0.327(3) -0.2154(13)
N2B N -0.35435(12) -0.0273(2) -0.11479(10)
C4B C -0.47504(14) 0.1062(4) -0.12284(13)
H7B H -0.47640 0.25520 -0.07850
H8B H -0.48880 0.16970 -0.18840
H9B H -0.53890 -0.01880 -0.10700
C5B C -0.24032(14) 0.2557(3) 0.01705(11)
O3B O -0.12975(9) 0.2813(2) 0.05061(8)
O4B O -0.33179(10) 0.3854(2) 0.04314(8)
#END
