
#######################################################################
#
#                 Cambridge Crystallographic Data Centre
#                                CCDC
#
#######################################################################
#
# If this CIF has been generated from an entry in the Cambridge
# Structural Database, then it will include bibliographic, chemical,
# crystal, experimental, refinement or atomic coordinate data resulting
# from the CCDC's data processing and validation procedures.
#
#######################################################################

data_CSD_CIF_JAFBUO13
_audit_creation_date 2017-10-27
_audit_creation_method CSD-ConQuest-V1
_database_code_CSD JAFBUO13
_database_code_depnum_ccdc_archive 'CCDC 1446446'
_chemical_formula_sum 'C24 H24 Cl2 Fe1 N12 O8'
_chemical_formula_moiety
;
C24 H24 Fe1 N12 2+,2(Cl1 O4 1-)
;
_journal_coden_Cambridge 2031
_journal_volume 2
_journal_year 2016
_journal_page_first 9
_journal_name_full 'Magnetochem. '
loop_
_publ_author_name
"H.J.Shepherd"
"George Tonge"
"L.E.Hatcher"
"M.J.Bryant"
"J.V.Knichal"
"P.R.Raithby"
"M.A.Halcrow"
"R.Kulmaczewski"
"K.J.Gagnon"
"S.J.Teat"
_chemical_name_systematic
;
bis[2,6-bis(3-methyl-1H-pyrazol-1-yl)pyrazine]-iron(ii) diperchlorate
;
_cell_volume   1532.699
_exptl_crystal_colour 'yellow'
_exptl_crystal_density_diffrn 1.593
_exptl_crystal_description 'octahedral'
_diffrn_ambient_temperature 210
_diffrn_special_details
;
twin

;
#These two values have been output from a single CSD field.
_refine_ls_R_factor_gt 0.0548
_refine_ls_wR_factor_gt 0.0548
_symmetry_cell_setting tetragonal
_symmetry_space_group_name_H-M 'I -4'
_symmetry_Int_Tables_number 82
loop_
_symmetry_equiv_pos_site_id
_symmetry_equiv_pos_as_xyz
1 x,y,z
2 y,-x,-z
3 -x,-y,z
4 -y,x,-z
5 1/2+x,1/2+y,1/2+z
6 1/2+y,1/2-x,1/2-z
7 1/2-x,1/2-y,1/2+z
8 1/2-y,1/2+x,1/2-z
_cell_length_a 9.3448(6)
_cell_length_b 9.3448(6)
_cell_length_c 17.5516(16)
_cell_angle_alpha 90
_cell_angle_beta 90
_cell_angle_gamma 90
_cell_formula_units_Z 2
loop_
_atom_type_symbol
_atom_type_radius_bond
C 0.68
H 0.23
Cl 0.99
Fe 1.52
N 0.68
O 0.68
loop_
_atom_site_label
_atom_site_type_symbol
_atom_site_fract_x
_atom_site_fract_y
_atom_site_fract_z
Fe1 Fe 0.50000 1.00000 0.25000
N1 N 0.50000 1.00000 0.3712(3)
N2 N 0.50000 1.00000 0.5279(4)
C1 C 0.5910(11) 0.9189(11) 0.4106(4)
C2 C 0.7862(13) 0.7445(12) 0.3817(4)
H1 H 0.80940 0.71220 0.43030
N3 N 0.6837(8) 0.8411(8) 0.3634(3)
C3 C 0.5916(11) 0.9196(11) 0.4893(4)
H2 H 0.65700 0.86300 0.51550
C4 C 0.8481(10) 0.7043(11) 0.3153(5)
H3 H 0.92600 0.64340 0.30940
N4 N 0.6696(9) 0.8544(8) 0.2862(3)
C5 C 0.7716(7) 0.7726(8) 0.2575(5)
C6 C 0.7906(12) 0.7587(12) 0.1724(6)
H4 H 0.83050 0.84560 0.15250
H5 H 0.69940 0.74120 0.14910
H6 H 0.85390 0.68030 0.16160
Cl1 Cl 1.00000 1.00000 0.50000
O1 O 0.8920(8) 1.0670(7) 0.4539(5)
Cl2 Cl 0.50000 0.50000 0.50000
O2 O 0.479(3) 0.614(2) 0.4631(16)
C1B C 0.4090(11) 1.0811(11) 0.4106(4)
C2B C 0.2138(13) 1.2555(12) 0.3817(4)
H1B H 0.19060 1.28780 0.43030
N3B N 0.3163(8) 1.1589(8) 0.3634(3)
C3B C 0.4084(11) 1.0804(11) 0.4893(4)
H2B H 0.34300 1.13700 0.51550
C4B C 0.1519(10) 1.2957(11) 0.3153(5)
H3B H 0.07400 1.35660 0.30940
N4B N 0.3304(9) 1.1456(8) 0.2862(3)
C5B C 0.2284(7) 1.2274(8) 0.2575(5)
C6B C 0.2094(12) 1.2413(12) 0.1724(6)
H4B H 0.16950 1.15440 0.15250
H5B H 0.30060 1.25880 0.14910
H6B H 0.14610 1.31970 0.16160
N1E N 0.50000 1.00000 0.1288(3)
N2E N 0.50000 1.00000 -0.0279(4)
C1E C 0.4189(11) 0.9090(11) 0.0894(4)
C2E C 0.2445(13) 0.7138(12) 0.1183(4)
H1E H 0.21220 0.69060 0.06970
N3E N 0.3411(8) 0.8163(8) 0.1366(3)
C3E C 0.4196(11) 0.9084(11) 0.0107(4)
H2E H 0.36300 0.84300 -0.01550
C4E C 0.2043(10) 0.6519(11) 0.1847(5)
H3E H 0.14340 0.57400 0.19060
N4E N 0.3544(9) 0.8304(8) 0.2138(3)
C5E C 0.2726(7) 0.7284(8) 0.2425(5)
C6E C 0.2587(12) 0.7094(12) 0.3276(6)
H4E H 0.34560 0.66950 0.34750
H5E H 0.24120 0.80060 0.35090
H6E H 0.18030 0.64610 0.33840
C1G C 0.5811(11) 1.0910(11) 0.0894(4)
C2G C 0.7555(13) 1.2862(12) 0.1183(4)
H1G H 0.78780 1.30940 0.06970
N3G N 0.6589(8) 1.1837(8) 0.1366(3)
C3G C 0.5804(11) 1.0916(11) 0.0107(4)
H2G H 0.63700 1.15700 -0.01550
C4G C 0.7957(10) 1.3481(11) 0.1847(5)
H3G H 0.85660 1.42600 0.19060
N4G N 0.6456(9) 1.1696(8) 0.2138(3)
C5G C 0.7274(7) 1.2716(8) 0.2425(5)
C6G C 0.7413(12) 1.2906(12) 0.3276(6)
H4G H 0.65440 1.33050 0.34750
H5G H 0.75880 1.19940 0.35090
H6G H 0.81970 1.35390 0.33840
O1A O 1.0670(8) 1.1080(7) 0.5461(5)
O1B O 1.1080(8) 0.9330(7) 0.4539(5)
O1C O 0.9330(8) 0.8920(7) 0.5461(5)
O2A O 0.614(3) 0.521(2) 0.5369(16)
O2B O 0.521(3) 0.386(2) 0.4631(16)
O2C O 0.386(3) 0.479(2) 0.5369(16)
#END
