
#######################################################################
#
#                 Cambridge Crystallographic Data Centre
#                                CCDC
#
#######################################################################
#
# If this CIF has been generated from an entry in the Cambridge
# Structural Database, then it will include bibliographic, chemical,
# crystal, experimental, refinement or atomic coordinate data resulting
# from the CCDC's data processing and validation procedures.
#
#######################################################################

data_CSD_CIF_JAFBUO16
_audit_creation_date 2017-10-27
_audit_creation_method CSD-ConQuest-V1
_database_code_CSD JAFBUO16
_database_code_depnum_ccdc_archive 'CCDC 1446449'
_chemical_formula_sum 'C24 H24 Cl2 Fe1 N12 O8'
_chemical_formula_moiety
;
C24 H24 Fe1 N12 2+,2(Cl1 O4 1-)
;
_journal_coden_Cambridge 2031
_journal_volume 2
_journal_year 2016
_journal_page_first 9
_journal_name_full 'Magnetochem. '
loop_
_publ_author_name
"H.J.Shepherd"
"George Tonge"
"L.E.Hatcher"
"M.J.Bryant"
"J.V.Knichal"
"P.R.Raithby"
"M.A.Halcrow"
"R.Kulmaczewski"
"K.J.Gagnon"
"S.J.Teat"
_chemical_name_systematic
;
bis[2,6-bis(3-methyl-1H-pyrazol-1-yl)pyrazine]-iron(ii) diperchlorate
;
_cell_volume   1495.175
_exptl_crystal_density_diffrn 1.633
_exptl_crystal_description 'octahedral'
_diffrn_ambient_temperature 180
_diffrn_special_details
;
twin

;
#These two values have been output from a single CSD field.
_refine_ls_R_factor_gt 0.0561
_refine_ls_wR_factor_gt 0.0561
_symmetry_cell_setting tetragonal
_symmetry_space_group_name_H-M 'I -4'
_symmetry_Int_Tables_number 82
loop_
_symmetry_equiv_pos_site_id
_symmetry_equiv_pos_as_xyz
1 x,y,z
2 y,-x,-z
3 -x,-y,z
4 -y,x,-z
5 1/2+x,1/2+y,1/2+z
6 1/2+y,1/2-x,1/2-z
7 1/2-x,1/2-y,1/2+z
8 1/2-y,1/2+x,1/2-z
_cell_length_a 9.1874(5)
_cell_length_b 9.1874(5)
_cell_length_c 17.7136(15)
_cell_angle_alpha 90
_cell_angle_beta 90
_cell_angle_gamma 90
_cell_formula_units_Z 2
loop_
_atom_type_symbol
_atom_type_radius_bond
C 0.68
H 0.23
Cl 0.99
Fe 1.52
N 0.68
O 0.68
loop_
_atom_site_label
_atom_site_type_symbol
_atom_site_fract_x
_atom_site_fract_y
_atom_site_fract_z
Fe1 Fe 0.50000 1.00000 0.25000
N1 N 0.50000 1.00000 0.3631(4)
N2 N 0.50000 1.00000 0.5171(4)
C1 C 0.5971(10) 0.9210(11) 0.4008(4)
C2 C 0.8097(12) 0.7633(11) 0.3695(7)
H1 H 0.84200 0.73520 0.41700
N3 N 0.6916(9) 0.8468(8) 0.3543(4)
C3 C 0.5955(12) 0.9205(11) 0.4795(4)
H2 H 0.66220 0.86380 0.50580
C4 C 0.8727(11) 0.7280(11) 0.3017(7)
H3 H 0.95580 0.67200 0.29420
N4 N 0.6782(8) 0.8693(7) 0.2764(4)
C5 C 0.7855(9) 0.7942(9) 0.2455(9)
C6 C 0.8071(14) 0.7878(16) 0.1614(7)
H4 H 0.81080 0.88480 0.14140
H5 H 0.72750 0.73610 0.13870
H6 H 0.89660 0.73830 0.15030
Cl1 Cl 1.00000 1.00000 0.50000
O1 O 0.8915(10) 1.0704(9) 0.4535(4)
Cl2 Cl 0.50000 0.50000 0.50000
O2 O 0.5964(13) 0.5803(9) 0.4547(5)
C1B C 0.4029(10) 1.0790(11) 0.4008(4)
C2B C 0.1903(12) 1.2367(11) 0.3695(7)
H1B H 0.15800 1.26480 0.41700
N3B N 0.3084(9) 1.1532(8) 0.3543(4)
C3B C 0.4045(12) 1.0795(11) 0.4795(4)
H2B H 0.33780 1.13620 0.50580
C4B C 0.1273(11) 1.2720(11) 0.3017(7)
H3B H 0.04420 1.32800 0.29420
N4B N 0.3218(8) 1.1307(7) 0.2764(4)
C5B C 0.2145(9) 1.2058(9) 0.2455(9)
C6B C 0.1929(14) 1.2122(16) 0.1614(7)
H4B H 0.18920 1.11520 0.14140
H5B H 0.27250 1.26390 0.13870
H6B H 0.10340 1.26170 0.15030
N1E N 0.50000 1.00000 0.1369(4)
N2E N 0.50000 1.00000 -0.0171(4)
C1E C 0.421(1) 0.9029(11) 0.0992(4)
C2E C 0.2633(12) 0.6903(11) 0.1305(7)
H1E H 0.23520 0.65800 0.08300
N3E N 0.3468(9) 0.8084(8) 0.1457(4)
C3E C 0.4205(12) 0.9045(11) 0.0205(4)
H2E H 0.36380 0.83780 -0.00580
C4E C 0.2280(11) 0.6273(11) 0.1983(7)
H3E H 0.17200 0.54420 0.20580
N4E N 0.3693(8) 0.8218(7) 0.2236(4)
C5E C 0.2942(9) 0.7145(9) 0.2545(9)
C6E C 0.2878(14) 0.6929(16) 0.3386(7)
H4E H 0.38480 0.68920 0.35860
H5E H 0.23610 0.77250 0.36130
H6E H 0.23830 0.60340 0.34970
C1G C 0.579(1) 1.0971(11) 0.0992(4)
C2G C 0.7367(12) 1.3097(11) 0.1305(7)
H1G H 0.76480 1.34200 0.08300
N3G N 0.6532(9) 1.1916(8) 0.1457(4)
C3G C 0.5795(12) 1.0955(11) 0.0205(4)
H2G H 0.63620 1.16220 -0.00580
C4G C 0.7720(11) 1.3727(11) 0.1983(7)
H3G H 0.82800 1.45580 0.20580
N4G N 0.6307(8) 1.1782(7) 0.2236(4)
C5G C 0.7058(9) 1.2855(9) 0.2545(9)
C6G C 0.7122(14) 1.3071(16) 0.3386(7)
H4G H 0.61520 1.31080 0.35860
H5G H 0.76390 1.22750 0.36130
H6G H 0.76170 1.39660 0.34970
O1A O 1.0704(10) 1.1085(9) 0.5465(4)
O1B O 1.1085(10) 0.9296(9) 0.4535(4)
O1C O 0.9296(10) 0.8915(9) 0.5465(4)
O2A O 0.5803(13) 0.4036(9) 0.5453(5)
O2B O 0.4036(13) 0.4197(9) 0.4547(5)
O2C O 0.4197(13) 0.5964(9) 0.5453(5)
#END
