
#######################################################################
#
#                 Cambridge Crystallographic Data Centre
#                                CCDC
#
#######################################################################
#
# If this CIF has been generated from an entry in the Cambridge
# Structural Database, then it will include bibliographic, chemical,
# crystal, experimental, refinement or atomic coordinate data resulting
# from the CCDC's data processing and validation procedures.
#
#######################################################################

data_CSD_CIF_JAFBUO12
_audit_creation_date 2017-10-27
_audit_creation_method CSD-ConQuest-V1
_database_code_CSD JAFBUO12
_database_code_depnum_ccdc_archive 'CCDC 1446445'
_chemical_formula_sum 'C24 H24 Cl2 Fe1 N12 O8'
_chemical_formula_moiety
;
C24 H24 Fe1 N12 2+,2(Cl1 O4 1-)
;
_journal_coden_Cambridge 2031
_journal_volume 2
_journal_year 2016
_journal_page_first 9
_journal_name_full 'Magnetochem. '
loop_
_publ_author_name
"H.J.Shepherd"
"George Tonge"
"L.E.Hatcher"
"M.J.Bryant"
"J.V.Knichal"
"P.R.Raithby"
"M.A.Halcrow"
"R.Kulmaczewski"
"K.J.Gagnon"
"S.J.Teat"
_chemical_name_systematic
;
bis[2,6-bis(3-methyl-1H-pyrazol-1-yl)pyrazine]-iron(ii) diperchlorate
;
_cell_volume   1535.774
_exptl_crystal_colour 'yellow'
_exptl_crystal_density_diffrn 1.59
_exptl_crystal_description 'octahedral'
_diffrn_ambient_temperature 220
_diffrn_special_details
;
twin

;
#These two values have been output from a single CSD field.
_refine_ls_R_factor_gt 0.0586
_refine_ls_wR_factor_gt 0.0586
_symmetry_cell_setting tetragonal
_symmetry_space_group_name_H-M 'I -4'
_symmetry_Int_Tables_number 82
loop_
_symmetry_equiv_pos_site_id
_symmetry_equiv_pos_as_xyz
1 x,y,z
2 y,-x,-z
3 -x,-y,z
4 -y,x,-z
5 1/2+x,1/2+y,1/2+z
6 1/2+y,1/2-x,1/2-z
7 1/2-x,1/2-y,1/2+z
8 1/2-y,1/2+x,1/2-z
_cell_length_a 9.3526(6)
_cell_length_b 9.3526(6)
_cell_length_c 17.5575(17)
_cell_angle_alpha 90
_cell_angle_beta 90
_cell_angle_gamma 90
_cell_formula_units_Z 2
loop_
_atom_type_symbol
_atom_type_radius_bond
C 0.68
H 0.23
Cl 0.99
Fe 1.52
N 0.68
O 0.68
loop_
_atom_site_label
_atom_site_type_symbol
_atom_site_fract_x
_atom_site_fract_y
_atom_site_fract_z
Fe1 Fe 0.50000 1.00000 0.25000
N1 N 0.50000 1.00000 0.3714(4)
N2 N 0.50000 1.00000 0.5274(4)
C1 C 0.5895(12) 0.9183(12) 0.4109(4)
C2 C 0.7853(14) 0.7432(14) 0.3814(5)
H1 H 0.80880 0.70960 0.43030
N3 N 0.6832(8) 0.8416(9) 0.3635(3)
C3 C 0.5915(12) 0.9197(12) 0.4892(4)
H2 H 0.65830 0.86340 0.51570
C4 C 0.8456(12) 0.7037(12) 0.3151(5)
H3 H 0.92330 0.64100 0.30900
N4 N 0.6683(10) 0.8538(10) 0.2861(3)
C5 C 0.7714(8) 0.7728(8) 0.2574(6)
C6 C 0.7894(13) 0.7574(12) 0.1725(6)
H4 H 0.82810 0.84540 0.15170
H5 H 0.69730 0.73780 0.14930
H6 H 0.85450 0.67920 0.16180
Cl1 Cl 1.00000 1.00000 0.50000
O1 O 0.8921(10) 1.0671(8) 0.4548(5)
Cl2 Cl 0.50000 0.50000 0.50000
O2 O 0.478(3) 0.613(2) 0.4608(16)
C1B C 0.4105(12) 1.0817(12) 0.4109(4)
C2B C 0.2147(14) 1.2568(14) 0.3814(5)
H1B H 0.19120 1.29040 0.43030
N3B N 0.3168(8) 1.1584(9) 0.3635(3)
C3B C 0.4085(12) 1.0803(12) 0.4892(4)
H2B H 0.34170 1.13660 0.51570
C4B C 0.1544(12) 1.2963(12) 0.3151(5)
H3B H 0.07670 1.35900 0.30900
N4B N 0.3317(10) 1.1462(10) 0.2861(3)
C5B C 0.2286(8) 1.2272(8) 0.2574(6)
C6B C 0.2106(13) 1.2426(12) 0.1725(6)
H4B H 0.17190 1.15460 0.15170
H5B H 0.30270 1.26220 0.14930
H6B H 0.14550 1.32080 0.16180
N1E N 0.50000 1.00000 0.1286(4)
N2E N 0.50000 1.00000 -0.0274(4)
C1E C 0.4183(12) 0.9105(12) 0.0891(4)
C2E C 0.2432(14) 0.7147(14) 0.1186(5)
H1E H 0.20960 0.69120 0.06970
N3E N 0.3416(8) 0.8168(9) 0.1365(3)
C3E C 0.4197(12) 0.9085(12) 0.0108(4)
H2E H 0.36340 0.84170 -0.01570
C4E C 0.2037(12) 0.6544(12) 0.1849(5)
H3E H 0.14100 0.57670 0.19100
N4E N 0.3538(10) 0.8317(10) 0.2139(3)
C5E C 0.2728(8) 0.7286(8) 0.2426(6)
C6E C 0.2574(13) 0.7106(12) 0.3275(6)
H4E H 0.34540 0.67190 0.34830
H5E H 0.23780 0.80270 0.35070
H6E H 0.17920 0.64550 0.33820
C1G C 0.5817(12) 1.0895(12) 0.0891(4)
C2G C 0.7568(14) 1.2853(14) 0.1186(5)
H1G H 0.79040 1.30880 0.06970
N3G N 0.6584(8) 1.1832(9) 0.1365(3)
C3G C 0.5803(12) 1.0915(12) 0.0108(4)
H2G H 0.63660 1.15830 -0.01570
C4G C 0.7963(12) 1.3456(12) 0.1849(5)
H3G H 0.85900 1.42330 0.19100
N4G N 0.6462(10) 1.1683(10) 0.2139(3)
C5G C 0.7272(8) 1.2714(8) 0.2426(6)
C6G C 0.7426(13) 1.2894(12) 0.3275(6)
H4G H 0.65460 1.32810 0.34830
H5G H 0.76220 1.19730 0.35070
H6G H 0.82080 1.35450 0.33820
O1A O 1.0671(10) 1.1079(8) 0.5452(5)
O1B O 1.1079(10) 0.9329(8) 0.4548(5)
O1C O 0.9329(10) 0.8921(8) 0.5452(5)
O2A O 0.613(3) 0.522(2) 0.5392(16)
O2B O 0.522(3) 0.387(2) 0.4608(16)
O2C O 0.387(3) 0.478(2) 0.5392(16)
#END
