
#######################################################################
#
#                 Cambridge Crystallographic Data Centre
#                                CCDC
#
#######################################################################
#
# If this CIF has been generated from an entry in the Cambridge
# Structural Database, then it will include bibliographic, chemical,
# crystal, experimental, refinement or atomic coordinate data resulting
# from the CCDC's data processing and validation procedures.
#
#######################################################################

data_CSD_CIF_JAFBUO15
_audit_creation_date 2017-10-27
_audit_creation_method CSD-ConQuest-V1
_database_code_CSD JAFBUO15
_database_code_depnum_ccdc_archive 'CCDC 1446448'
_chemical_formula_sum 'C24 H24 Cl2 Fe1 N12 O8'
_chemical_formula_moiety
;
C24 H24 Fe1 N12 2+,2(Cl1 O4 1-)
;
_journal_coden_Cambridge 2031
_journal_volume 2
_journal_year 2016
_journal_page_first 9
_journal_name_full 'Magnetochem. '
loop_
_publ_author_name
"H.J.Shepherd"
"George Tonge"
"L.E.Hatcher"
"M.J.Bryant"
"J.V.Knichal"
"P.R.Raithby"
"M.A.Halcrow"
"R.Kulmaczewski"
"K.J.Gagnon"
"S.J.Teat"
_chemical_name_systematic
;
bis[2,6-bis(3-methyl-1H-pyrazol-1-yl)pyrazine]-iron(ii) diperchlorate
;
_cell_volume   1525.643
_exptl_crystal_colour 'yellow'
_exptl_crystal_density_diffrn 1.601
_exptl_crystal_description 'octahedral'
_diffrn_ambient_temperature 190
_diffrn_special_details
;
twin

;
#These two values have been output from a single CSD field.
_refine_ls_R_factor_gt 0.0595
_refine_ls_wR_factor_gt 0.0595
_symmetry_cell_setting tetragonal
_symmetry_space_group_name_H-M 'I -4'
_symmetry_Int_Tables_number 82
loop_
_symmetry_equiv_pos_site_id
_symmetry_equiv_pos_as_xyz
1 x,y,z
2 y,-x,-z
3 -x,-y,z
4 -y,x,-z
5 1/2+x,1/2+y,1/2+z
6 1/2+y,1/2-x,1/2-z
7 1/2-x,1/2-y,1/2+z
8 1/2-y,1/2+x,1/2-z
_cell_length_a 9.3178(6)
_cell_length_b 9.3178(6)
_cell_length_c 17.5722(18)
_cell_angle_alpha 90
_cell_angle_beta 90
_cell_angle_gamma 90
_cell_formula_units_Z 2
loop_
_atom_type_symbol
_atom_type_radius_bond
C 0.68
H 0.23
Cl 0.99
Fe 1.52
N 0.68
O 0.68
loop_
_atom_site_label
_atom_site_type_symbol
_atom_site_fract_x
_atom_site_fract_y
_atom_site_fract_z
Fe1 Fe 0.50000 1.00000 0.25000
N1 N 0.50000 1.00000 0.3704(4)
N2 N 0.50000 1.00000 0.5257(4)
C1 C 0.5907(12) 0.9197(12) 0.4092(4)
C2 C 0.7913(13) 0.7475(12) 0.3809(5)
H1 H 0.81610 0.71490 0.43040
N3 N 0.6855(9) 0.8423(9) 0.3622(4)
C3 C 0.5911(12) 0.9189(13) 0.4879(4)
H2 H 0.65710 0.85980 0.51460
C4 C 0.8537(11) 0.7094(12) 0.3141(6)
H3 H 0.93480 0.64880 0.30790
N4 N 0.6726(9) 0.8590(9) 0.2847(4)
C5 C 0.7746(9) 0.7773(9) 0.2556(7)
C6 C 0.7950(13) 0.7633(13) 0.1709(6)
H4 H 0.83480 0.85290 0.15060
H5 H 0.70220 0.74400 0.14670
H6 H 0.86120 0.68410 0.16020
Cl1 Cl 1.00000 1.00000 0.50000
O1 O 0.8914(9) 1.0673(8) 0.4539(5)
Cl2 Cl 0.50000 0.50000 0.50000
O2 O 0.537(5) 0.598(3) 0.4596(19)
C1B C 0.4093(12) 1.0803(12) 0.4092(4)
C2B C 0.2087(13) 1.2525(12) 0.3809(5)
H1B H 0.18390 1.28510 0.43040
N3B N 0.3145(9) 1.1577(9) 0.3622(4)
C3B C 0.4089(12) 1.0811(13) 0.4879(4)
H2B H 0.34290 1.14020 0.51460
C4B C 0.1463(11) 1.2906(12) 0.3141(6)
H3B H 0.06520 1.35120 0.30790
N4B N 0.3274(9) 1.1410(9) 0.2847(4)
C5B C 0.2254(9) 1.2227(9) 0.2556(7)
C6B C 0.2050(13) 1.2367(13) 0.1709(6)
H4B H 0.16520 1.14710 0.15060
H5B H 0.29780 1.25600 0.14670
H6B H 0.13880 1.31590 0.16020
N1E N 0.50000 1.00000 0.1296(4)
N2E N 0.50000 1.00000 -0.0257(4)
C1E C 0.4197(12) 0.9093(12) 0.0908(4)
C2E C 0.2475(13) 0.7087(12) 0.1191(5)
H1E H 0.21490 0.68390 0.06960
N3E N 0.3423(9) 0.8145(9) 0.1378(4)
C3E C 0.4189(12) 0.9089(13) 0.0121(4)
H2E H 0.35980 0.84290 -0.01460
C4E C 0.2094(11) 0.6463(12) 0.1859(6)
H3E H 0.14880 0.56520 0.19210
N4E N 0.3590(9) 0.8274(9) 0.2153(4)
C5E C 0.2773(9) 0.7254(9) 0.2444(7)
C6E C 0.2633(13) 0.7050(13) 0.3291(6)
H4E H 0.35290 0.66520 0.34940
H5E H 0.24400 0.79780 0.35330
H6E H 0.18410 0.63880 0.33980
C1G C 0.5803(12) 1.0907(12) 0.0908(4)
C2G C 0.7525(13) 1.2913(12) 0.1191(5)
H1G H 0.78510 1.31610 0.06960
N3G N 0.6577(9) 1.1855(9) 0.1378(4)
C3G C 0.5811(12) 1.0911(13) 0.0121(4)
H2G H 0.64020 1.15710 -0.01460
C4G C 0.7906(11) 1.3537(12) 0.1859(6)
H3G H 0.85120 1.43480 0.19210
N4G N 0.6410(9) 1.1726(9) 0.2153(4)
C5G C 0.7227(9) 1.2746(9) 0.2444(7)
C6G C 0.7367(13) 1.2950(13) 0.3291(6)
H4G H 0.64710 1.33480 0.34940
H5G H 0.75600 1.20220 0.35330
H6G H 0.81590 1.36120 0.33980
O1A O 1.0673(9) 1.1086(8) 0.5461(5)
O1B O 1.1086(9) 0.9327(8) 0.4539(5)
O1C O 0.9327(9) 0.8914(8) 0.5461(5)
O2A O 0.598(5) 0.463(3) 0.5404(19)
O2B O 0.463(5) 0.402(3) 0.4596(19)
O2C O 0.402(5) 0.537(3) 0.5404(19)
#END
