
#######################################################################
#
#                 Cambridge Crystallographic Data Centre
#                                CCDC
#
#######################################################################
#
# If this CIF has been generated from an entry in the Cambridge
# Structural Database, then it will include bibliographic, chemical,
# crystal, experimental, refinement or atomic coordinate data resulting
# from the CCDC's data processing and validation procedures.
#
#######################################################################

data_CSD_CIF_JAFBUO20
_audit_creation_date 2017-10-27
_audit_creation_method CSD-ConQuest-V1
_database_code_CSD JAFBUO20
_database_code_depnum_ccdc_archive 'CCDC 1446453'
_chemical_formula_sum 'C24 H24 Cl2 Fe1 N12 O8'
_chemical_formula_moiety
;
C24 H24 Fe1 N12 2+,2(Cl1 O4 1-)
;
_journal_coden_Cambridge 2031
_journal_volume 2
_journal_year 2016
_journal_page_first 9
_journal_name_full 'Magnetochem. '
loop_
_publ_author_name
"H.J.Shepherd"
"George Tonge"
"L.E.Hatcher"
"M.J.Bryant"
"J.V.Knichal"
"P.R.Raithby"
"M.A.Halcrow"
"R.Kulmaczewski"
"K.J.Gagnon"
"S.J.Teat"
_chemical_name_systematic
;
bis[2,6-bis(3-methyl-1H-pyrazol-1-yl)pyrazine]-iron(ii) diperchlorate
;
_cell_volume   1479.550
_exptl_crystal_colour 'brown'
_exptl_crystal_density_diffrn 1.65
_exptl_crystal_description 'octahedral'
_diffrn_ambient_temperature 140
_diffrn_special_details
;
twin

;
#These two values have been output from a single CSD field.
_refine_ls_R_factor_gt 0.0465
_refine_ls_wR_factor_gt 0.0465
_symmetry_cell_setting tetragonal
_symmetry_space_group_name_H-M 'I -4'
_symmetry_Int_Tables_number 82
loop_
_symmetry_equiv_pos_site_id
_symmetry_equiv_pos_as_xyz
1 x,y,z
2 y,-x,-z
3 -x,-y,z
4 -y,x,-z
5 1/2+x,1/2+y,1/2+z
6 1/2+y,1/2-x,1/2-z
7 1/2-x,1/2-y,1/2+z
8 1/2-y,1/2+x,1/2-z
_cell_length_a 9.1442(5)
_cell_length_b 9.1442(5)
_cell_length_c 17.6945(13)
_cell_angle_alpha 90
_cell_angle_beta 90
_cell_angle_gamma 90
_cell_formula_units_Z 2
loop_
_atom_type_symbol
_atom_type_radius_bond
C 0.68
H 0.23
Cl 0.99
Fe 1.52
N 0.68
O 0.68
loop_
_atom_site_label
_atom_site_type_symbol
_atom_site_fract_x
_atom_site_fract_y
_atom_site_fract_z
Fe1 Fe 0.50000 1.00000 0.25000
N1 N 0.50000 1.00000 0.3600(3)
N2 N 0.50000 1.00000 0.5150(3)
C1 C 0.5982(8) 0.9211(8) 0.3984(3)
C2 C 0.8123(11) 0.766(1) 0.3659(6)
H1 H 0.84670 0.73770 0.41440
N3 N 0.6937(7) 0.8473(7) 0.3507(3)
C3 C 0.5964(10) 0.9194(9) 0.4771(4)
H2 H 0.66440 0.86030 0.50390
C4 C 0.8743(9) 0.7318(8) 0.2969(5)
H3 H 0.95980 0.67510 0.28860
N4 N 0.6770(7) 0.8710(6) 0.2734(3)
C5 C 0.7858(7) 0.7976(8) 0.2412(6)
C6 C 0.8070(11) 0.7932(13) 0.1573(5)
H4 H 0.82270 0.89260 0.13830
H5 H 0.71990 0.75130 0.13340
H6 H 0.89240 0.73270 0.14530
Cl1 Cl 1.00000 1.00000 0.50000
O1 O 0.8914(8) 1.0705(7) 0.4534(3)
Cl2 Cl 0.50000 0.50000 0.50000
O2 O 0.5987(9) 0.5816(7) 0.4541(4)
C1B C 0.4018(8) 1.0789(8) 0.3984(3)
C2B C 0.1877(11) 1.234(1) 0.3659(6)
H1B H 0.15330 1.26230 0.41440
N3B N 0.3063(7) 1.1527(7) 0.3507(3)
C3B C 0.4036(10) 1.0806(9) 0.4771(4)
H2B H 0.33560 1.13970 0.50390
C4B C 0.1257(9) 1.2682(8) 0.2969(5)
H3B H 0.04020 1.32490 0.28860
N4B N 0.3230(7) 1.1290(6) 0.2734(3)
C5B C 0.2142(7) 1.2024(8) 0.2412(6)
C6B C 0.1930(11) 1.2068(13) 0.1573(5)
H4B H 0.17730 1.10740 0.13830
H5B H 0.28010 1.24870 0.13340
H6B H 0.10760 1.26730 0.14530
N1E N 0.50000 1.00000 0.1400(3)
N2E N 0.50000 1.00000 -0.0150(3)
C1E C 0.4211(8) 0.9018(8) 0.1016(3)
C2E C 0.2660(11) 0.6877(10) 0.1341(6)
H1E H 0.23770 0.65330 0.08560
N3E N 0.3473(7) 0.8063(7) 0.1493(3)
C3E C 0.4194(10) 0.9036(9) 0.0229(4)
H2E H 0.36030 0.83560 -0.00390
C4E C 0.2318(9) 0.6257(8) 0.2031(5)
H3E H 0.17510 0.54020 0.21140
N4E N 0.3710(7) 0.8230(6) 0.2266(3)
C5E C 0.2976(7) 0.7142(8) 0.2588(6)
C6E C 0.2932(11) 0.6930(13) 0.3427(5)
H4E H 0.39260 0.67730 0.36170
H5E H 0.25130 0.78010 0.36660
H6E H 0.23270 0.60760 0.35470
C1G C 0.5789(8) 1.0982(8) 0.1016(3)
C2G C 0.7340(11) 1.3123(10) 0.1341(6)
H1G H 0.76230 1.34670 0.08560
N3G N 0.6527(7) 1.1937(7) 0.1493(3)
C3G C 0.5806(10) 1.0964(9) 0.0229(4)
H2G H 0.63970 1.16440 -0.00390
C4G C 0.7682(9) 1.3743(8) 0.2031(5)
H3G H 0.82490 1.45980 0.21140
N4G N 0.6290(7) 1.1770(6) 0.2266(3)
C5G C 0.7024(7) 1.2858(8) 0.2588(6)
C6G C 0.7068(11) 1.3070(13) 0.3427(5)
H4G H 0.60740 1.32270 0.36170
H5G H 0.74870 1.21990 0.36660
H6G H 0.76730 1.39240 0.35470
O1A O 1.0705(8) 1.1086(7) 0.5466(3)
O1B O 1.1086(8) 0.9295(7) 0.4534(3)
O1C O 0.9295(8) 0.8914(7) 0.5466(3)
O2A O 0.5816(9) 0.4013(7) 0.5459(4)
O2B O 0.4013(9) 0.4184(7) 0.4541(4)
O2C O 0.4184(9) 0.5987(7) 0.5459(4)
#END
