
#######################################################################
#
#                 Cambridge Crystallographic Data Centre
#                                CCDC
#
#######################################################################
#
# If this CIF has been generated from an entry in the Cambridge
# Structural Database, then it will include bibliographic, chemical,
# crystal, experimental, refinement or atomic coordinate data resulting
# from the CCDC's data processing and validation procedures.
#
#######################################################################

data_CSD_CIF_JAFBUO11
_audit_creation_date 2017-10-27
_audit_creation_method CSD-ConQuest-V1
_database_code_CSD JAFBUO11
_database_code_depnum_ccdc_archive 'CCDC 1446444'
_chemical_formula_sum 'C24 H24 Cl2 Fe1 N12 O8'
_chemical_formula_moiety
;
C24 H24 Fe1 N12 2+,2(Cl1 O4 1-)
;
_journal_coden_Cambridge 2031
_journal_volume 2
_journal_year 2016
_journal_page_first 9
_journal_name_full 'Magnetochem. '
loop_
_publ_author_name
"H.J.Shepherd"
"George Tonge"
"L.E.Hatcher"
"M.J.Bryant"
"J.V.Knichal"
"P.R.Raithby"
"M.A.Halcrow"
"R.Kulmaczewski"
"K.J.Gagnon"
"S.J.Teat"
_chemical_name_systematic
;
bis[2,6-bis(3-methyl-1H-pyrazol-1-yl)pyrazine]-iron(ii) diperchlorate
;
_cell_volume   1538.504
_exptl_crystal_colour 'yellow'
_exptl_crystal_density_diffrn 1.587
_exptl_crystal_description 'octahedral'
_diffrn_ambient_temperature 230
_diffrn_special_details
;
twin

;
#These two values have been output from a single CSD field.
_refine_ls_R_factor_gt 0.0528
_refine_ls_wR_factor_gt 0.0528
_symmetry_cell_setting tetragonal
_symmetry_space_group_name_H-M 'I -4'
_symmetry_Int_Tables_number 82
loop_
_symmetry_equiv_pos_site_id
_symmetry_equiv_pos_as_xyz
1 x,y,z
2 y,-x,-z
3 -x,-y,z
4 -y,x,-z
5 1/2+x,1/2+y,1/2+z
6 1/2+y,1/2-x,1/2-z
7 1/2-x,1/2-y,1/2+z
8 1/2-y,1/2+x,1/2-z
_cell_length_a 9.3608(5)
_cell_length_b 9.3608(5)
_cell_length_c 17.5579(16)
_cell_angle_alpha 90
_cell_angle_beta 90
_cell_angle_gamma 90
_cell_formula_units_Z 2
loop_
_atom_type_symbol
_atom_type_radius_bond
C 0.68
H 0.23
Cl 0.99
Fe 1.52
N 0.68
O 0.68
loop_
_atom_site_label
_atom_site_type_symbol
_atom_site_fract_x
_atom_site_fract_y
_atom_site_fract_z
Fe1 Fe 0.50000 1.00000 0.25000
N1 N 0.50000 1.00000 0.3714(3)
N2 N 0.50000 1.00000 0.5275(4)
C1 C 0.5901(11) 0.9180(11) 0.4108(4)
C2 C 0.7855(13) 0.7426(12) 0.3815(4)
H1 H 0.80990 0.70980 0.43040
N3 N 0.6827(8) 0.8397(8) 0.3640(3)
C3 C 0.5909(11) 0.9192(12) 0.4892(4)
H2 H 0.65660 0.86190 0.51580
C4 C 0.8456(10) 0.7027(10) 0.3154(5)
H3 H 0.92380 0.64080 0.30920
N4 N 0.6682(9) 0.8539(9) 0.2864(3)
C5 C 0.7695(8) 0.7707(8) 0.2580(5)
C6 C 0.7875(13) 0.7565(13) 0.1725(5)
H4 H 0.82800 0.84390 0.15220
H5 H 0.69510 0.73930 0.14920
H6 H 0.85080 0.67710 0.16150
Cl1 Cl 1.00000 1.00000 0.50000
O1 O 0.8912(9) 1.0669(7) 0.4554(5)
Cl2 Cl 0.50000 0.50000 0.50000
O2 O 0.472(2) 0.6143(19) 0.4622(15)
C1B C 0.4099(11) 1.0820(11) 0.4108(4)
C2B C 0.2145(13) 1.2574(12) 0.3815(4)
H1B H 0.19010 1.29020 0.43040
N3B N 0.3173(8) 1.1603(8) 0.3640(3)
C3B C 0.4091(11) 1.0808(12) 0.4892(4)
H2B H 0.34340 1.13810 0.51580
C4B C 0.1544(10) 1.2973(10) 0.3154(5)
H3B H 0.07620 1.35920 0.30920
N4B N 0.3318(9) 1.1461(9) 0.2864(3)
C5B C 0.2305(8) 1.2293(8) 0.2580(5)
C6B C 0.2125(13) 1.2435(13) 0.1725(5)
H4B H 0.17200 1.15610 0.15220
H5B H 0.30490 1.26070 0.14920
H6B H 0.14920 1.32290 0.16150
N1E N 0.50000 1.00000 0.1286(3)
N2E N 0.50000 1.00000 -0.0275(4)
C1E C 0.4180(11) 0.9099(11) 0.0892(4)
C2E C 0.2426(13) 0.7145(12) 0.1185(4)
H1E H 0.20980 0.69010 0.06960
N3E N 0.3397(8) 0.8173(8) 0.1360(3)
C3E C 0.4192(11) 0.9091(12) 0.0108(4)
H2E H 0.36190 0.84340 -0.01580
C4E C 0.2027(10) 0.6544(10) 0.1846(5)
H3E H 0.14080 0.57620 0.19080
N4E N 0.3539(9) 0.8318(9) 0.2136(3)
C5E C 0.2707(8) 0.7305(8) 0.2420(5)
C6E C 0.2565(13) 0.7125(13) 0.3275(5)
H4E H 0.34390 0.67200 0.34780
H5E H 0.23930 0.80490 0.35080
H6E H 0.17710 0.64920 0.33850
C1G C 0.5820(11) 1.0901(11) 0.0892(4)
C2G C 0.7574(13) 1.2855(12) 0.1185(4)
H1G H 0.79020 1.30990 0.06960
N3G N 0.6603(8) 1.1827(8) 0.1360(3)
C3G C 0.5808(11) 1.0909(12) 0.0108(4)
H2G H 0.63810 1.15660 -0.01580
C4G C 0.7973(10) 1.3456(10) 0.1846(5)
H3G H 0.85920 1.42380 0.19080
N4G N 0.6461(9) 1.1682(9) 0.2136(3)
C5G C 0.7293(8) 1.2695(8) 0.2420(5)
C6G C 0.7435(13) 1.2875(13) 0.3275(5)
H4G H 0.65610 1.32800 0.34780
H5G H 0.76070 1.19510 0.35080
H6G H 0.82290 1.35080 0.33850
O1A O 1.0669(9) 1.1088(7) 0.5446(5)
O1B O 1.1088(9) 0.9331(7) 0.4554(5)
O1C O 0.9331(9) 0.8912(7) 0.5446(5)
O2A O 0.6143(20) 0.5280(19) 0.5378(15)
O2B O 0.528(2) 0.3857(19) 0.4622(15)
O2C O 0.3857(20) 0.4720(19) 0.5378(15)
#END
