
#######################################################################
#
#                 Cambridge Crystallographic Data Centre
#                                CCDC
#
#######################################################################
#
# If this CIF has been generated from an entry in the Cambridge
# Structural Database, then it will include bibliographic, chemical,
# crystal, experimental, refinement or atomic coordinate data resulting
# from the CCDC's data processing and validation procedures.
#
#######################################################################

data_CSD_CIF_JAFBUO05
_audit_creation_date 2017-10-27
_audit_creation_method CSD-ConQuest-V1
_database_code_CSD JAFBUO05
_database_code_depnum_ccdc_archive 'CCDC 1446438'
_chemical_formula_sum 'C24 H24 Cl2 Fe1 N12 O8'
_chemical_formula_moiety
;
C24 H24 Fe1 N12 2+,2(Cl1 O4 1-)
;
_journal_coden_Cambridge 2031
_journal_volume 2
_journal_year 2016
_journal_page_first 9
_journal_name_full 'Magnetochem. '
loop_
_publ_author_name
"H.J.Shepherd"
"George Tonge"
"L.E.Hatcher"
"M.J.Bryant"
"J.V.Knichal"
"P.R.Raithby"
"M.A.Halcrow"
"R.Kulmaczewski"
"K.J.Gagnon"
"S.J.Teat"
_chemical_name_systematic
;
bis(2,6-bis(3-methyl-1H-pyrazol-1-yl)pyrazine)-iron(ii) diperchlorate
;
_cell_volume   1377.531
_exptl_crystal_colour 'brown'
_exptl_crystal_density_diffrn 1.773
_exptl_crystal_description 'octahedral'
_diffrn_ambient_temperature 298
_diffrn_ambient_pressure 1603000.0
_diffrn_radiation_probe x-ray
_diffrn_source synchrotron
_diffrn_special_details
;
twin

;
#These two values have been output from a single CSD field.
_refine_ls_R_factor_gt 0.0697
_refine_ls_wR_factor_gt 0.0697
_symmetry_cell_setting tetragonal
_symmetry_space_group_name_H-M 'I -4'
_symmetry_Int_Tables_number 82
loop_
_symmetry_equiv_pos_site_id
_symmetry_equiv_pos_as_xyz
1 x,y,z
2 y,-x,-z
3 -x,-y,z
4 -y,x,-z
5 1/2+x,1/2+y,1/2+z
6 1/2+y,1/2-x,1/2-z
7 1/2-x,1/2-y,1/2+z
8 1/2-y,1/2+x,1/2-z
_cell_length_a 8.8923(10)
_cell_length_b 8.8923(10)
_cell_length_c 17.421(2)
_cell_angle_alpha 90
_cell_angle_beta 90
_cell_angle_gamma 90
_cell_formula_units_Z 2
loop_
_atom_type_symbol
_atom_type_radius_bond
C 0.68
H 0.23
Cl 0.99
Fe 1.52
N 0.68
O 0.68
loop_
_atom_site_label
_atom_site_type_symbol
_atom_site_fract_x
_atom_site_fract_y
_atom_site_fract_z
Fe1 Fe 0.50000 0.50000 0.50000
N1 N 0.50000 0.50000 0.6095(10)
N2 N 0.50000 0.50000 0.7673(10)
C1 C 0.820(4) 0.743(3) 0.6150(16)
H1 H 0.85520 0.77440 0.66260
N3 N 0.698(3) 0.656(3) 0.6020(11)
C2 C 0.596(4) 0.581(3) 0.6499(10)
N4 N 0.688(3) 0.622(3) 0.5225(10)
C3 C 0.880(4) 0.775(3) 0.5469(14)
H2 H 0.96870 0.82770 0.53880
C4 C 0.789(3) 0.718(3) 0.4914(17)
C5 C 0.591(4) 0.583(3) 0.7281(11)
H3 H 0.65620 0.64680 0.75430
C6 C 0.811(4) 0.710(5) 0.4043(14)
H4 H 0.76250 0.79440 0.38060
H5 H 0.76650 0.61840 0.38530
H6 H 0.91600 0.71080 0.39240
Cl1 Cl 0.50000 0.00000 0.25000
O1 O 0.429(3) 0.107(3) 0.2961(12)
Cl2 Cl 0.50000 0.00000 0.75000
O2 O 0.396(3) 0.084(3) 0.7042(13)
C1B C 0.180(4) 0.257(3) 0.6150(16)
H1B H 0.14480 0.22560 0.66260
N3B N 0.302(3) 0.344(3) 0.6020(11)
C2B C 0.404(4) 0.419(3) 0.6499(10)
N4B N 0.312(3) 0.378(3) 0.5225(10)
C3B C 0.120(4) 0.225(3) 0.5469(14)
H2B H 0.03130 0.17230 0.53880
C4B C 0.211(3) 0.282(3) 0.4914(17)
C5B C 0.409(4) 0.417(3) 0.7281(11)
H3B H 0.34380 0.35320 0.75430
C6B C 0.189(4) 0.290(5) 0.4043(14)
H4B H 0.23750 0.20560 0.38060
H5B H 0.23350 0.38160 0.38530
H6B H 0.08400 0.28920 0.39240
N1A N 0.50000 0.50000 0.3905(10)
N2A N 0.50000 0.50000 0.2327(10)
C1A C 0.743(4) 0.180(3) 0.3850(16)
H1A H 0.77440 0.14480 0.33740
N3A N 0.656(3) 0.302(3) 0.3980(11)
C2A C 0.581(4) 0.404(3) 0.3501(10)
N4A N 0.622(3) 0.312(3) 0.4775(10)
C3A C 0.775(4) 0.120(3) 0.4531(14)
H2A H 0.82770 0.03130 0.46120
C4A C 0.718(3) 0.211(3) 0.5086(17)
C5A C 0.583(4) 0.409(3) 0.2719(11)
H3A H 0.64680 0.34380 0.24570
C6A C 0.710(4) 0.189(5) 0.5957(14)
H4A H 0.79440 0.23750 0.61940
H5A H 0.61840 0.23350 0.61470
H6A H 0.71080 0.08400 0.60760
C1C C 0.257(4) 0.820(3) 0.3850(16)
H1C H 0.22560 0.85520 0.33740
N3C N 0.344(3) 0.698(3) 0.3980(11)
C2C C 0.419(4) 0.596(3) 0.3501(10)
N4C N 0.378(3) 0.688(3) 0.4775(10)
C3C C 0.225(4) 0.880(3) 0.4531(14)
H2C H 0.17230 0.96870 0.46120
C4C C 0.282(3) 0.789(3) 0.5086(17)
C5C C 0.417(4) 0.591(3) 0.2719(11)
H3C H 0.35320 0.65620 0.24570
C6C C 0.290(4) 0.811(5) 0.5957(14)
H4C H 0.20560 0.76250 0.61940
H5C H 0.38160 0.76650 0.61470
H6C H 0.28920 0.91600 0.60760
O1B O 0.571(3) -0.107(3) 0.2961(12)
O1E O 0.607(3) 0.071(3) 0.2039(12)
O1G O 0.393(3) -0.071(3) 0.2039(12)
O2B O 0.604(3) -0.084(3) 0.7042(13)
O2E O 0.584(3) 0.104(3) 0.7958(13)
O2G O 0.416(3) -0.104(3) 0.7958(13)
#END
