
#######################################################################
#
#                 Cambridge Crystallographic Data Centre
#                                CCDC
#
#######################################################################
#
# If this CIF has been generated from an entry in the Cambridge
# Structural Database, then it will include bibliographic, chemical,
# crystal, experimental, refinement or atomic coordinate data resulting
# from the CCDC's data processing and validation procedures.
#
#######################################################################

data_CSD_CIF_JAFBUO28
_audit_creation_date 2017-10-27
_audit_creation_method CSD-ConQuest-V1
_database_code_CSD JAFBUO28
_database_code_depnum_ccdc_archive 'CCDC 1446436'
_chemical_formula_sum 'C24 H24 Cl2 Fe1 N12 O8'
_chemical_formula_moiety
;
C24 H24 Fe1 N12 2+,2(Cl1 O4 1-)
;
_journal_coden_Cambridge 2031
_journal_volume 2
_journal_year 2016
_journal_page_first 9
_journal_name_full 'Magnetochem. '
loop_
_publ_author_name
"H.J.Shepherd"
"George Tonge"
"L.E.Hatcher"
"M.J.Bryant"
"J.V.Knichal"
"P.R.Raithby"
"M.A.Halcrow"
"R.Kulmaczewski"
"K.J.Gagnon"
"S.J.Teat"
_chemical_name_systematic
;
bis(2,6-bis(3-methyl-1H-pyrazol-1-yl)pyrazine)-iron(ii) diperchlorate
;
_cell_volume   1417.112
_exptl_crystal_colour 'brown'
_exptl_crystal_density_diffrn 1.723
_exptl_crystal_description 'octahedral'
_diffrn_ambient_temperature 298
_diffrn_ambient_pressure 986000.0
_diffrn_radiation_probe x-ray
_diffrn_source synchrotron
_diffrn_special_details
;
twin

;
#These two values have been output from a single CSD field.
_refine_ls_R_factor_gt 0.0401
_refine_ls_wR_factor_gt 0.0401
_symmetry_cell_setting tetragonal
_symmetry_space_group_name_H-M 'I -4'
_symmetry_Int_Tables_number 82
loop_
_symmetry_equiv_pos_site_id
_symmetry_equiv_pos_as_xyz
1 x,y,z
2 y,-x,-z
3 -x,-y,z
4 -y,x,-z
5 1/2+x,1/2+y,1/2+z
6 1/2+y,1/2-x,1/2-z
7 1/2-x,1/2-y,1/2+z
8 1/2-y,1/2+x,1/2-z
_cell_length_a 9.0084(8)
_cell_length_b 9.0084(8)
_cell_length_c 17.4626(11)
_cell_angle_alpha 90
_cell_angle_beta 90
_cell_angle_gamma 90
_cell_formula_units_Z 2
loop_
_atom_type_symbol
_atom_type_radius_bond
C 0.68
H 0.23
Cl 0.99
Fe 1.52
N 0.68
O 0.68
loop_
_atom_site_label
_atom_site_type_symbol
_atom_site_fract_x
_atom_site_fract_y
_atom_site_fract_z
Fe1 Fe 0.00000 0.00000 0.00000
N1 N 0.00000 0.00000 0.1126(4)
N2 N 0.00000 0.00000 0.2698(5)
C1 C 0.3135(16) 0.2403(15) 0.1204(7)
H1 H 0.34690 0.26920 0.16850
N3 N 0.1958(11) 0.1573(12) 0.1051(4)
C2 C 0.0988(13) 0.0785(13) 0.1522(5)
N4 N 0.1804(10) 0.131(1) 0.0263(4)
C3 C 0.3767(14) 0.2755(14) 0.0506(6)
H2 H 0.46000 0.33440 0.04230
C4 C 0.2915(13) 0.2058(13) -0.0039(9)
C5 C 0.0951(14) 0.0827(13) 0.2319(5)
H3 H 0.16020 0.14420 0.25830
C6 C 0.3095(17) 0.2129(17) -0.0913(6)
H4 H 0.30120 0.11470 -0.11230
H5 H 0.40510 0.25330 -0.10360
H6 H 0.23330 0.27500 -0.11250
Cl1 Cl 0.50000 0.00000 0.25000
O1 O 0.3891(12) -0.0718(10) 0.2036(5)
Cl2 Cl 0.00000 0.50000 0.25000
O2 O 0.1010(15) 0.4215(14) 0.2042(7)
C1B C -0.3135(16) -0.2403(15) 0.1204(7)
H1B H -0.34690 -0.26920 0.16850
N3B N -0.1958(11) -0.1573(12) 0.1051(4)
C2B C -0.0988(13) -0.0785(13) 0.1522(5)
N4B N -0.1804(10) -0.131(1) 0.0263(4)
C3B C -0.3767(14) -0.2755(14) 0.0506(6)
H2B H -0.46000 -0.33440 0.04230
C4B C -0.2915(13) -0.2058(13) -0.0039(9)
C5B C -0.0951(14) -0.0827(13) 0.2319(5)
H3B H -0.16020 -0.14420 0.25830
C6B C -0.3095(17) -0.2129(17) -0.0913(6)
H4B H -0.30120 -0.11470 -0.11230
H5B H -0.40510 -0.25330 -0.10360
H6B H -0.23330 -0.27500 -0.11250
N1A N 0.00000 0.00000 -0.1126(4)
N2A N 0.00000 0.00000 -0.2698(5)
C1A C 0.2403(16) -0.3135(15) -0.1204(7)
H1A H 0.26920 -0.34690 -0.16850
N3A N 0.1573(11) -0.1958(12) -0.1051(4)
C2A C 0.0785(13) -0.0988(13) -0.1522(5)
N4A N 0.131(1) -0.1804(10) -0.0263(4)
C3A C 0.2755(14) -0.3767(14) -0.0506(6)
H2A H 0.33440 -0.46000 -0.04230
C4A C 0.2058(13) -0.2915(13) 0.0039(9)
C5A C 0.0827(14) -0.0951(13) -0.2319(5)
H3A H 0.14420 -0.16020 -0.25830
C6A C 0.2129(17) -0.3095(17) 0.0913(6)
H4A H 0.11470 -0.30120 0.11230
H5A H 0.25330 -0.40510 0.10360
H6A H 0.27500 -0.23330 0.11250
C1C C -0.2403(16) 0.3135(15) -0.1204(7)
H1C H -0.26920 0.34690 -0.16850
N3C N -0.1573(11) 0.1958(12) -0.1051(4)
C2C C -0.0785(13) 0.0988(13) -0.1522(5)
N4C N -0.131(1) 0.1804(10) -0.0263(4)
C3C C -0.2755(14) 0.3767(14) -0.0506(6)
H2C H -0.33440 0.46000 -0.04230
C4C C -0.2058(13) 0.2915(13) 0.0039(9)
C5C C -0.0827(14) 0.0951(13) -0.2319(5)
H3C H -0.14420 0.16020 -0.25830
C6C C -0.2129(17) 0.3095(17) 0.0913(6)
H4C H -0.11470 0.30120 0.11230
H5C H -0.25330 0.40510 0.10360
H6C H -0.27500 0.23330 0.11250
O1B O 0.6109(12) 0.0718(10) 0.2036(5)
O1E O 0.4282(12) 0.1109(10) 0.2964(5)
O1G O 0.5718(12) -0.1109(10) 0.2964(5)
O2B O -0.1010(15) 0.5785(14) 0.2042(7)
O2E O -0.0785(15) 0.3990(14) 0.2958(7)
O2G O 0.0785(15) 0.6010(14) 0.2958(7)
#END
