
#######################################################################
#
#                 Cambridge Crystallographic Data Centre
#                                CCDC
#
#######################################################################
#
# If this CIF has been generated from an entry in the Cambridge
# Structural Database, then it will include bibliographic, chemical,
# crystal, experimental, refinement or atomic coordinate data resulting
# from the CCDC's data processing and validation procedures.
#
#######################################################################

data_CSD_CIF_JAFBUO18
_audit_creation_date 2017-10-27
_audit_creation_method CSD-ConQuest-V1
_database_code_CSD JAFBUO18
_database_code_depnum_ccdc_archive 'CCDC 1446451'
_chemical_formula_sum 'C24 H24 Cl2 Fe1 N12 O8'
_chemical_formula_moiety
;
C24 H24 Fe1 N12 2+,2(Cl1 O4 1-)
;
_journal_coden_Cambridge 2031
_journal_volume 2
_journal_year 2016
_journal_page_first 9
_journal_name_full 'Magnetochem. '
loop_
_publ_author_name
"H.J.Shepherd"
"George Tonge"
"L.E.Hatcher"
"M.J.Bryant"
"J.V.Knichal"
"P.R.Raithby"
"M.A.Halcrow"
"R.Kulmaczewski"
"K.J.Gagnon"
"S.J.Teat"
_chemical_name_systematic
;
bis[2,6-bis(3-methyl-1H-pyrazol-1-yl)pyrazine]-iron(ii) diperchlorate
;
_cell_volume   1485.711
_exptl_crystal_colour 'brown'
_exptl_crystal_density_diffrn 1.644
_exptl_crystal_description 'octahedral'
_diffrn_ambient_temperature 160
_diffrn_special_details
;
twin

;
#These two values have been output from a single CSD field.
_refine_ls_R_factor_gt 0.0467
_refine_ls_wR_factor_gt 0.0467
_symmetry_cell_setting tetragonal
_symmetry_space_group_name_H-M 'I -4'
_symmetry_Int_Tables_number 82
loop_
_symmetry_equiv_pos_site_id
_symmetry_equiv_pos_as_xyz
1 x,y,z
2 y,-x,-z
3 -x,-y,z
4 -y,x,-z
5 1/2+x,1/2+y,1/2+z
6 1/2+y,1/2-x,1/2-z
7 1/2-x,1/2-y,1/2+z
8 1/2-y,1/2+x,1/2-z
_cell_length_a 9.1605(5)
_cell_length_b 9.1605(5)
_cell_length_c 17.7050(14)
_cell_angle_alpha 90
_cell_angle_beta 90
_cell_angle_gamma 90
_cell_formula_units_Z 2
loop_
_atom_type_symbol
_atom_type_radius_bond
C 0.68
H 0.23
Cl 0.99
Fe 1.52
N 0.68
O 0.68
loop_
_atom_site_label
_atom_site_type_symbol
_atom_site_fract_x
_atom_site_fract_y
_atom_site_fract_z
Fe1 Fe 0.50000 1.00000 0.25000
N1 N 0.50000 1.00000 0.3612(3)
N2 N 0.50000 1.00000 0.5160(3)
C1 C 0.5979(8) 0.9214(9) 0.3996(4)
C2 C 0.8127(11) 0.7638(9) 0.3665(6)
H1 H 0.84700 0.73410 0.41480
N3 N 0.6936(7) 0.8473(7) 0.3522(3)
C3 C 0.5962(10) 0.9203(8) 0.4776(4)
H2 H 0.66470 0.86180 0.50420
C4 C 0.8737(9) 0.7307(8) 0.2988(5)
H3 H 0.95870 0.67360 0.29050
N4 N 0.6771(7) 0.8705(6) 0.2745(3)
C5 C 0.7861(7) 0.7978(8) 0.2427(7)
C6 C 0.8067(11) 0.7924(12) 0.1589(5)
H4 H 0.81780 0.89190 0.13940
H5 H 0.72130 0.74650 0.13550
H6 H 0.89430 0.73550 0.14700
Cl1 Cl 1.00000 1.00000 0.50000
O1 O 0.8909(8) 1.0713(7) 0.4538(3)
Cl2 Cl 0.50000 0.50000 0.50000
O2 O 0.5964(9) 0.5806(7) 0.4542(4)
C1B C 0.4021(8) 1.0786(9) 0.3996(4)
C2B C 0.1873(11) 1.2362(9) 0.3665(6)
H1B H 0.15300 1.26590 0.41480
N3B N 0.3064(7) 1.1527(7) 0.3522(3)
C3B C 0.4038(10) 1.0797(8) 0.4776(4)
H2B H 0.33530 1.13820 0.50420
C4B C 0.1263(9) 1.2693(8) 0.2988(5)
H3B H 0.04130 1.32640 0.29050
N4B N 0.3229(7) 1.1295(6) 0.2745(3)
C5B C 0.2139(7) 1.2022(8) 0.2427(7)
C6B C 0.1933(11) 1.2076(12) 0.1589(5)
H4B H 0.18220 1.10810 0.13940
H5B H 0.27870 1.25350 0.13550
H6B H 0.10570 1.26450 0.14700
N1E N 0.50000 1.00000 0.1388(3)
N2E N 0.50000 1.00000 -0.0160(3)
C1E C 0.4214(8) 0.9021(9) 0.1004(4)
C2E C 0.2638(11) 0.6873(9) 0.1335(6)
H1E H 0.23410 0.65300 0.08520
N3E N 0.3473(7) 0.8064(7) 0.1478(3)
C3E C 0.4203(10) 0.9038(8) 0.0224(4)
H2E H 0.36180 0.83530 -0.00420
C4E C 0.2307(9) 0.6263(8) 0.2012(5)
H3E H 0.17360 0.54130 0.20950
N4E N 0.3705(7) 0.8229(6) 0.2255(3)
C5E C 0.2978(7) 0.7139(8) 0.2573(7)
C6E C 0.2924(11) 0.6933(12) 0.3411(5)
H4E H 0.39190 0.68220 0.36060
H5E H 0.24650 0.77870 0.36450
H6E H 0.23550 0.60570 0.35300
C1G C 0.5786(8) 1.0979(9) 0.1004(4)
C2G C 0.7362(11) 1.3127(9) 0.1335(6)
H1G H 0.76590 1.34700 0.08520
N3G N 0.6527(7) 1.1936(7) 0.1478(3)
C3G C 0.5797(10) 1.0962(8) 0.0224(4)
H2G H 0.63820 1.16470 -0.00420
C4G C 0.7693(9) 1.3737(8) 0.2012(5)
H3G H 0.82640 1.45870 0.20950
N4G N 0.6295(7) 1.1771(6) 0.2255(3)
C5G C 0.7022(7) 1.2861(8) 0.2573(7)
C6G C 0.7076(11) 1.3067(12) 0.3411(5)
H4G H 0.60810 1.31780 0.36060
H5G H 0.75350 1.22130 0.36450
H6G H 0.76450 1.39430 0.35300
O1A O 1.0713(8) 1.1091(7) 0.5462(3)
O1B O 1.1091(8) 0.9287(7) 0.4538(3)
O1C O 0.9287(8) 0.8909(7) 0.5462(3)
O2A O 0.5806(9) 0.4036(7) 0.5458(4)
O2B O 0.4036(9) 0.4194(7) 0.4542(4)
O2C O 0.4194(9) 0.5964(7) 0.5458(4)
#END
