
#######################################################################
#
#                 Cambridge Crystallographic Data Centre
#                                CCDC
#
#######################################################################
#
# If this CIF has been generated from an entry in the Cambridge
# Structural Database, then it will include bibliographic, chemical,
# crystal, experimental, refinement or atomic coordinate data resulting
# from the CCDC's data processing and validation procedures.
#
#######################################################################

data_CSD_CIF_JAFBUO26
_audit_creation_date 2017-10-27
_audit_creation_method CSD-ConQuest-V1
_database_code_CSD JAFBUO26
_database_code_depnum_ccdc_archive 'CCDC 1446434'
_chemical_formula_sum 'C24 H24 Cl2 Fe1 N12 O8'
_chemical_formula_moiety
;
C24 H24 Fe1 N12 2+,2(Cl1 O4 1-)
;
_journal_coden_Cambridge 2031
_journal_volume 2
_journal_year 2016
_journal_page_first 9
_journal_name_full 'Magnetochem. '
loop_
_publ_author_name
"H.J.Shepherd"
"George Tonge"
"L.E.Hatcher"
"M.J.Bryant"
"J.V.Knichal"
"P.R.Raithby"
"M.A.Halcrow"
"R.Kulmaczewski"
"K.J.Gagnon"
"S.J.Teat"
_chemical_name_systematic
;
bis(2,6-bis(3-methyl-1H-pyrazol-1-yl)pyrazine)-iron(ii) diperchlorate
;
_cell_volume   1481.137
_exptl_crystal_colour 'yellow'
_exptl_crystal_density_diffrn 1.649
_exptl_crystal_description 'octahedral'
_diffrn_ambient_temperature 298
_diffrn_ambient_pressure 493000.0
_diffrn_radiation_probe x-ray
_diffrn_source synchrotron
_diffrn_special_details
;
twin

;
#These two values have been output from a single CSD field.
_refine_ls_R_factor_gt 0.0525
_refine_ls_wR_factor_gt 0.0525
_symmetry_cell_setting tetragonal
_symmetry_space_group_name_H-M 'I -4'
_symmetry_Int_Tables_number 82
loop_
_symmetry_equiv_pos_site_id
_symmetry_equiv_pos_as_xyz
1 x,y,z
2 y,-x,-z
3 -x,-y,z
4 -y,x,-z
5 1/2+x,1/2+y,1/2+z
6 1/2+y,1/2-x,1/2-z
7 1/2-x,1/2-y,1/2+z
8 1/2-y,1/2+x,1/2-z
_cell_length_a 9.2226(5)
_cell_length_b 9.2226(5)
_cell_length_c 17.4136(11)
_cell_angle_alpha 90
_cell_angle_beta 90
_cell_angle_gamma 90
_cell_formula_units_Z 2
loop_
_atom_type_symbol
_atom_type_radius_bond
C 0.68
H 0.23
Cl 0.99
Fe 1.52
N 0.68
O 0.68
loop_
_atom_site_label
_atom_site_type_symbol
_atom_site_fract_x
_atom_site_fract_y
_atom_site_fract_z
Fe1 Fe -0.50000 -1.00000 -0.25000
N1 N -0.50000 -1.00000 -0.3723(4)
N2 N -0.50000 -1.00000 -0.5287(4)
C1 C -0.5936(10) -0.918(1) -0.4108(4)
C2 C -0.7902(14) -0.7435(13) -0.3816(5)
H1 H -0.81440 -0.71090 -0.43050
N3 N -0.6854(10) -0.8397(9) -0.3639(3)
C3 C -0.5929(12) -0.9200(12) -0.4896(4)
H2 H -0.65980 -0.86360 -0.51610
C4 C -0.8532(12) -0.7036(14) -0.3153(5)
H3 H -0.93270 -0.64260 -0.30930
N4 N -0.6731(9) -0.8553(9) -0.2860(4)
C5 C -0.7752(12) -0.7725(12) -0.2570(6)
C6 C -0.7950(17) -0.7583(18) -0.1719(6)
H4 H -0.84550 -0.84180 -0.15270
H5 H -0.85030 -0.67260 -0.16090
H6 H -0.70190 -0.75150 -0.14750
Cl1 Cl -1.00000 -1.00000 -0.50000
O1 O -0.8916(10) -1.0664(9) -0.4529(5)
Cl2 Cl -0.50000 -0.50000 -0.50000
O2 O -0.483(5) -0.619(4) -0.466(3)
C1B C -0.4064(10) -1.082(1) -0.4108(4)
C2B C -0.2098(14) -1.2565(13) -0.3816(5)
H1B H -0.18560 -1.28910 -0.43050
N3B N -0.3146(10) -1.1603(9) -0.3639(3)
C3B C -0.4071(12) -1.0800(12) -0.4896(4)
H2B H -0.34020 -1.13640 -0.51610
C4B C -0.1468(12) -1.2964(14) -0.3153(5)
H3B H -0.06730 -1.35740 -0.30930
N4B N -0.3269(9) -1.1447(9) -0.2860(4)
C5B C -0.2248(12) -1.2275(12) -0.2570(6)
C6B C -0.2050(17) -1.2417(18) -0.1719(6)
H4B H -0.15450 -1.15820 -0.15270
H5B H -0.14970 -1.32740 -0.16090
H6B H -0.29810 -1.24850 -0.14750
N1E N -0.50000 -1.00000 -0.1277(4)
N2E N -0.50000 -1.00000 0.0287(4)
C1E C -0.418(1) -0.9064(10) -0.0892(4)
C2E C -0.2435(14) -0.7098(13) -0.1184(5)
H1E H -0.21090 -0.68560 -0.06950
N3E N -0.3397(10) -0.8146(9) -0.1361(3)
C3E C -0.4200(12) -0.9071(12) -0.0104(4)
H2E H -0.36360 -0.84020 0.01610
C4E C -0.2036(12) -0.6468(14) -0.1847(5)
H3E H -0.14260 -0.56730 -0.19070
N4E N -0.3553(9) -0.8269(9) -0.2140(4)
C5E C -0.2725(12) -0.7248(12) -0.2430(6)
C6E C -0.2583(17) -0.7050(18) -0.3281(6)
H4E H -0.34180 -0.65450 -0.34730
H5E H -0.17260 -0.64970 -0.33910
H6E H -0.25150 -0.79810 -0.35250
C1G C -0.582(1) -1.0936(10) -0.0892(4)
C2G C -0.7565(14) -1.2902(13) -0.1184(5)
H1G H -0.78910 -1.31440 -0.06950
N3G N -0.6603(10) -1.1854(9) -0.1361(3)
C3G C -0.5800(12) -1.0929(12) -0.0104(4)
H2G H -0.63640 -1.15980 0.01610
C4G C -0.7964(12) -1.3532(14) -0.1847(5)
H3G H -0.85740 -1.43270 -0.19070
N4G N -0.6447(9) -1.1731(9) -0.2140(4)
C5G C -0.7275(12) -1.2752(12) -0.2430(6)
C6G C -0.7417(17) -1.2950(18) -0.3281(6)
H4G H -0.65820 -1.34550 -0.34730
H5G H -0.82740 -1.35030 -0.33910
H6G H -0.74850 -1.20190 -0.35250
O1A O -1.0664(10) -1.1084(9) -0.5471(5)
O1B O -1.1084(10) -0.9336(9) -0.4529(5)
O1C O -0.9336(10) -0.8916(9) -0.5471(5)
O2A O -0.619(5) -0.517(4) -0.534(3)
O2B O -0.517(5) -0.381(4) -0.466(3)
O2C O -0.381(5) -0.483(4) -0.534(3)
#END
