
#######################################################################
#
#                 Cambridge Crystallographic Data Centre
#                                CCDC
#
#######################################################################
#
# If this CIF has been generated from an entry in the Cambridge
# Structural Database, then it will include bibliographic, chemical,
# crystal, experimental, refinement or atomic coordinate data resulting
# from the CCDC's data processing and validation procedures.
#
#######################################################################

data_CSD_CIF_JAFBUO10
_audit_creation_date 2017-10-27
_audit_creation_method CSD-ConQuest-V1
_database_code_CSD JAFBUO10
_database_code_depnum_ccdc_archive 'CCDC 1446443'
_chemical_formula_sum 'C24 H24 Cl2 Fe1 N12 O8'
_chemical_formula_moiety
;
C24 H24 Fe1 N12 2+,2(Cl1 O4 1-)
;
_journal_coden_Cambridge 2031
_journal_volume 2
_journal_year 2016
_journal_page_first 9
_journal_name_full 'Magnetochem. '
loop_
_publ_author_name
"H.J.Shepherd"
"George Tonge"
"L.E.Hatcher"
"M.J.Bryant"
"J.V.Knichal"
"P.R.Raithby"
"M.A.Halcrow"
"R.Kulmaczewski"
"K.J.Gagnon"
"S.J.Teat"
_chemical_name_systematic
;
bis[2,6-bis(3-methyl-1H-pyrazol-1-yl)pyrazine]-iron(ii) diperchlorate
;
_cell_volume   1539.290
_exptl_crystal_colour 'yellow'
_exptl_crystal_density_diffrn 1.586
_exptl_crystal_description 'octahedral'
_diffrn_ambient_temperature 240
_diffrn_special_details
;
twin

;
#These two values have been output from a single CSD field.
_refine_ls_R_factor_gt 0.0542
_refine_ls_wR_factor_gt 0.0542
_symmetry_cell_setting tetragonal
_symmetry_space_group_name_H-M 'I -4'
_symmetry_Int_Tables_number 82
loop_
_symmetry_equiv_pos_site_id
_symmetry_equiv_pos_as_xyz
1 x,y,z
2 y,-x,-z
3 -x,-y,z
4 -y,x,-z
5 1/2+x,1/2+y,1/2+z
6 1/2+y,1/2-x,1/2-z
7 1/2-x,1/2-y,1/2+z
8 1/2-y,1/2+x,1/2-z
_cell_length_a 9.3625(6)
_cell_length_b 9.3625(6)
_cell_length_c 17.5605(17)
_cell_angle_alpha 90
_cell_angle_beta 90
_cell_angle_gamma 90
_cell_formula_units_Z 2
loop_
_atom_type_symbol
_atom_type_radius_bond
C 0.68
H 0.23
Cl 0.99
Fe 1.52
N 0.68
O 0.68
loop_
_atom_site_label
_atom_site_type_symbol
_atom_site_fract_x
_atom_site_fract_y
_atom_site_fract_z
Fe1 Fe 0.50000 1.00000 0.25000
N1 N 0.50000 1.00000 0.3713(3)
N2 N 0.50000 1.00000 0.5274(4)
C1 C 0.5900(12) 0.9188(11) 0.4110(4)
C2 C 0.7833(14) 0.7423(13) 0.3814(4)
H1 H 0.80730 0.71030 0.42990
N3 N 0.6821(8) 0.8404(8) 0.3642(3)
C3 C 0.5902(11) 0.9177(12) 0.4894(3)
H2 H 0.65360 0.85930 0.51570
C4 C 0.8429(11) 0.6995(11) 0.3156(5)
H3 H 0.91850 0.63600 0.30980
N4 N 0.6685(9) 0.8542(9) 0.2865(3)
C5 C 0.7688(8) 0.7693(8) 0.2578(5)
C6 C 0.7889(13) 0.7577(12) 0.1729(5)
H4 H 0.83700 0.84140 0.15440
H5 H 0.69730 0.74970 0.14860
H6 H 0.84500 0.67460 0.16150
Cl1 Cl 1.00000 1.00000 0.50000
O1 O 0.8916(9) 1.0667(8) 0.4554(5)
Cl2 Cl 0.50000 0.50000 0.50000
O2 O 0.467(2) 0.615(2) 0.4626(15)
C1B C 0.4100(12) 1.0812(11) 0.4110(4)
C2B C 0.2167(14) 1.2577(13) 0.3814(4)
H1B H 0.19270 1.28970 0.42990
N3B N 0.3179(8) 1.1596(8) 0.3642(3)
C3B C 0.4098(11) 1.0823(12) 0.4894(3)
H2B H 0.34640 1.14070 0.51570
C4B C 0.1571(11) 1.3005(11) 0.3156(5)
H3B H 0.08150 1.36400 0.30980
N4B N 0.3315(9) 1.1458(9) 0.2865(3)
C5B C 0.2312(8) 1.2307(8) 0.2578(5)
C6B C 0.2111(13) 1.2423(12) 0.1729(5)
H4B H 0.16300 1.15860 0.15440
H5B H 0.30270 1.25030 0.14860
H6B H 0.15500 1.32540 0.16150
N1E N 0.50000 1.00000 0.1287(3)
N2E N 0.50000 1.00000 -0.0274(4)
C1E C 0.4188(12) 0.9100(11) 0.0890(4)
C2E C 0.2423(14) 0.7167(13) 0.1186(4)
H1E H 0.21030 0.69270 0.07010
N3E N 0.3404(8) 0.8179(8) 0.1358(3)
C3E C 0.4177(11) 0.9098(12) 0.0106(3)
H2E H 0.35930 0.84640 -0.01570
C4E C 0.1995(11) 0.6571(11) 0.1844(5)
H3E H 0.13600 0.58150 0.19020
N4E N 0.3542(9) 0.8315(9) 0.2135(3)
C5E C 0.2693(8) 0.7312(8) 0.2422(5)
C6E C 0.2577(13) 0.7111(12) 0.3271(5)
H4E H 0.34140 0.66300 0.34560
H5E H 0.24970 0.80270 0.35140
H6E H 0.17460 0.65500 0.33850
C1G C 0.5812(12) 1.0900(11) 0.0890(4)
C2G C 0.7577(14) 1.2833(13) 0.1186(4)
H1G H 0.78970 1.30730 0.07010
N3G N 0.6596(8) 1.1821(8) 0.1358(3)
C3G C 0.5823(11) 1.0902(12) 0.0106(3)
H2G H 0.64070 1.15360 -0.01570
C4G C 0.8005(11) 1.3429(11) 0.1844(5)
H3G H 0.86400 1.41850 0.19020
N4G N 0.6458(9) 1.1685(9) 0.2135(3)
C5G C 0.7307(8) 1.2688(8) 0.2422(5)
C6G C 0.7423(13) 1.2889(12) 0.3271(5)
H4G H 0.65860 1.33700 0.34560
H5G H 0.75030 1.19730 0.35140
H6G H 0.82540 1.34500 0.33850
O1A O 1.0667(9) 1.1084(8) 0.5446(5)
O1B O 1.1084(9) 0.9333(8) 0.4554(5)
O1C O 0.9333(9) 0.8916(8) 0.5446(5)
O2A O 0.615(2) 0.533(2) 0.5374(15)
O2B O 0.533(2) 0.385(2) 0.4626(15)
O2C O 0.385(2) 0.467(2) 0.5374(15)
#END
