
#######################################################################
#
#                 Cambridge Crystallographic Data Centre
#                                CCDC
#
#######################################################################
#
# If this CIF has been generated from an entry in the Cambridge
# Structural Database, then it will include bibliographic, chemical,
# crystal, experimental, refinement or atomic coordinate data resulting
# from the CCDC's data processing and validation procedures.
#
#######################################################################

data_CSD_CIF_JAFBUO27
_audit_creation_date 2017-10-27
_audit_creation_method CSD-ConQuest-V1
_database_code_CSD JAFBUO27
_database_code_depnum_ccdc_archive 'CCDC 1446435'
_chemical_formula_sum 'C24 H24 Cl2 Fe1 N12 O8'
_chemical_formula_moiety
;
C24 H24 Fe1 N12 2+,2(Cl1 O4 1-)
;
_journal_coden_Cambridge 2031
_journal_volume 2
_journal_year 2016
_journal_page_first 9
_journal_name_full 'Magnetochem. '
loop_
_publ_author_name
"H.J.Shepherd"
"George Tonge"
"L.E.Hatcher"
"M.J.Bryant"
"J.V.Knichal"
"P.R.Raithby"
"M.A.Halcrow"
"R.Kulmaczewski"
"K.J.Gagnon"
"S.J.Teat"
_chemical_name_systematic
;
bis(2,6-bis(3-methyl-1H-pyrazol-1-yl)pyrazine)-iron(ii) diperchlorate
;
_cell_volume   1445.067
_exptl_crystal_colour 'yellow'
_exptl_crystal_density_diffrn 1.69
_exptl_crystal_description 'octahedral'
_diffrn_ambient_temperature 298
_diffrn_ambient_pressure 832000.0
_diffrn_radiation_probe x-ray
_diffrn_source synchrotron
_diffrn_special_details
;
twin

;
#These two values have been output from a single CSD field.
_refine_ls_R_factor_gt 0.0468
_refine_ls_wR_factor_gt 0.0468
_symmetry_cell_setting tetragonal
_symmetry_space_group_name_H-M 'I -4'
_symmetry_Int_Tables_number 82
loop_
_symmetry_equiv_pos_site_id
_symmetry_equiv_pos_as_xyz
1 x,y,z
2 y,-x,-z
3 -x,-y,z
4 -y,x,-z
5 1/2+x,1/2+y,1/2+z
6 1/2+y,1/2-x,1/2-z
7 1/2-x,1/2-y,1/2+z
8 1/2-y,1/2+x,1/2-z
_cell_length_a 9.1155(5)
_cell_length_b 9.1155(5)
_cell_length_c 17.3911(12)
_cell_angle_alpha 90
_cell_angle_beta 90
_cell_angle_gamma 90
_cell_formula_units_Z 2
loop_
_atom_type_symbol
_atom_type_radius_bond
C 0.68
H 0.23
Cl 0.99
Fe 1.52
N 0.68
O 0.68
loop_
_atom_site_label
_atom_site_type_symbol
_atom_site_fract_x
_atom_site_fract_y
_atom_site_fract_z
Fe1 Fe 0.50000 1.00000 0.25000
N1 N 0.50000 1.00000 0.3692(4)
N2 N 0.50000 1.00000 0.5261(4)
C1 C 0.5956(10) 0.9194(10) 0.4073(4)
C2 C 0.8036(13) 0.7522(11) 0.3778(5)
H1 H 0.83340 0.72360 0.42670
N3 N 0.6915(9) 0.8402(9) 0.3606(3)
C3 C 0.5946(12) 0.9187(11) 0.4874(4)
H2 H 0.66120 0.86030 0.51390
C4 C 0.8649(11) 0.7131(13) 0.3110(6)
H3 H 0.94560 0.65190 0.30450
N4 N 0.6774(9) 0.8643(8) 0.2817(4)
C5 C 0.7857(11) 0.7805(12) 0.2534(7)
C6 C 0.8011(17) 0.770(2) 0.1671(7)
H4 H 0.80810 0.86670 0.14560
H5 H 0.71690 0.72090 0.14610
H6 H 0.88800 0.71540 0.15460
Cl1 Cl 1.00000 1.00000 0.50000
O1 O 0.8912(8) 1.0687(8) 0.4531(4)
Cl2 Cl 0.50000 0.50000 0.50000
O2 O 0.593(3) 0.579(2) 0.4591(17)
C1B C 0.4044(10) 1.0806(10) 0.4073(4)
C2B C 0.1964(13) 1.2478(11) 0.3778(5)
H1B H 0.16660 1.27640 0.42670
N3B N 0.3085(9) 1.1598(9) 0.3606(3)
C3B C 0.4054(12) 1.0813(11) 0.4874(4)
H2B H 0.33880 1.13970 0.51390
C4B C 0.1351(11) 1.2869(13) 0.3110(6)
H3B H 0.05440 1.34810 0.30450
N4B N 0.3226(9) 1.1357(8) 0.2817(4)
C5B C 0.2143(11) 1.2195(12) 0.2534(7)
C6B C 0.1989(17) 1.230(2) 0.1671(7)
H4B H 0.19190 1.13330 0.14560
H5B H 0.28310 1.27910 0.14610
H6B H 0.11200 1.28460 0.15460
N1E N 0.50000 1.00000 0.1308(4)
N2E N 0.50000 1.00000 -0.0261(4)
C1E C 0.4194(10) 0.9044(10) 0.0927(4)
C2E C 0.2522(13) 0.6964(11) 0.1222(5)
H1E H 0.22360 0.66660 0.07330
N3E N 0.3402(9) 0.8085(9) 0.1394(3)
C3E C 0.4187(12) 0.9054(11) 0.0126(4)
H2E H 0.36030 0.83880 -0.01390
C4E C 0.2131(11) 0.6351(13) 0.1890(6)
H3E H 0.15190 0.55440 0.19550
N4E N 0.3643(9) 0.8226(8) 0.2183(4)
C5E C 0.2805(11) 0.7143(12) 0.2466(7)
C6E C 0.2700(17) 0.6989(20) 0.3329(7)
H4E H 0.36670 0.69190 0.35440
H5E H 0.22090 0.78310 0.35390
H6E H 0.21540 0.61200 0.34540
C1G C 0.5806(10) 1.0956(10) 0.0927(4)
C2G C 0.7478(13) 1.3036(11) 0.1222(5)
H1G H 0.77640 1.33340 0.07330
N3G N 0.6598(9) 1.1915(9) 0.1394(3)
C3G C 0.5813(12) 1.0946(11) 0.0126(4)
H2G H 0.63970 1.16120 -0.01390
C4G C 0.7869(11) 1.3649(13) 0.1890(6)
H3G H 0.84810 1.44560 0.19550
N4G N 0.6357(9) 1.1774(8) 0.2183(4)
C5G C 0.7195(11) 1.2857(12) 0.2466(7)
C6G C 0.7300(17) 1.3011(20) 0.3329(7)
H4G H 0.63330 1.30810 0.35440
H5G H 0.77910 1.21690 0.35390
H6G H 0.78460 1.38800 0.34540
O1A O 1.0687(8) 1.1088(8) 0.5469(4)
O1B O 1.1088(8) 0.9313(8) 0.4531(4)
O1C O 0.9313(8) 0.8912(8) 0.5469(4)
O2A O 0.579(3) 0.407(2) 0.5409(17)
O2B O 0.407(3) 0.421(2) 0.4591(17)
O2C O 0.421(3) 0.593(2) 0.5409(17)
#END
