
#######################################################################
#
#                 Cambridge Crystallographic Data Centre
#                                CCDC
#
#######################################################################
#
# If this CIF has been generated from an entry in the Cambridge
# Structural Database, then it will include bibliographic, chemical,
# crystal, experimental, refinement or atomic coordinate data resulting
# from the CCDC's data processing and validation procedures.
#
#######################################################################

data_CSD_CIF_JAFBUO04
_audit_creation_date 2017-10-27
_audit_creation_method CSD-ConQuest-V1
_database_code_CSD JAFBUO04
_database_code_depnum_ccdc_archive 'CCDC 1446437'
_chemical_formula_sum 'C24 H24 Cl2 Fe1 N12 O8'
_chemical_formula_moiety
;
C24 H24 Fe1 N12 2+,2(Cl1 O4 1-)
;
_journal_coden_Cambridge 2031
_journal_volume 2
_journal_year 2016
_journal_page_first 9
_journal_name_full 'Magnetochem. '
loop_
_publ_author_name
"H.J.Shepherd"
"George Tonge"
"L.E.Hatcher"
"M.J.Bryant"
"J.V.Knichal"
"P.R.Raithby"
"M.A.Halcrow"
"R.Kulmaczewski"
"K.J.Gagnon"
"S.J.Teat"
_chemical_name_systematic
;
bis(2,6-bis(3-methyl-1H-pyrazol-1-yl)pyrazine)-iron(ii) diperchlorate
;
_cell_volume   1386.990
_exptl_crystal_colour 'brown'
_exptl_crystal_density_diffrn 1.761
_exptl_crystal_description 'octahedral'
_diffrn_ambient_temperature 298
_diffrn_ambient_pressure 1329000.0
_diffrn_radiation_probe x-ray
_diffrn_source synchrotron
_diffrn_special_details
;
twin

;
#These two values have been output from a single CSD field.
_refine_ls_R_factor_gt 0.0486
_refine_ls_wR_factor_gt 0.0486
_symmetry_cell_setting tetragonal
_symmetry_space_group_name_H-M 'I -4'
_symmetry_Int_Tables_number 82
loop_
_symmetry_equiv_pos_site_id
_symmetry_equiv_pos_as_xyz
1 x,y,z
2 y,-x,-z
3 -x,-y,z
4 -y,x,-z
5 1/2+x,1/2+y,1/2+z
6 1/2+y,1/2-x,1/2-z
7 1/2-x,1/2-y,1/2+z
8 1/2-y,1/2+x,1/2-z
_cell_length_a 8.9205(7)
_cell_length_b 8.9205(7)
_cell_length_c 17.4299(17)
_cell_angle_alpha 90
_cell_angle_beta 90
_cell_angle_gamma 90
_cell_formula_units_Z 2
loop_
_atom_type_symbol
_atom_type_radius_bond
C 0.68
H 0.23
Cl 0.99
Fe 1.52
N 0.68
O 0.68
loop_
_atom_site_label
_atom_site_type_symbol
_atom_site_fract_x
_atom_site_fract_y
_atom_site_fract_z
Fe1 Fe 0.00000 0.00000 0.00000
N1 N 0.00000 0.00000 -0.1111(9)
N2 N 0.00000 0.00000 -0.2678(10)
C1 C -0.316(3) -0.239(3) -0.1175(14)
H1 H -0.34920 -0.27050 -0.16550
N3 N -0.199(2) -0.158(2) -0.1023(8)
C2 C -0.099(3) -0.078(3) -0.1515(9)
N4 N -0.182(2) -0.1304(19) -0.0250(7)
C3 C -0.380(3) -0.270(3) -0.0460(13)
H2 H -0.46790 -0.32320 -0.03720
C4 C -0.292(3) -0.207(2) 0.0079(14)
C5 C -0.093(3) -0.080(3) -0.2293(10)
H3 H -0.15830 -0.14270 -0.25580
C6 C -0.316(4) -0.215(3) 0.0928(11)
H4 H -0.22700 -0.25390 0.11700
H5 H -0.39870 -0.28070 0.10350
H6 H -0.33700 -0.11710 0.11250
Cl1 Cl -0.50000 0.00000 -0.25000
O1 O -0.388(2) 0.073(2) -0.2028(10)
Cl2 Cl 0.00000 -0.50000 -0.25000
O2 O 0.103(3) -0.577(3) -0.2042(10)
C1B C 0.316(3) 0.239(3) -0.1175(14)
H1B H 0.34920 0.27050 -0.16550
N3B N 0.199(2) 0.158(2) -0.1023(8)
C2B C 0.099(3) 0.078(3) -0.1515(9)
N4B N 0.182(2) 0.1304(19) -0.0250(7)
C3B C 0.380(3) 0.270(3) -0.0460(13)
H2B H 0.46790 0.32320 -0.03720
C4B C 0.292(3) 0.207(2) 0.0079(14)
C5B C 0.093(3) 0.080(3) -0.2293(10)
H3B H 0.15830 0.14270 -0.25580
C6B C 0.316(4) 0.215(3) 0.0928(11)
H4B H 0.22700 0.25390 0.11700
H5B H 0.39870 0.28070 0.10350
H6B H 0.33700 0.11710 0.11250
N1A N 0.00000 0.00000 0.1111(9)
N2A N 0.00000 0.00000 0.2678(10)
C1A C -0.239(3) 0.316(3) 0.1175(14)
H1A H -0.27050 0.34920 0.16550
N3A N -0.158(2) 0.199(2) 0.1023(8)
C2A C -0.078(3) 0.099(3) 0.1515(9)
N4A N -0.1304(20) 0.1820(19) 0.0250(7)
C3A C -0.270(3) 0.380(3) 0.0460(13)
H2A H -0.32320 0.46790 0.03720
C4A C -0.207(3) 0.292(2) -0.0079(14)
C5A C -0.080(3) 0.093(3) 0.2293(10)
H3A H -0.14270 0.15830 0.25580
C6A C -0.215(4) 0.316(3) -0.0928(11)
H4A H -0.25390 0.22700 -0.11700
H5A H -0.28070 0.39870 -0.10350
H6A H -0.11710 0.33700 -0.11250
C1C C 0.239(3) -0.316(3) 0.1175(14)
H1C H 0.27050 -0.34920 0.16550
N3C N 0.158(2) -0.199(2) 0.1023(8)
C2C C 0.078(3) -0.099(3) 0.1515(9)
N4C N 0.1304(20) -0.1820(19) 0.0250(7)
C3C C 0.270(3) -0.380(3) 0.0460(13)
H2C H 0.32320 -0.46790 0.03720
C4C C 0.207(3) -0.292(2) -0.0079(14)
C5C C 0.080(3) -0.093(3) 0.2293(10)
H3C H 0.14270 -0.15830 0.25580
C6C C 0.215(4) -0.316(3) -0.0928(11)
H4C H 0.25390 -0.22700 -0.11700
H5C H 0.28070 -0.39870 -0.10350
H6C H 0.11710 -0.33700 -0.11250
O1B O -0.612(2) -0.073(2) -0.2028(10)
O1E O -0.427(2) -0.112(2) -0.2972(10)
O1G O -0.573(2) 0.112(2) -0.2972(10)
O2B O -0.103(3) -0.423(3) -0.2042(10)
O2E O -0.077(3) -0.603(3) -0.2958(10)
O2G O 0.077(3) -0.397(3) -0.2958(10)
#END
