
#######################################################################
#
#                 Cambridge Crystallographic Data Centre
#                                CCDC
#
#######################################################################
#
# If this CIF has been generated from an entry in the Cambridge
# Structural Database, then it will include bibliographic, chemical,
# crystal, experimental, refinement or atomic coordinate data resulting
# from the CCDC's data processing and validation procedures.
#
#######################################################################

data_CSD_CIF_JAFBUO25
_audit_creation_date 2017-10-27
_audit_creation_method CSD-ConQuest-V1
_database_code_CSD JAFBUO25
_database_code_depnum_ccdc_archive 'CCDC 1446433'
_chemical_formula_sum 'C24 H24 Cl2 Fe1 N12 O8'
_chemical_formula_moiety
;
C24 H24 Fe1 N12 2+,2(Cl1 O4 1-)
;
_journal_coden_Cambridge 2031
_journal_volume 2
_journal_year 2016
_journal_page_first 9
_journal_name_full 'Magnetochem. '
loop_
_publ_author_name
"H.J.Shepherd"
"George Tonge"
"L.E.Hatcher"
"M.J.Bryant"
"J.V.Knichal"
"P.R.Raithby"
"M.A.Halcrow"
"R.Kulmaczewski"
"K.J.Gagnon"
"S.J.Teat"
_chemical_name_systematic
;
bis(2,6-bis(3-methyl-1H-pyrazol-1-yl)pyrazine)-iron(ii) diperchlorate
;
_cell_volume   1516.628
_exptl_crystal_colour 'yellow'
_exptl_crystal_density_diffrn 1.61
_exptl_crystal_description 'octahedral'
_diffrn_ambient_temperature 298
_diffrn_ambient_pressure 329000.0
_diffrn_radiation_probe x-ray
_diffrn_source synchrotron
_diffrn_special_details
;
twin

;
#These two values have been output from a single CSD field.
_refine_ls_R_factor_gt 0.0435
_refine_ls_wR_factor_gt 0.0435
_symmetry_cell_setting tetragonal
_symmetry_space_group_name_H-M 'I -4'
_symmetry_Int_Tables_number 82
loop_
_symmetry_equiv_pos_site_id
_symmetry_equiv_pos_as_xyz
1 x,y,z
2 y,-x,-z
3 -x,-y,z
4 -y,x,-z
5 1/2+x,1/2+y,1/2+z
6 1/2+y,1/2-x,1/2-z
7 1/2-x,1/2-y,1/2+z
8 1/2-y,1/2+x,1/2-z
_cell_length_a 9.3102(4)
_cell_length_b 9.3102(4)
_cell_length_c 17.4969(9)
_cell_angle_alpha 90
_cell_angle_beta 90
_cell_angle_gamma 90
_cell_formula_units_Z 2
loop_
_atom_type_symbol
_atom_type_radius_bond
C 0.68
H 0.23
Cl 0.99
Fe 1.52
N 0.68
O 0.68
loop_
_atom_site_label
_atom_site_type_symbol
_atom_site_fract_x
_atom_site_fract_y
_atom_site_fract_z
Fe1 Fe 0.50000 1.00000 0.25000
N1 N 0.50000 1.00000 0.3717(3)
N2 N 0.50000 1.00000 0.5286(3)
C1 C 0.5915(6) 0.9192(6) 0.4105(3)
C2 C 0.7854(9) 0.7445(7) 0.3823(3)
H1 H 0.81140 0.71590 0.43140
N3 N 0.6829(5) 0.8384(5) 0.3638(2)
C3 C 0.5925(6) 0.9177(7) 0.4894(3)
H2 H 0.65740 0.85960 0.51540
C4 C 0.8442(7) 0.6991(8) 0.3157(4)
H3 H 0.91980 0.63470 0.31020
N4 N 0.6703(6) 0.8537(5) 0.2867(2)
C5 C 0.7694(6) 0.7677(7) 0.2570(4)
C6 C 0.7895(9) 0.7556(11) 0.1733(4)
H4 H 0.85010 0.83230 0.15580
H5 H 0.69780 0.76160 0.14840
H6 H 0.83350 0.66500 0.16150
Cl1 Cl 1.00000 1.00000 0.50000
O1 O 0.8926(6) 1.0652(6) 0.4533(3)
Cl2 Cl 0.50000 0.50000 0.50000
O2 O 0.456(3) 0.622(2) 0.4660(14)
C1B C 0.4085(6) 1.0808(6) 0.4105(3)
C2B C 0.2146(9) 1.2555(7) 0.3823(3)
H1B H 0.18860 1.28410 0.43140
N3B N 0.3171(5) 1.1616(5) 0.3638(2)
C3B C 0.4075(6) 1.0823(7) 0.4894(3)
H2B H 0.34260 1.14040 0.51540
C4B C 0.1558(7) 1.3009(8) 0.3157(4)
H3B H 0.08020 1.36530 0.31020
N4B N 0.3297(6) 1.1463(5) 0.2867(2)
C5B C 0.2306(6) 1.2323(7) 0.2570(4)
C6B C 0.2105(9) 1.2444(11) 0.1733(4)
H4B H 0.14990 1.16770 0.15580
H5B H 0.30220 1.23840 0.14840
H6B H 0.16650 1.33500 0.16150
N1E N 0.50000 1.00000 0.1283(3)
N2E N 0.50000 1.00000 -0.0286(3)
C1E C 0.4192(6) 0.9085(6) 0.0895(3)
C2E C 0.2445(9) 0.7146(7) 0.1177(3)
H1E H 0.21590 0.68860 0.06860
N3E N 0.3384(5) 0.8171(5) 0.1362(2)
C3E C 0.4177(6) 0.9075(7) 0.0106(3)
H2E H 0.35960 0.84260 -0.01540
C4E C 0.1991(7) 0.6558(8) 0.1843(4)
H3E H 0.13470 0.58020 0.18980
N4E N 0.3537(6) 0.8297(5) 0.2133(2)
C5E C 0.2677(6) 0.7306(7) 0.2430(4)
C6E C 0.2556(9) 0.7105(11) 0.3267(4)
H4E H 0.33230 0.64990 0.34420
H5E H 0.26160 0.80220 0.35160
H6E H 0.16500 0.66650 0.33850
C1G C 0.5808(6) 1.0915(6) 0.0895(3)
C2G C 0.7555(9) 1.2854(7) 0.1177(3)
H1G H 0.78410 1.31140 0.06860
N3G N 0.6616(5) 1.1829(5) 0.1362(2)
C3G C 0.5823(6) 1.0925(7) 0.0106(3)
H2G H 0.64040 1.15740 -0.01540
C4G C 0.8009(7) 1.3442(8) 0.1843(4)
H3G H 0.86530 1.41980 0.18980
N4G N 0.6463(6) 1.1703(5) 0.2133(2)
C5G C 0.7323(6) 1.2694(7) 0.2430(4)
C6G C 0.7444(9) 1.2895(11) 0.3267(4)
H4G H 0.66770 1.35010 0.34420
H5G H 0.73840 1.19780 0.35160
H6G H 0.83500 1.33350 0.33850
O1A O 1.0652(6) 1.1074(6) 0.5467(3)
O1B O 1.1074(6) 0.9348(6) 0.4533(3)
O1C O 0.9348(6) 0.8926(6) 0.5467(3)
O2A O 0.622(3) 0.544(2) 0.5340(14)
O2B O 0.544(3) 0.378(2) 0.4660(14)
O2C O 0.378(3) 0.456(2) 0.5340(14)
#END
