
#######################################################################
#
#                 Cambridge Crystallographic Data Centre
#                                CCDC
#
#######################################################################
#
# If this CIF has been generated from an entry in the Cambridge
# Structural Database, then it will include bibliographic, chemical,
# crystal, experimental, refinement or atomic coordinate data resulting
# from the CCDC's data processing and validation procedures.
#
#######################################################################

data_CSD_CIF_JAFBOI02
_audit_creation_date 2004-04-27
_audit_creation_method CSD-ConQuest-V1
_database_code_CSD JAFBOI02
_database_code_depnum_ccdc_archive 'CCDC 219738'
_chemical_formula_sum 'C24 H24 B2 F8 Fe1 N12'
_chemical_formula_moiety
;
C24 H24 Fe1 N12 2+,2(B1 F4 1-)
;
_journal_coden_Cambridge 222
_journal_year 2004
_journal_page_first 65
_journal_name_full 'Dalton Trans. '
loop_
_publ_author_name
"V.A.Money"
"J.Elhaik"
"I.R.Evans"
"M.A.Halcrow"
"J.A.K.Howard"
_chemical_name_systematic
;
bis(2,6-Di(3-methylpyrazol-1-yl)pyrazine)-iron(ii) bis(tetrafluoroborate)
;
_cell_volume   1482.325
_exptl_crystal_density_diffrn 1.591
_exptl_special_details
;
52% high-spin state
isomorphous with the diperchlorate analogue
cif gives the study temperature as 293 K
;
_diffrn_ambient_temperature 240
#These two values have been output from a single CSD field.
_refine_ls_R_factor_gt 0.052
_refine_ls_wR_factor_gt 0.052
_symmetry_cell_setting tetragonal
_symmetry_space_group_name_H-M 'I -4'
_symmetry_Int_Tables_number 82
loop_
_symmetry_equiv_pos_site_id
_symmetry_equiv_pos_as_xyz
1 x,y,z
2 -x,-y,z
3 y,-x,-z
4 -y,x,-z
5 1/2+x,1/2+y,1/2+z
6 1/2-x,1/2-y,1/2+z
7 1/2+y,1/2-x,1/2-z
8 1/2-y,1/2+x,1/2-z
_cell_length_a 9.1529(13)
_cell_length_b 9.1529(13)
_cell_length_c 17.694(4)
_cell_angle_alpha 90
_cell_angle_beta 90
_cell_angle_gamma 90
_cell_formula_units_Z 2
loop_
_atom_type_symbol
_atom_type_radius_bond
C 0.68
H 0.23
B 0.83
F 0.64
Fe 1.34
N 0.68
loop_
_atom_site_label
_atom_site_type_symbol
_atom_site_fract_x
_atom_site_fract_y
_atom_site_fract_z
Fe1 Fe 0.00000 1.00000 0.50000
N1 N 0.1801(4) 0.8709(4) 0.5281(2)
N2 N 0.1956(4) 0.8483(4) 0.6049(2)
C1 C 0.3126(7) 0.7914(8) 0.4121(4)
H1 H 0.23620 0.73430 0.38950
H2 H 0.40550 0.74750 0.40120
H3 H 0.31020 0.88870 0.39180
C2 C 0.2905(4) 0.7974(5) 0.4965(5)
C3 C 0.3751(6) 0.7284(5) 0.5524(4)
H4 H 0.45710 0.67040 0.54460
C4 C 0.3128(6) 0.7637(6) 0.6213(4)
H5 H 0.34480 0.73520 0.66900
N3 N 0.00000 1.00000 0.6137(2)
N4 N 0.00000 1.00000 0.7691(2)
C5 C 0.0975(4) 0.9220(4) 0.6526(2)
C6 C 0.0964(5) 0.9196(5) 0.7308(2)
H6 H 0.16310 0.86170 0.75670
B1 B 0.50000 1.00000 0.75000
F1 F 0.4317(4) 0.8960(4) 0.7952(2)
B2 B 1.00000 0.50000 0.75000
F2 F 0.9184(5) 0.5937(6) 0.7936(3)
N1A N -0.1801(4) 1.1291(4) 0.5281(2)
N2A N -0.1956(4) 1.1517(4) 0.6049(2)
C4A C -0.3128(6) 1.2363(6) 0.6213(4)
C3A C -0.3751(6) 1.2716(5) 0.5524(4)
C2A C -0.2905(4) 1.2026(5) 0.4965(5)
C1A C -0.3126(7) 1.2086(8) 0.4121(4)
H1A H -0.23620 1.26570 0.38950
H2A H -0.40550 1.25250 0.40120
H3A H -0.31020 1.11130 0.39180
H4A H -0.45710 1.32960 0.54460
H5A H -0.34480 1.26480 0.66900
C5A C -0.0975(4) 1.0780(4) 0.6526(2)
C6A C -0.0964(5) 1.0804(5) 0.7308(2)
H6A H -0.16310 1.13830 0.75670
N1B N -0.1291(4) 0.8199(4) 0.4719(2)
N2B N -0.1517(4) 0.8044(4) 0.3951(2)
C4B C -0.2363(6) 0.6872(6) 0.3787(4)
C3B C -0.2716(6) 0.6249(5) 0.4476(4)
C2B C -0.2026(4) 0.7095(5) 0.5035(5)
C1B C -0.2086(7) 0.6874(8) 0.5879(4)
H1B H -0.26570 0.76380 0.61050
H2B H -0.25250 0.59450 0.59880
H3B H -0.11130 0.68980 0.60820
H4B H -0.32960 0.54290 0.45540
H5B H -0.26480 0.65520 0.33100
C5B C -0.0780(4) 0.9025(4) 0.3474(2)
N3B N 0.00000 1.00000 0.3863(2)
N1C N 0.1291(4) 1.1801(4) 0.4719(2)
N2C N 0.1517(4) 1.1956(4) 0.3951(2)
C4C C 0.2363(6) 1.3128(6) 0.3787(4)
C3C C 0.2716(6) 1.3751(5) 0.4476(4)
C2C C 0.2026(4) 1.2905(5) 0.5035(5)
C1C C 0.2086(7) 1.3126(8) 0.5879(4)
H1C H 0.26570 1.23620 0.61050
H2C H 0.25250 1.40550 0.59880
H3C H 0.11130 1.31020 0.60820
H4C H 0.32960 1.45710 0.45540
H5C H 0.26480 1.34480 0.33100
C5C C 0.0780(4) 1.0975(4) 0.3474(2)
C6C C 0.0804(5) 1.0964(5) 0.2692(2)
N4C N 0.00000 1.00000 0.2309(2)
C6B C -0.0804(5) 0.9036(5) 0.2692(2)
H6B H -0.13830 0.83690 0.24330
H6C H 0.13830 1.16310 0.24330
F1A F 0.5683(4) 1.1040(4) 0.7952(2)
F1F F 0.3960(4) 1.0683(4) 0.7048(2)
F1G F 0.6040(4) 0.9317(4) 0.7048(2)
F2A F 1.0816(5) 0.4063(6) 0.7936(3)
F2F F 1.0937(5) 0.5816(6) 0.7064(3)
F2G F 0.9063(5) 0.4184(6) 0.7064(3)
#END
