
#######################################################################
#
#                 Cambridge Crystallographic Data Centre
#                                CCDC
#
#######################################################################
#
# If this CIF has been generated from an entry in the Cambridge
# Structural Database, then it will include bibliographic, chemical,
# crystal, experimental, refinement or atomic coordinate data resulting
# from the CCDC's data processing and validation procedures.
#
#######################################################################

data_CSD_CIF_JAFBUO08
_audit_creation_date 2017-10-27
_audit_creation_method CSD-ConQuest-V1
_database_code_CSD JAFBUO08
_database_code_depnum_ccdc_archive 'CCDC 1446441'
_chemical_formula_sum 'C24 H24 Cl2 Fe1 N12 O8'
_chemical_formula_moiety
;
C24 H24 Fe1 N12 2+,2(Cl1 O4 1-)
;
_journal_coden_Cambridge 2031
_journal_volume 2
_journal_year 2016
_journal_page_first 9
_journal_name_full 'Magnetochem. '
loop_
_publ_author_name
"H.J.Shepherd"
"George Tonge"
"L.E.Hatcher"
"M.J.Bryant"
"J.V.Knichal"
"P.R.Raithby"
"M.A.Halcrow"
"R.Kulmaczewski"
"K.J.Gagnon"
"S.J.Teat"
_chemical_name_systematic
;
bis[2,6-bis(3-methyl-1H-pyrazol-1-yl)pyrazine]-iron(ii) diperchlorate
;
_cell_volume   1542.413
_exptl_crystal_colour 'yellow'
_exptl_crystal_density_diffrn 1.583
_exptl_crystal_description 'octahedral'
_diffrn_ambient_temperature 260
_diffrn_special_details
;
twin

;
#These two values have been output from a single CSD field.
_refine_ls_R_factor_gt 0.0577
_refine_ls_wR_factor_gt 0.0577
_symmetry_cell_setting tetragonal
_symmetry_space_group_name_H-M 'I -4'
_symmetry_Int_Tables_number 82
loop_
_symmetry_equiv_pos_site_id
_symmetry_equiv_pos_as_xyz
1 x,y,z
2 y,-x,-z
3 -x,-y,z
4 -y,x,-z
5 1/2+x,1/2+y,1/2+z
6 1/2+y,1/2-x,1/2-z
7 1/2-x,1/2-y,1/2+z
8 1/2-y,1/2+x,1/2-z
_cell_length_a 9.3721(5)
_cell_length_b 9.3721(5)
_cell_length_c 17.5601(15)
_cell_angle_alpha 90
_cell_angle_beta 90
_cell_angle_gamma 90
_cell_formula_units_Z 2
loop_
_atom_type_symbol
_atom_type_radius_bond
C 0.68
H 0.23
Cl 0.99
Fe 1.52
N 0.68
O 0.68
loop_
_atom_site_label
_atom_site_type_symbol
_atom_site_fract_x
_atom_site_fract_y
_atom_site_fract_z
Fe1 Fe 0.50000 1.00000 0.25000
N1 N 0.50000 1.00000 0.3713(3)
N2 N 0.50000 1.00000 0.5276(4)
C1 C 0.5904(13) 0.9185(12) 0.4104(4)
C2 C 0.7829(15) 0.7439(14) 0.3817(5)
H1 H 0.80850 0.71360 0.43150
N3 N 0.6814(9) 0.8395(10) 0.3637(3)
C3 C 0.5913(12) 0.9185(13) 0.4891(4)
H2 H 0.65720 0.86010 0.51590
C4 C 0.8415(13) 0.6990(13) 0.3157(5)
H3 H 0.91790 0.63340 0.31000
N4 N 0.6678(10) 0.8534(10) 0.2864(3)
C5 C 0.7672(9) 0.7684(9) 0.2573(6)
C6 C 0.7874(15) 0.7543(14) 0.1732(6)
H4 H 0.83170 0.84130 0.15320
H5 H 0.69450 0.74000 0.14870
H6 H 0.84920 0.67230 0.16250
Cl1 Cl 1.00000 1.00000 0.50000
O1 O 0.8934(11) 1.0667(9) 0.4556(6)
Cl2 Cl 0.50000 0.50000 0.50000
O2 O 0.465(3) 0.615(2) 0.4617(16)
C1B C 0.4096(13) 1.0815(12) 0.4104(4)
C2B C 0.2171(15) 1.2561(14) 0.3817(5)
H1B H 0.19150 1.28640 0.43150
N3B N 0.3186(9) 1.1605(10) 0.3637(3)
C3B C 0.4087(12) 1.0815(13) 0.4891(4)
H2B H 0.34280 1.13990 0.51590
C4B C 0.1585(13) 1.3010(13) 0.3157(5)
H3B H 0.08210 1.36660 0.31000
N4B N 0.3322(10) 1.1466(10) 0.2864(3)
C5B C 0.2328(9) 1.2316(9) 0.2573(6)
C6B C 0.2126(15) 1.2457(14) 0.1732(6)
H4B H 0.16830 1.15870 0.15320
H5B H 0.30550 1.26000 0.14870
H6B H 0.15080 1.32770 0.16250
N1E N 0.50000 1.00000 0.1287(3)
N2E N 0.50000 1.00000 -0.0276(4)
C1E C 0.4185(13) 0.9096(12) 0.0896(4)
C2E C 0.2439(15) 0.7171(14) 0.1183(5)
H1E H 0.21360 0.69150 0.06850
N3E N 0.3395(9) 0.8186(10) 0.1363(3)
C3E C 0.4185(12) 0.9087(13) 0.0109(4)
H2E H 0.36010 0.84280 -0.01590
C4E C 0.1990(13) 0.6585(13) 0.1843(5)
H3E H 0.13340 0.58210 0.19000
N4E N 0.3534(10) 0.8322(10) 0.2136(3)
C5E C 0.2684(9) 0.7328(9) 0.2427(6)
C6E C 0.2543(15) 0.7126(14) 0.3268(6)
H4E H 0.34130 0.66830 0.34680
H5E H 0.24000 0.80550 0.35130
H6E H 0.17230 0.65080 0.33750
C1G C 0.5815(13) 1.0904(12) 0.0896(4)
C2G C 0.7561(15) 1.2829(14) 0.1183(5)
H1G H 0.78640 1.30850 0.06850
N3G N 0.6605(9) 1.1814(10) 0.1363(3)
C3G C 0.5815(12) 1.0913(13) 0.0109(4)
H2G H 0.63990 1.15720 -0.01590
C4G C 0.8010(13) 1.3415(13) 0.1843(5)
H3G H 0.86660 1.41790 0.19000
N4G N 0.6466(10) 1.1678(10) 0.2136(3)
C5G C 0.7316(9) 1.2672(9) 0.2427(6)
C6G C 0.7457(15) 1.2874(14) 0.3268(6)
H4G H 0.65870 1.33170 0.34680
H5G H 0.76000 1.19450 0.35130
H6G H 0.82770 1.34920 0.33750
O1A O 1.0667(11) 1.1066(9) 0.5444(6)
O1B O 1.1066(11) 0.9333(9) 0.4556(6)
O1C O 0.9333(11) 0.8934(9) 0.5444(6)
O2A O 0.615(3) 0.535(2) 0.5383(16)
O2B O 0.535(3) 0.385(2) 0.4617(16)
O2C O 0.385(3) 0.465(2) 0.5383(16)
#END
