
#######################################################################
#
#                 Cambridge Crystallographic Data Centre
#                                CCDC
#
#######################################################################
#
# If this CIF has been generated from an entry in the Cambridge
# Structural Database, then it will include bibliographic, chemical,
# crystal, experimental, refinement or atomic coordinate data resulting
# from the CCDC's data processing and validation procedures.
#
#######################################################################

data_CSD_CIF_JAFBUO09
_audit_creation_date 2017-10-27
_audit_creation_method CSD-ConQuest-V1
_database_code_CSD JAFBUO09
_database_code_depnum_ccdc_archive 'CCDC 1446442'
_chemical_formula_sum 'C24 H24 Cl2 Fe1 N12 O8'
_chemical_formula_moiety
;
C24 H24 Fe1 N12 2+,2(Cl1 O4 1-)
;
_journal_coden_Cambridge 2031
_journal_volume 2
_journal_year 2016
_journal_page_first 9
_journal_name_full 'Magnetochem. '
loop_
_publ_author_name
"H.J.Shepherd"
"George Tonge"
"L.E.Hatcher"
"M.J.Bryant"
"J.V.Knichal"
"P.R.Raithby"
"M.A.Halcrow"
"R.Kulmaczewski"
"K.J.Gagnon"
"S.J.Teat"
_chemical_name_systematic
;
bis[2,6-bis(3-methyl-1H-pyrazol-1-yl)pyrazine]-iron(ii) diperchlorate
;
_cell_volume   1541.843
_exptl_crystal_colour 'yellow'
_exptl_crystal_density_diffrn 1.584
_exptl_crystal_description 'octahedral'
_diffrn_ambient_temperature 250
_diffrn_special_details
;
twin

;
#These two values have been output from a single CSD field.
_refine_ls_R_factor_gt 0.0553
_refine_ls_wR_factor_gt 0.0553
_symmetry_cell_setting tetragonal
_symmetry_space_group_name_H-M 'I -4'
_symmetry_Int_Tables_number 82
loop_
_symmetry_equiv_pos_site_id
_symmetry_equiv_pos_as_xyz
1 x,y,z
2 y,-x,-z
3 -x,-y,z
4 -y,x,-z
5 1/2+x,1/2+y,1/2+z
6 1/2+y,1/2-x,1/2-z
7 1/2-x,1/2-y,1/2+z
8 1/2-y,1/2+x,1/2-z
_cell_length_a 9.3697(6)
_cell_length_b 9.3697(6)
_cell_length_c 17.5626(16)
_cell_angle_alpha 90
_cell_angle_beta 90
_cell_angle_gamma 90
_cell_formula_units_Z 2
loop_
_atom_type_symbol
_atom_type_radius_bond
C 0.68
H 0.23
Cl 0.99
Fe 1.52
N 0.68
O 0.68
loop_
_atom_site_label
_atom_site_type_symbol
_atom_site_fract_x
_atom_site_fract_y
_atom_site_fract_z
Fe1 Fe 0.50000 1.00000 0.25000
N1 N 0.50000 1.00000 0.3714(3)
N2 N 0.50000 1.00000 0.5276(4)
C1 C 0.5897(12) 0.9188(11) 0.4102(4)
C2 C 0.7838(14) 0.7429(13) 0.3819(4)
H1 H 0.80890 0.71200 0.43110
N3 N 0.6819(9) 0.8401(9) 0.3637(3)
C3 C 0.5919(12) 0.9201(12) 0.4889(4)
H2 H 0.65890 0.86410 0.51520
C4 C 0.8417(12) 0.6994(12) 0.3156(5)
H3 H 0.91710 0.63420 0.30960
N4 N 0.6675(9) 0.8539(10) 0.2864(3)
C5 C 0.7685(8) 0.7696(8) 0.2575(6)
C6 C 0.7873(14) 0.7551(13) 0.1732(6)
H4 H 0.82170 0.84460 0.15240
H5 H 0.69640 0.73120 0.15000
H6 H 0.85580 0.68010 0.16260
Cl1 Cl 1.00000 1.00000 0.50000
O1 O 0.8920(9) 1.0665(8) 0.4554(5)
Cl2 Cl 0.50000 0.50000 0.50000
O2 O 0.468(3) 0.613(2) 0.4619(17)
C1B C 0.4103(12) 1.0812(11) 0.4102(4)
C2B C 0.2162(14) 1.2571(13) 0.3819(4)
H1B H 0.19110 1.28800 0.43110
N3B N 0.3181(9) 1.1599(9) 0.3637(3)
C3B C 0.4081(12) 1.0799(12) 0.4889(4)
H2B H 0.34110 1.13590 0.51520
C4B C 0.1583(12) 1.3006(12) 0.3156(5)
H3B H 0.08290 1.36580 0.30960
N4B N 0.3325(9) 1.1461(10) 0.2864(3)
C5B C 0.2315(8) 1.2304(8) 0.2575(6)
C6B C 0.2127(14) 1.2449(13) 0.1732(6)
H4B H 0.17830 1.15540 0.15240
H5B H 0.30360 1.26880 0.15000
H6B H 0.14420 1.31990 0.16260
N1E N 0.50000 1.00000 0.1286(3)
N2E N 0.50000 1.00000 -0.0276(4)
C1E C 0.4188(12) 0.9103(11) 0.0898(4)
C2E C 0.2429(14) 0.7162(13) 0.1181(4)
H1E H 0.21200 0.69110 0.06890
N3E N 0.3401(9) 0.8181(9) 0.1363(3)
C3E C 0.4201(12) 0.9081(12) 0.0111(4)
H2E H 0.36410 0.84110 -0.01520
C4E C 0.1994(12) 0.6583(12) 0.1844(5)
H3E H 0.13420 0.58290 0.19040
N4E N 0.3539(9) 0.8325(10) 0.2136(3)
C5E C 0.2696(8) 0.7315(8) 0.2425(6)
C6E C 0.2551(14) 0.7127(13) 0.3268(6)
H4E H 0.34460 0.67830 0.34760
H5E H 0.23120 0.80360 0.35000
H6E H 0.18010 0.64420 0.33740
C1G C 0.5812(12) 1.0897(11) 0.0898(4)
C2G C 0.7571(14) 1.2838(13) 0.1181(4)
H1G H 0.78800 1.30890 0.06890
N3G N 0.6599(9) 1.1819(9) 0.1363(3)
C3G C 0.5799(12) 1.0919(12) 0.0111(4)
H2G H 0.63590 1.15890 -0.01520
C4G C 0.8006(12) 1.3417(12) 0.1844(5)
H3G H 0.86580 1.41710 0.19040
N4G N 0.6461(9) 1.1675(10) 0.2136(3)
C5G C 0.7304(8) 1.2685(8) 0.2425(6)
C6G C 0.7449(14) 1.2873(13) 0.3268(6)
H4G H 0.65540 1.32170 0.34760
H5G H 0.76880 1.19640 0.35000
H6G H 0.81990 1.35580 0.33740
O1A O 1.0665(9) 1.1080(8) 0.5446(5)
O1B O 1.1080(9) 0.9335(8) 0.4554(5)
O1C O 0.9335(9) 0.8920(8) 0.5446(5)
O2A O 0.613(3) 0.532(2) 0.5381(17)
O2B O 0.532(3) 0.387(2) 0.4619(17)
O2C O 0.387(3) 0.468(2) 0.5381(17)
#END
