
#######################################################################
#
#                 Cambridge Crystallographic Data Centre
#                                CCDC
#
#######################################################################
#
# If this CIF has been generated from an entry in the Cambridge
# Structural Database, then it will include bibliographic, chemical,
# crystal, experimental, refinement or atomic coordinate data resulting
# from the CCDC's data processing and validation procedures.
#
#######################################################################

data_CSD_CIF_JAFBUO17
_audit_creation_date 2017-10-27
_audit_creation_method CSD-ConQuest-V1
_database_code_CSD JAFBUO17
_database_code_depnum_ccdc_archive 'CCDC 1446450'
_chemical_formula_sum 'C24 H24 Cl2 Fe1 N12 O8'
_chemical_formula_moiety
;
C24 H24 Fe1 N12 2+,2(Cl1 O4 1-)
;
_journal_coden_Cambridge 2031
_journal_volume 2
_journal_year 2016
_journal_page_first 9
_journal_name_full 'Magnetochem. '
loop_
_publ_author_name
"H.J.Shepherd"
"George Tonge"
"L.E.Hatcher"
"M.J.Bryant"
"J.V.Knichal"
"P.R.Raithby"
"M.A.Halcrow"
"R.Kulmaczewski"
"K.J.Gagnon"
"S.J.Teat"
_chemical_name_systematic
;
bis[2,6-bis(3-methyl-1H-pyrazol-1-yl)pyrazine]-iron(ii) diperchlorate
;
_cell_volume   1489.190
_exptl_crystal_colour 'brown'
_exptl_crystal_density_diffrn 1.64
_exptl_crystal_description 'octahedral'
_diffrn_ambient_temperature 170
_diffrn_special_details
;
twin

;
#These two values have been output from a single CSD field.
_refine_ls_R_factor_gt 0.0521
_refine_ls_wR_factor_gt 0.0521
_symmetry_cell_setting tetragonal
_symmetry_space_group_name_H-M 'I -4'
_symmetry_Int_Tables_number 82
loop_
_symmetry_equiv_pos_site_id
_symmetry_equiv_pos_as_xyz
1 x,y,z
2 y,-x,-z
3 -x,-y,z
4 -y,x,-z
5 1/2+x,1/2+y,1/2+z
6 1/2+y,1/2-x,1/2-z
7 1/2-x,1/2-y,1/2+z
8 1/2-y,1/2+x,1/2-z
_cell_length_a 9.1692(5)
_cell_length_b 9.1692(5)
_cell_length_c 17.7128(15)
_cell_angle_alpha 90
_cell_angle_beta 90
_cell_angle_gamma 90
_cell_formula_units_Z 2
loop_
_atom_type_symbol
_atom_type_radius_bond
C 0.68
H 0.23
Cl 0.99
Fe 1.52
N 0.68
O 0.68
loop_
_atom_site_label
_atom_site_type_symbol
_atom_site_fract_x
_atom_site_fract_y
_atom_site_fract_z
Fe1 Fe 0.50000 1.00000 0.25000
N1 N 0.50000 1.00000 0.3619(3)
N2 N 0.50000 1.00000 0.5167(4)
C1 C 0.5975(9) 0.9214(10) 0.3999(4)
C2 C 0.8125(12) 0.7634(9) 0.3677(6)
H1 H 0.84680 0.73440 0.41600
N3 N 0.6934(8) 0.8472(7) 0.3528(4)
C3 C 0.5943(11) 0.9197(10) 0.4788(4)
H2 H 0.66110 0.85970 0.50560
C4 C 0.8728(10) 0.7296(10) 0.2998(6)
H3 H 0.95740 0.67190 0.29160
N4 N 0.6780(8) 0.8701(7) 0.2752(3)
C5 C 0.7854(8) 0.7965(9) 0.2434(8)
C6 C 0.8059(12) 0.7904(14) 0.1601(6)
H4 H 0.81010 0.88970 0.13980
H5 H 0.72390 0.73800 0.13720
H6 H 0.89700 0.73930 0.14850
Cl1 Cl 1.00000 1.00000 0.50000
O1 O 0.8921(9) 1.0705(8) 0.4537(4)
Cl2 Cl 0.50000 0.50000 0.50000
O2 O 0.5969(11) 0.5816(8) 0.4546(5)
C1B C 0.4025(9) 1.0786(10) 0.3999(4)
C2B C 0.1875(12) 1.2366(9) 0.3677(6)
H1B H 0.15320 1.26560 0.41600
N3B N 0.3066(8) 1.1528(7) 0.3528(4)
C3B C 0.4057(11) 1.0803(10) 0.4788(4)
H2B H 0.33890 1.14030 0.50560
C4B C 0.1272(10) 1.2704(10) 0.2998(6)
H3B H 0.04260 1.32810 0.29160
N4B N 0.3220(8) 1.1299(7) 0.2752(3)
C5B C 0.2146(8) 1.2035(9) 0.2434(8)
C6B C 0.1941(12) 1.2096(14) 0.1601(6)
H4B H 0.18990 1.11030 0.13980
H5B H 0.27610 1.26200 0.13720
H6B H 0.10300 1.26070 0.14850
N1E N 0.50000 1.00000 0.1381(3)
N2E N 0.50000 1.00000 -0.0167(4)
C1E C 0.4214(9) 0.9025(10) 0.1001(4)
C2E C 0.2634(12) 0.6875(9) 0.1323(6)
H1E H 0.23440 0.65320 0.08400
N3E N 0.3472(8) 0.8066(7) 0.1472(4)
C3E C 0.4197(11) 0.9057(10) 0.0212(4)
H2E H 0.35970 0.83890 -0.00560
C4E C 0.2296(10) 0.6272(10) 0.2002(6)
H3E H 0.17190 0.54260 0.20840
N4E N 0.3701(8) 0.8220(7) 0.2248(3)
C5E C 0.2965(8) 0.7146(9) 0.2566(8)
C6E C 0.2904(12) 0.6941(14) 0.3399(6)
H4E H 0.38970 0.68990 0.36020
H5E H 0.23800 0.77610 0.36280
H6E H 0.23930 0.60300 0.35150
C1G C 0.5786(9) 1.0975(10) 0.1001(4)
C2G C 0.7366(12) 1.3125(9) 0.1323(6)
H1G H 0.76560 1.34680 0.08400
N3G N 0.6528(8) 1.1934(7) 0.1472(4)
C3G C 0.5803(11) 1.0943(10) 0.0212(4)
H2G H 0.64030 1.16110 -0.00560
C4G C 0.7704(10) 1.3728(10) 0.2002(6)
H3G H 0.82810 1.45740 0.20840
N4G N 0.6299(8) 1.1780(7) 0.2248(3)
C5G C 0.7035(8) 1.2854(9) 0.2566(8)
C6G C 0.7096(12) 1.3059(14) 0.3399(6)
H4G H 0.61030 1.31010 0.36020
H5G H 0.76200 1.22390 0.36280
H6G H 0.76070 1.39700 0.35150
O1A O 1.0705(9) 1.1079(8) 0.5463(4)
O1B O 1.1079(9) 0.9295(8) 0.4537(4)
O1C O 0.9295(9) 0.8921(8) 0.5463(4)
O2A O 0.5816(11) 0.4031(8) 0.5454(5)
O2B O 0.4031(11) 0.4184(8) 0.4546(5)
O2C O 0.4184(11) 0.5969(8) 0.5454(5)
#END
