
#######################################################################
#
#                 Cambridge Crystallographic Data Centre
#                                CCDC
#
#######################################################################
#
# If this CIF has been generated from an entry in the Cambridge
# Structural Database, then it will include bibliographic, chemical,
# crystal, experimental, refinement or atomic coordinate data resulting
# from the CCDC's data processing and validation procedures.
#
#######################################################################

data_CSD_CIF_JAFBUO21
_audit_creation_date 2017-10-27
_audit_creation_method CSD-ConQuest-V1
_database_code_CSD JAFBUO21
_database_code_depnum_ccdc_archive 'CCDC 1446454'
_chemical_formula_sum 'C24 H24 Cl2 Fe1 N12 O8'
_chemical_formula_moiety
;
C24 H24 Fe1 N12 2+,2(Cl1 O4 1-)
;
_journal_coden_Cambridge 2031
_journal_volume 2
_journal_year 2016
_journal_page_first 9
_journal_name_full 'Magnetochem. '
loop_
_publ_author_name
"H.J.Shepherd"
"George Tonge"
"L.E.Hatcher"
"M.J.Bryant"
"J.V.Knichal"
"P.R.Raithby"
"M.A.Halcrow"
"R.Kulmaczewski"
"K.J.Gagnon"
"S.J.Teat"
_chemical_name_systematic
;
bis[2,6-bis(3-methyl-1H-pyrazol-1-yl)pyrazine]-iron(ii) diperchlorate
;
_cell_volume   1475.497
_exptl_crystal_colour 'brown'
_exptl_crystal_density_diffrn 1.655
_exptl_crystal_description 'octahedral'
_diffrn_ambient_temperature 130
_diffrn_special_details
;
twin

;
#These two values have been output from a single CSD field.
_refine_ls_R_factor_gt 0.0455
_refine_ls_wR_factor_gt 0.0455
_symmetry_cell_setting tetragonal
_symmetry_space_group_name_H-M 'I -4'
_symmetry_Int_Tables_number 82
loop_
_symmetry_equiv_pos_site_id
_symmetry_equiv_pos_as_xyz
1 x,y,z
2 y,-x,-z
3 -x,-y,z
4 -y,x,-z
5 1/2+x,1/2+y,1/2+z
6 1/2+y,1/2-x,1/2-z
7 1/2-x,1/2-y,1/2+z
8 1/2-y,1/2+x,1/2-z
_cell_length_a 9.1351(4)
_cell_length_b 9.1351(4)
_cell_length_c 17.6812(12)
_cell_angle_alpha 90
_cell_angle_beta 90
_cell_angle_gamma 90
_cell_formula_units_Z 2
loop_
_atom_type_symbol
_atom_type_radius_bond
C 0.68
H 0.23
Cl 0.99
Fe 1.52
N 0.68
O 0.68
loop_
_atom_site_label
_atom_site_type_symbol
_atom_site_fract_x
_atom_site_fract_y
_atom_site_fract_z
Fe1 Fe 0.50000 1.00000 0.25000
N1 N 0.50000 1.00000 0.3597(3)
N2 N 0.50000 1.00000 0.5147(3)
C1 C 0.5983(8) 0.9220(8) 0.3980(3)
C2 C 0.8132(11) 0.7653(9) 0.3644(5)
H1 H 0.84810 0.73600 0.41270
N3 N 0.6941(7) 0.8469(7) 0.3504(3)
C3 C 0.595(1) 0.9193(9) 0.4766(3)
H2 H 0.66180 0.85860 0.50330
C4 C 0.8746(8) 0.7323(8) 0.2962(4)
H3 H 0.96050 0.67590 0.28770
N4 N 0.6764(7) 0.8713(6) 0.2727(3)
C5 C 0.7855(7) 0.7983(8) 0.2406(6)
C6 C 0.8051(11) 0.7945(12) 0.1562(5)
H4 H 0.81110 0.89480 0.13670
H5 H 0.72160 0.74440 0.13300
H6 H 0.89550 0.74190 0.14380
Cl1 Cl 1.00000 1.00000 0.50000
O1 O 0.8913(8) 1.0697(7) 0.4534(3)
Cl2 Cl 0.50000 0.50000 0.50000
O2 O 0.5996(8) 0.5821(6) 0.4538(4)
C1B C 0.4017(8) 1.0780(8) 0.3980(3)
C2B C 0.1868(11) 1.2347(9) 0.3644(5)
H1B H 0.15190 1.26400 0.41270
N3B N 0.3059(7) 1.1531(7) 0.3504(3)
C3B C 0.405(1) 1.0807(9) 0.4766(3)
H2B H 0.33820 1.14140 0.50330
C4B C 0.1254(8) 1.2677(8) 0.2962(4)
H3B H 0.03950 1.32410 0.28770
N4B N 0.3236(7) 1.1287(6) 0.2727(3)
C5B C 0.2145(7) 1.2017(8) 0.2406(6)
C6B C 0.1949(11) 1.2055(12) 0.1562(5)
H4B H 0.18890 1.10520 0.13670
H5B H 0.27840 1.25560 0.13300
H6B H 0.10450 1.25810 0.14380
N1E N 0.50000 1.00000 0.1403(3)
N2E N 0.50000 1.00000 -0.0147(3)
C1E C 0.4220(8) 0.9017(8) 0.1020(3)
C2E C 0.2653(11) 0.6868(9) 0.1356(5)
H1E H 0.23600 0.65190 0.08730
N3E N 0.3469(7) 0.8059(7) 0.1496(3)
C3E C 0.4193(10) 0.9050(9) 0.0234(3)
H2E H 0.35860 0.83820 -0.00330
C4E C 0.2323(8) 0.6254(8) 0.2038(4)
H3E H 0.17590 0.53950 0.21230
N4E N 0.3713(7) 0.8236(6) 0.2273(3)
C5E C 0.2983(7) 0.7145(8) 0.2594(6)
C6E C 0.2945(11) 0.6949(12) 0.3438(5)
H4E H 0.39480 0.68890 0.36330
H5E H 0.24440 0.77840 0.36700
H6E H 0.24190 0.60450 0.35620
C1G C 0.5780(8) 1.0983(8) 0.1020(3)
C2G C 0.7347(11) 1.3132(9) 0.1356(5)
H1G H 0.76400 1.34810 0.08730
N3G N 0.6531(7) 1.1941(7) 0.1496(3)
C3G C 0.5807(10) 1.0950(9) 0.0234(3)
H2G H 0.64140 1.16180 -0.00330
C4G C 0.7677(8) 1.3746(8) 0.2038(4)
H3G H 0.82410 1.46050 0.21230
N4G N 0.6287(7) 1.1764(6) 0.2273(3)
C5G C 0.7017(7) 1.2855(8) 0.2594(6)
C6G C 0.7055(11) 1.3051(12) 0.3438(5)
H4G H 0.60520 1.31110 0.36330
H5G H 0.75560 1.22160 0.36700
H6G H 0.75810 1.39550 0.35620
O1A O 1.0697(8) 1.1087(7) 0.5466(3)
O1B O 1.1087(8) 0.9303(7) 0.4534(3)
O1C O 0.9303(8) 0.8913(7) 0.5466(3)
O2A O 0.5821(8) 0.4004(6) 0.5462(4)
O2B O 0.4004(8) 0.4179(6) 0.4538(4)
O2C O 0.4179(8) 0.5996(6) 0.5462(4)
#END
