
#######################################################################
#
#                 Cambridge Crystallographic Data Centre
#                                CCDC
#
#######################################################################
#
# If this CIF has been generated from an entry in the Cambridge
# Structural Database, then it will include bibliographic, chemical,
# crystal, experimental, refinement or atomic coordinate data resulting
# from the CCDC's data processing and validation procedures.
#
#######################################################################

data_CSD_CIF_JAFBUO07
_audit_creation_date 2017-10-27
_audit_creation_method CSD-ConQuest-V1
_database_code_CSD JAFBUO07
_database_code_depnum_ccdc_archive 'CCDC 1446440'
_chemical_formula_sum 'C24 H24 Cl2 Fe1 N12 O8'
_chemical_formula_moiety
;
C24 H24 Fe1 N12 2+,2(Cl1 O4 1-)
;
_journal_coden_Cambridge 2031
_journal_volume 2
_journal_year 2016
_journal_page_first 9
_journal_name_full 'Magnetochem. '
loop_
_publ_author_name
"H.J.Shepherd"
"George Tonge"
"L.E.Hatcher"
"M.J.Bryant"
"J.V.Knichal"
"P.R.Raithby"
"M.A.Halcrow"
"R.Kulmaczewski"
"K.J.Gagnon"
"S.J.Teat"
_chemical_name_systematic
;
bis[2,6-bis(3-methyl-1H-pyrazol-1-yl)pyrazine]-iron(ii) diperchlorate
;
_cell_volume   1542.812
_exptl_crystal_colour 'yellow'
_exptl_crystal_density_diffrn 1.583
_exptl_crystal_description 'octahedral'
_diffrn_ambient_temperature 270
_diffrn_special_details
;
twin

;
#These two values have been output from a single CSD field.
_refine_ls_R_factor_gt 0.0557
_refine_ls_wR_factor_gt 0.0557
_symmetry_cell_setting tetragonal
_symmetry_space_group_name_H-M 'I -4'
_symmetry_Int_Tables_number 82
loop_
_symmetry_equiv_pos_site_id
_symmetry_equiv_pos_as_xyz
1 x,y,z
2 y,-x,-z
3 -x,-y,z
4 -y,x,-z
5 1/2+x,1/2+y,1/2+z
6 1/2+y,1/2-x,1/2-z
7 1/2-x,1/2-y,1/2+z
8 1/2-y,1/2+x,1/2-z
_cell_length_a 9.3747(5)
_cell_length_b 9.3747(5)
_cell_length_c 17.5549(16)
_cell_angle_alpha 90
_cell_angle_beta 90
_cell_angle_gamma 90
_cell_formula_units_Z 2
loop_
_atom_type_symbol
_atom_type_radius_bond
C 0.68
H 0.23
Cl 0.99
Fe 1.52
N 0.68
O 0.68
loop_
_atom_site_label
_atom_site_type_symbol
_atom_site_fract_x
_atom_site_fract_y
_atom_site_fract_z
Fe1 Fe 0.50000 1.00000 0.25000
N1 N 0.50000 1.00000 0.3717(3)
N2 N 0.50000 1.00000 0.5275(4)
C1 C 0.5888(13) 0.9177(12) 0.4107(4)
C2 C 0.7809(16) 0.7398(15) 0.3819(5)
H1 H 0.80380 0.70720 0.43040
N3 N 0.6805(9) 0.8397(10) 0.3638(3)
C3 C 0.5894(13) 0.9175(14) 0.4889(4)
H2 H 0.65290 0.85910 0.51510
C4 C 0.8402(13) 0.6978(13) 0.3161(5)
H3 H 0.91550 0.63410 0.31030
N4 N 0.6674(10) 0.8527(10) 0.2865(3)
C5 C 0.7668(9) 0.7681(9) 0.2579(6)
C6 C 0.7874(14) 0.7558(13) 0.1731(6)
H4 H 0.83660 0.83870 0.15470
H5 H 0.69610 0.74870 0.14870
H6 H 0.84260 0.67210 0.16200
Cl1 Cl 1.00000 1.00000 0.50000
O1 O 0.8924(11) 1.0667(10) 0.4559(6)
Cl2 Cl 0.50000 0.50000 0.50000
O2 O 0.462(2) 0.614(2) 0.4610(15)
C1B C 0.4112(13) 1.0823(12) 0.4107(4)
C2B C 0.2191(16) 1.2602(15) 0.3819(5)
H1B H 0.19620 1.29280 0.43040
N3B N 0.3195(9) 1.1603(10) 0.3638(3)
C3B C 0.4106(13) 1.0825(14) 0.4889(4)
H2B H 0.34710 1.14090 0.51510
C4B C 0.1598(13) 1.3022(13) 0.3161(5)
H3B H 0.08450 1.36590 0.31030
N4B N 0.3326(10) 1.1473(10) 0.2865(3)
C5B C 0.2332(9) 1.2319(9) 0.2579(6)
C6B C 0.2126(14) 1.2442(13) 0.1731(6)
H4B H 0.16340 1.16130 0.15470
H5B H 0.30390 1.25130 0.14870
H6B H 0.15740 1.32790 0.16200
N1E N 0.50000 1.00000 0.1283(3)
N2E N 0.50000 1.00000 -0.0275(4)
C1E C 0.4177(13) 0.9112(12) 0.0893(4)
C2E C 0.2398(16) 0.7191(15) 0.1181(5)
H1E H 0.20720 0.69620 0.06960
N3E N 0.3397(9) 0.8195(10) 0.1362(3)
C3E C 0.4175(13) 0.9106(14) 0.0111(4)
H2E H 0.35910 0.84710 -0.01510
C4E C 0.1978(13) 0.6598(13) 0.1839(5)
H3E H 0.13410 0.58450 0.18970
N4E N 0.3527(10) 0.8326(10) 0.2135(3)
C5E C 0.2681(9) 0.7332(9) 0.2421(6)
C6E C 0.2558(14) 0.7126(13) 0.3269(6)
H4E H 0.33870 0.66340 0.34530
H5E H 0.24870 0.80390 0.35130
H6E H 0.17210 0.65740 0.33800
C1G C 0.5823(13) 1.0888(12) 0.0893(4)
C2G C 0.7602(16) 1.2809(15) 0.1181(5)
H1G H 0.79280 1.30380 0.06960
N3G N 0.6603(9) 1.1805(10) 0.1362(3)
C3G C 0.5825(13) 1.0894(14) 0.0111(4)
H2G H 0.64090 1.15290 -0.01510
C4G C 0.8022(13) 1.3402(13) 0.1839(5)
H3G H 0.86590 1.41550 0.18970
N4G N 0.6473(10) 1.1674(10) 0.2135(3)
C5G C 0.7319(9) 1.2668(9) 0.2421(6)
C6G C 0.7442(14) 1.2874(13) 0.3269(6)
H4G H 0.66130 1.33660 0.34530
H5G H 0.75130 1.19610 0.35130
H6G H 0.82790 1.34260 0.33800
O1A O 1.0667(11) 1.1076(10) 0.5441(6)
O1B O 1.1076(11) 0.9333(10) 0.4559(6)
O1C O 0.9333(11) 0.8924(10) 0.5441(6)
O2A O 0.614(2) 0.538(2) 0.5390(15)
O2B O 0.538(2) 0.386(2) 0.4610(15)
O2C O 0.386(2) 0.462(2) 0.5390(15)
#END
