
#######################################################################
#
#                 Cambridge Crystallographic Data Centre
#                                CCDC
#
#######################################################################
#
# If this CIF has been generated from an entry in the Cambridge
# Structural Database, then it will include bibliographic, chemical,
# crystal, experimental, refinement or atomic coordinate data resulting
# from the CCDC's data processing and validation procedures.
#
#######################################################################

data_CSD_CIF_JAFBUO02
_audit_creation_date 2004-04-27
_audit_creation_method CSD-ConQuest-V1
_database_code_CSD JAFBUO02
_database_code_depnum_ccdc_archive 'CCDC 219736'
_chemical_formula_sum 'C24 H24 Cl2 Fe1 N12 O8'
_chemical_formula_moiety
;
C24 H24 Fe1 N12 2+,2(Cl1 O4 1-)
;
_journal_coden_Cambridge 222
_journal_year 2004
_journal_page_first 65
_journal_name_full 'Dalton Trans. '
loop_
_publ_author_name
"V.A.Money"
"J.Elhaik"
"I.R.Evans"
"M.A.Halcrow"
"J.A.K.Howard"
_chemical_name_systematic
;
bis(2,6-Di(3-methylpyrazol-1-yl)pyrazine)-iron(ii) diperchlorate
;
_cell_volume   1504.464
_exptl_crystal_colour 'brown'
_exptl_crystal_density_diffrn 1.623
_exptl_special_details
;
68% low-spin state
isomorphous with the bis(tetrafluoroborate) analogue

;
_exptl_crystal_description 'diamond'
_diffrn_ambient_temperature 180
#These two values have been output from a single CSD field.
_refine_ls_R_factor_gt 0.0277
_refine_ls_wR_factor_gt 0.0277
_symmetry_cell_setting tetragonal
_symmetry_space_group_name_H-M 'I -4'
_symmetry_Int_Tables_number 82
loop_
_symmetry_equiv_pos_site_id
_symmetry_equiv_pos_as_xyz
1 x,y,z
2 -x,-y,z
3 y,-x,-z
4 -y,x,-z
5 1/2+x,1/2+y,1/2+z
6 1/2-x,1/2-y,1/2+z
7 1/2+y,1/2-x,1/2-z
8 1/2-y,1/2+x,1/2-z
_cell_length_a 9.2010(13)
_cell_length_b 9.2010(13)
_cell_length_c 17.771(4)
_cell_angle_alpha 90
_cell_angle_beta 90
_cell_angle_gamma 90
_cell_formula_units_Z 2
loop_
_atom_type_symbol
_atom_type_radius_bond
C 0.68
H 0.23
Cl 0.99
Fe 1.34
N 0.68
O 0.68
loop_
_atom_site_label
_atom_site_type_symbol
_atom_site_fract_x
_atom_site_fract_y
_atom_site_fract_z
Fe1 Fe 0.00000 1.00000 0.50000
N1 N 0.1774(3) 0.8697(3) 0.52621(13)
N2 N 0.1938(3) 0.8484(3) 0.60281(13)
C1 C 0.3047(5) 0.7923(5) 0.4102(2)
H1 H 0.21910 0.75130 0.38770
H2 H 0.38750 0.73370 0.39760
H3 H 0.31890 0.88920 0.39150
C2 C 0.2865(3) 0.7966(3) 0.4944(3)
C3 C 0.3717(4) 0.7288(4) 0.5507(2)
H4 H 0.45360 0.67150 0.54300
C4 C 0.3117(4) 0.7632(4) 0.6178(2)
H5 H 0.34430 0.73440 0.66500
N3 N 0.00000 1.00000 0.61157(13)
N4 N 0.00000 1.00000 0.76661(14)
C5 C 0.0973(3) 0.9221(3) 0.65001(15)
C6 C 0.0959(4) 0.9195(4) 0.72829(15)
H6 H 0.16190 0.86150 0.75410
Cl1 Cl 0.50000 1.00000 0.75000
O1 O 0.4298(3) 0.8910(4) 0.79664(16)
Cl2 Cl 1.00000 0.50000 0.75000
O2 O 1.0982(4) 0.5805(3) 0.70407(19)
N1A N -0.1774(3) 1.1303(3) 0.52621(13)
N2A N -0.1938(3) 1.1516(3) 0.60281(13)
C4A C -0.3117(4) 1.2368(4) 0.6178(2)
C3A C -0.3717(4) 1.2712(4) 0.5507(2)
C2A C -0.2865(3) 1.2034(3) 0.4944(3)
C1A C -0.3047(5) 1.2077(5) 0.4102(2)
H1A H -0.21910 1.24870 0.38770
H2A H -0.38750 1.26630 0.39760
H3A H -0.31890 1.11080 0.39150
H4A H -0.45360 1.32850 0.54300
H5A H -0.34430 1.26560 0.66500
C5A C -0.0973(3) 1.0779(3) 0.65001(15)
C6A C -0.0959(4) 1.0805(4) 0.72829(15)
H6A H -0.16190 1.13850 0.75410
N1B N -0.1303(3) 0.8226(3) 0.47379(13)
N2B N -0.1516(3) 0.8062(3) 0.39719(13)
C4B C -0.2368(4) 0.6883(4) 0.3822(2)
C3B C -0.2712(4) 0.6283(4) 0.4493(2)
C2B C -0.2034(3) 0.7135(3) 0.5056(3)
C1B C -0.2077(5) 0.6953(5) 0.5898(2)
H1B H -0.24870 0.78090 0.61230
H2B H -0.26630 0.61250 0.60240
H3B H -0.11080 0.68110 0.60850
H4B H -0.32850 0.54640 0.45700
H5B H -0.26560 0.65570 0.33500
C5B C -0.0779(3) 0.9027(3) 0.34999(15)
N3B N 0.00000 1.00000 0.38843(13)
N1C N 0.1303(3) 1.1774(3) 0.47379(13)
N2C N 0.1516(3) 1.1938(3) 0.39719(13)
C4C C 0.2368(4) 1.3117(4) 0.3822(2)
C3C C 0.2712(4) 1.3717(4) 0.4493(2)
C2C C 0.2034(3) 1.2865(3) 0.5056(3)
C1C C 0.2077(5) 1.3047(5) 0.5898(2)
H1C H 0.24870 1.21910 0.61230
H2C H 0.26630 1.38750 0.60240
H3C H 0.11080 1.31890 0.60850
H4C H 0.32850 1.45360 0.45700
H5C H 0.26560 1.34430 0.33500
C5C C 0.0779(3) 1.0973(3) 0.34999(15)
C6C C 0.0805(4) 1.0959(4) 0.27171(15)
N4C N 0.00000 1.00000 0.23339(14)
C6B C -0.0805(4) 0.9041(4) 0.27171(15)
H6B H -0.13850 0.83810 0.24590
H6C H 0.13850 1.16190 0.24590
O1A O 0.5702(3) 1.1090(4) 0.79664(16)
O1F O 0.3910(3) 1.0702(4) 0.70336(16)
O1G O 0.6090(3) 0.9298(4) 0.70336(16)
O2A O 0.9018(4) 0.4195(3) 0.70407(19)
O2F O 1.0805(4) 0.4018(3) 0.79593(19)
O2G O 0.9195(4) 0.5982(3) 0.79593(19)
#END
