
#######################################################################
#
#                 Cambridge Crystallographic Data Centre
#                                CCDC
#
#######################################################################
#
# If this CIF has been generated from an entry in the Cambridge
# Structural Database, then it will include bibliographic, chemical,
# crystal, experimental, refinement or atomic coordinate data resulting
# from the CCDC's data processing and validation procedures.
#
#######################################################################

data_CSD_CIF_JAFBUO23
_audit_creation_date 2017-10-27
_audit_creation_method CSD-ConQuest-V1
_database_code_CSD JAFBUO23
_database_code_depnum_ccdc_archive 'CCDC 1446456'
_chemical_formula_sum 'C24 H24 Cl2 Fe1 N12 O8'
_chemical_formula_moiety
;
C24 H24 Fe1 N12 2+,2(Cl1 O4 1-)
;
_journal_coden_Cambridge 2031
_journal_volume 2
_journal_year 2016
_journal_page_first 9
_journal_name_full 'Magnetochem. '
loop_
_publ_author_name
"H.J.Shepherd"
"George Tonge"
"L.E.Hatcher"
"M.J.Bryant"
"J.V.Knichal"
"P.R.Raithby"
"M.A.Halcrow"
"R.Kulmaczewski"
"K.J.Gagnon"
"S.J.Teat"
_chemical_name_systematic
;
bis[2,6-bis(3-methyl-1H-pyrazol-1-yl)pyrazine]-iron(ii) diperchlorate
;
_cell_volume   1472.228
_exptl_crystal_colour 'brown'
_exptl_crystal_density_diffrn 1.659
_exptl_crystal_description 'octahedral'
_diffrn_ambient_temperature 110
_diffrn_special_details
;
twin

;
#These two values have been output from a single CSD field.
_refine_ls_R_factor_gt 0.0428
_refine_ls_wR_factor_gt 0.0428
_symmetry_cell_setting tetragonal
_symmetry_space_group_name_H-M 'I -4'
_symmetry_Int_Tables_number 82
loop_
_symmetry_equiv_pos_site_id
_symmetry_equiv_pos_as_xyz
1 x,y,z
2 y,-x,-z
3 -x,-y,z
4 -y,x,-z
5 1/2+x,1/2+y,1/2+z
6 1/2+y,1/2-x,1/2-z
7 1/2-x,1/2-y,1/2+z
8 1/2-y,1/2+x,1/2-z
_cell_length_a 9.1281(4)
_cell_length_b 9.1281(4)
_cell_length_c 17.6691(11)
_cell_angle_alpha 90
_cell_angle_beta 90
_cell_angle_gamma 90
_cell_formula_units_Z 2
loop_
_atom_type_symbol
_atom_type_radius_bond
C 0.68
H 0.23
Cl 0.99
Fe 1.52
N 0.68
O 0.68
loop_
_atom_site_label
_atom_site_type_symbol
_atom_site_fract_x
_atom_site_fract_y
_atom_site_fract_z
Fe1 Fe 0.50000 1.00000 0.25000
N1 N 0.50000 1.00000 0.3589(3)
N2 N 0.50000 1.00000 0.5144(3)
C1 C 0.5988(7) 0.9217(7) 0.3971(3)
C2 C 0.8131(9) 0.7662(8) 0.3634(4)
H1 H 0.84770 0.73640 0.41170
N3 N 0.6938(6) 0.8482(6) 0.3494(3)
C3 C 0.5967(9) 0.9195(7) 0.4763(3)
H2 H 0.66470 0.86010 0.50310
C4 C 0.8754(8) 0.7336(7) 0.2948(4)
H3 H 0.96150 0.67760 0.28630
N4 N 0.6761(6) 0.8721(5) 0.2718(3)
C5 C 0.7854(6) 0.8001(7) 0.2395(5)
C6 C 0.8042(10) 0.7957(10) 0.1551(4)
H4 H 0.81500 0.89580 0.13580
H5 H 0.71810 0.74990 0.13200
H6 H 0.89190 0.73880 0.14250
Cl1 Cl 1.00000 1.00000 0.50000
O1 O 0.8902(7) 1.0708(6) 0.4535(3)
Cl2 Cl 0.50000 0.50000 0.50000
O2 O 0.5987(7) 0.5815(6) 0.4532(3)
C1B C 0.4012(7) 1.0783(7) 0.3971(3)
C2B C 0.1869(9) 1.2338(8) 0.3634(4)
H1B H 0.15230 1.26360 0.41170
N3B N 0.3062(6) 1.1518(6) 0.3494(3)
C3B C 0.4033(9) 1.0805(7) 0.4763(3)
H2B H 0.33530 1.13990 0.50310
C4B C 0.1246(8) 1.2664(7) 0.2948(4)
H3B H 0.03850 1.32240 0.28630
N4B N 0.3239(6) 1.1279(5) 0.2718(3)
C5B C 0.2146(6) 1.1999(7) 0.2395(5)
C6B C 0.1958(10) 1.2043(10) 0.1551(4)
H4B H 0.18500 1.10420 0.13580
H5B H 0.28190 1.25010 0.13200
H6B H 0.10810 1.26120 0.14250
N1E N 0.50000 1.00000 0.1411(3)
N2E N 0.50000 1.00000 -0.0144(3)
C1E C 0.4217(7) 0.9012(7) 0.1029(3)
C2E C 0.2662(9) 0.6869(8) 0.1366(4)
H1E H 0.23640 0.65230 0.08830
N3E N 0.3482(6) 0.8062(6) 0.1506(3)
C3E C 0.4195(9) 0.9033(7) 0.0237(3)
H2E H 0.36010 0.83530 -0.00310
C4E C 0.2336(8) 0.6246(7) 0.2052(4)
H3E H 0.17760 0.53850 0.21370
N4E N 0.3721(6) 0.8239(5) 0.2282(3)
C5E C 0.3001(6) 0.7146(7) 0.2605(5)
C6E C 0.2957(10) 0.6958(10) 0.3449(4)
H4E H 0.39580 0.68500 0.36420
H5E H 0.24990 0.78190 0.36800
H6E H 0.23880 0.60810 0.35750
C1G C 0.5783(7) 1.0988(7) 0.1029(3)
C2G C 0.7338(9) 1.3131(8) 0.1366(4)
H1G H 0.76360 1.34770 0.08830
N3G N 0.6518(6) 1.1938(6) 0.1506(3)
C3G C 0.5805(9) 1.0967(7) 0.0237(3)
H2G H 0.63990 1.16470 -0.00310
C4G C 0.7664(8) 1.3754(7) 0.2052(4)
H3G H 0.82240 1.46150 0.21370
N4G N 0.6279(6) 1.1761(5) 0.2282(3)
C5G C 0.6999(6) 1.2854(7) 0.2605(5)
C6G C 0.7043(10) 1.3042(10) 0.3449(4)
H4G H 0.60420 1.31500 0.36420
H5G H 0.75010 1.21810 0.36800
H6G H 0.76120 1.39190 0.35750
O1A O 1.0708(7) 1.1098(6) 0.5465(3)
O1B O 1.1098(7) 0.9292(6) 0.4535(3)
O1C O 0.9292(7) 0.8902(6) 0.5465(3)
O2A O 0.5815(7) 0.4013(6) 0.5468(3)
O2B O 0.4013(7) 0.4185(6) 0.4532(3)
O2C O 0.4185(7) 0.5987(6) 0.5468(3)
#END
