
#######################################################################
#
#                 Cambridge Crystallographic Data Centre
#                                CCDC
#
#######################################################################
#
# If this CIF has been generated from an entry in the Cambridge
# Structural Database, then it will include bibliographic, chemical,
# crystal, experimental, refinement or atomic coordinate data resulting
# from the CCDC's data processing and validation procedures.
#
#######################################################################

data_CSD_CIF_JAGKAD
_audit_creation_date 1989-08-09
_audit_creation_method CSD-ConQuest-V1
_database_code_CSD JAGKAD
_database_code_depnum_ccdc_archive 'CCDC 1181899'
_chemical_formula_sum 'C18 H26 Cl1 Co1 N6 O9'
_chemical_formula_moiety
;
C18 H24 Co1 N6 O4 1+,Cl1 O4 1-,H2 O1
;
_journal_coden_Cambridge 211
_journal_volume 17
_journal_year 1988
_journal_page_first 277
_journal_name_full 'J.Coord.Chem. '
loop_
_publ_author_name
"J.A.Chambers"
"T.J.Goodwin"
"P.A.Williams"
"F.S.Stephens"
"R.S.Vagg"
_chemical_name_systematic
;
\L,\b(cis-Dinitro-(N,N'-bis(2-picolyl)-1R,2R-diaminocyclohexane)-cobalt(iii)) 
perchlorate monohydrate
;
_cell_volume    576.965
_exptl_crystal_density_diffrn 1.7
_exptl_special_details
;
Dx reported as 1.70; we calculate 1.63

;
_diffrn_ambient_temperature ?
_diffrn_special_details
;
The study was carried out at room temperature,in the range 283-303K

;
#These two values have been output from a single CSD field.
_refine_ls_R_factor_gt 0.035
_refine_ls_wR_factor_gt 0.035
_symmetry_cell_setting triclinic
_symmetry_space_group_name_H-M 'P 1'
_symmetry_Int_Tables_number 1
loop_
_symmetry_equiv_pos_site_id
_symmetry_equiv_pos_as_xyz
1 x,y,z
_cell_length_a 8.611(2)
_cell_length_b 9.188(1)
_cell_length_c 8.576(1)
_cell_angle_alpha 117.60(1)
_cell_angle_beta 96.40(1)
_cell_angle_gamma 73.69(1)
_cell_formula_units_Z 1
loop_
_atom_type_symbol
_atom_type_radius_bond
C 0.68
H 0.23
Cl 0.99
Co 1.33
N 0.68
O 0.68
loop_
_atom_site_label
_atom_site_type_symbol
_atom_site_fract_x
_atom_site_fract_y
_atom_site_fract_z
Co1 Co 0.50000 0.50000 0.50000
N1 N 0.4197(5) 0.2965(5) 0.3740(6)
N2 N 0.2825(5) 0.6147(5) 0.4566(5)
N3 N 0.5403(5) 0.7268(6) 0.6112(6)
N4 N 0.5956(5) 0.4824(6) 0.2935(6)
N5 N 0.7102(6) 0.3850(7) 0.5487(7)
N6 N 0.4292(5) 0.5339(6) 0.7239(6)
O1 O 0.8329(6) 0.4061(7) 0.5267(9)
O2 O 0.7111(5) 0.2790(7) 0.5995(6)
O3 O 0.4570(5) 0.6548(5) 0.8601(5)
O4 O 0.3602(6) 0.4410(6) 0.7358(5)
C1 C 0.5074(6) 0.1354(6) 0.3029(6)
C2 C 0.4370(7) 0.0014(6) 0.2144(7)
C3 C 0.2699(8) 0.0382(7) 0.1985(7)
C4 C 0.1795(7) 0.2026(7) 0.2703(7)
C5 C 0.2576(5) 0.3314(6) 0.3591(6)
C6 C 0.1686(6) 0.5146(6) 0.4441(7)
C7 C 0.2432(5) 0.7924(5) 0.5947(6)
C8 C 0.3908(6) 0.8530(6) 0.5993(6)
C9 C 0.3758(7) 1.0330(7) 0.7479(7)
C10 C 0.2233(8) 1.1533(7) 0.7246(8)
C11 C 0.0724(7) 1.0907(7) 0.7143(8)
C12 C 0.0912(6) 0.9097(6) 0.5654(7)
C13 C 0.6798(6) 0.7239(7) 0.5195(7)
C14 C 0.6782(5) 0.5991(7) 0.3287(7)
C15 C 0.7605(6) 0.5996(7) 0.2003(7)
C16 C 0.7614(7) 0.4743(8) 0.0269(7)
C17 C 0.6788(7) 0.3540(7) -0.0087(7)
C18 C 0.5953(7) 0.3630(7) 0.1248(7)
H1 H 0.28200 0.61800 0.33900
H2 H 0.57000 0.75700 0.73900
H3 H 0.13100 0.54900 0.56500
H4 H 0.07400 0.53500 0.37100
H5 H 0.78800 0.69600 0.57200
H6 H 0.66600 0.82800 0.50700
H7 H 0.23000 0.79400 0.71100
H8 H 0.40400 0.85400 0.48600
H9 H 0.47200 1.07100 0.74300
H10 H 0.37000 1.03300 0.86300
H11 H 0.21200 1.26900 0.82900
H12 H 0.23600 1.16200 0.61600
H13 H -0.02500 1.17000 0.69200
H14 H 0.05500 1.09300 0.82900
H15 H 0.10400 0.90800 0.44900
H16 H -0.00400 0.86800 0.56200
H17 H 0.62800 0.11400 0.31400
H18 H 0.50500 -0.12100 0.16600
H19 H 0.21400 -0.05600 0.13400
H20 H 0.05900 0.23300 0.25800
H21 H 0.53400 0.27800 0.09500
H22 H 0.67700 0.26500 -0.13200
H23 H 0.82200 0.46800 -0.06800
H24 H 0.82000 0.68800 0.23200
Cl1 Cl 0.8811(2) 0.8653(2) 0.9822(2)
O5 O 0.9163(8) 0.8662(12) 1.1423(9)
O6 O 0.9974(9) 0.7810(15) 0.8606(10)
O7 O 0.7285(7) 0.8538(14) 0.9362(8)
O8 O 0.8730(15) 1.0280(15) 1.0314(26)
O9 O 0.2426(6) 0.6070(6) 1.1168(5)
H25 H 0.14500 0.68100 1.12400
H26 H 0.27500 0.55500 1.00200
#END
