
#######################################################################
#
#                 Cambridge Crystallographic Data Centre
#                                CCDC
#
#######################################################################
#
# If this CIF has been generated from an entry in the Cambridge
# Structural Database, then it will include bibliographic, chemical,
# crystal, experimental, refinement or atomic coordinate data resulting
# from the CCDC's data processing and validation procedures.
#
#######################################################################

data_CSD_CIF_JAGTUH01
_audit_creation_date 2018-08-28
_audit_creation_method CSD-ConQuest-V1
_database_code_CSD JAGTUH01
_database_code_depnum_ccdc_archive 'CCDC 1864187'
_chemical_formula_sum 'C22 H28 Co1 N2 O10'
_chemical_formula_moiety
;
C20 H16 Co1 N2 O6,2(C1 H4 O1),2(H2 O1)
;
_journal_coden_Cambridge 9
_journal_year 2018
_journal_page_first 10761
_journal_name_full 'Inorg.Chem. '
loop_
_publ_author_name
"Zhao-Bo Hu"
"Zhao-Yang Jing"
"Miao-Miao Li"
"Lei Yin"
"Yan-Dong Gao"
"Fei Yu"
"Tuo-Ping Hu"
"Zhenxing Wang"
"You Song"
_chemical_name_systematic
;
diaqua-bis(quinoline-2-carboxylato)-cobalt(ii) methanol solvate dihydrate
;
_cell_volume    609.820
_exptl_crystal_density_diffrn 1.469
_exptl_crystal_description 'block'
_diffrn_ambient_temperature 296
#These two values have been output from a single CSD field.
_refine_ls_R_factor_gt 0.0404
_refine_ls_wR_factor_gt 0.0404
_symmetry_cell_setting triclinic
_symmetry_space_group_name_H-M 'P -1'
_symmetry_Int_Tables_number 2
loop_
_symmetry_equiv_pos_site_id
_symmetry_equiv_pos_as_xyz
1 x,y,z
2 -x,-y,-z
_cell_length_a 7.1287(12)
_cell_length_b 8.9210(15)
_cell_length_c 10.7861(18)
_cell_angle_alpha 76.386(4)
_cell_angle_beta 73.970(4)
_cell_angle_gamma 69.408(4)
_cell_formula_units_Z 1
loop_
_atom_type_symbol
_atom_type_radius_bond
C 0.68
H 0.23
Co 1.26
N 0.68
O 0.68
loop_
_atom_site_label
_atom_site_type_symbol
_atom_site_fract_x
_atom_site_fract_y
_atom_site_fract_z
Co1 Co 0.50000 0.50000 0.50000
O1 O 0.7058(3) 0.4597(2) 0.61212(17)
O2 O 0.9090(3) 0.5582(2) 0.67071(18)
O3 O 0.7313(3) 0.3897(2) 0.34860(18)
H1 H 0.844(3) 0.404(4) 0.345(3)
H2 H 0.695(4) 0.431(4) 0.2762(17)
N1 N 0.5986(3) 0.7217(2) 0.4367(2)
C1 C 0.7895(3) 0.5663(3) 0.6017(2)
C2 C 0.5412(4) 0.8553(3) 0.3453(3)
C3 C 0.7378(4) 0.7149(3) 0.4994(2)
C4 C 0.8314(4) 0.8367(3) 0.4776(3)
H3 H 0.92880 0.82600 0.52400
C5 C 0.3915(4) 0.8667(3) 0.2772(3)
H4 H 0.33140 0.78470 0.29490
C6 C 0.6283(4) 0.9835(3) 0.3175(3)
C7 C 0.7770(4) 0.9704(3) 0.3873(3)
H5 H 0.83680 1.05230 0.37170
C8 C 0.5641(4) 1.1196(3) 0.2224(3)
H6 H 0.61940 1.20440 0.20470
C9 C 0.4219(5) 1.1266(4) 0.1571(3)
H7 H 0.38180 1.21540 0.09420
C10 C 0.3357(5) 0.9994(4) 0.1849(3)
H8 H 0.23870 1.00550 0.13980
O4 O 0.6253(3) 0.5375(3) 0.1170(2)
H9 H 0.4973(18) 0.575(5) 0.117(3)
H10 H 0.687(4) 0.497(4) 0.047(2)
O5 O 0.8056(3) 0.3804(3) 0.90285(19)
H11 H 0.84020 0.43590 0.83380
C11 C 0.9728(5) 0.2414(5) 0.9258(4)
H12 H 1.08760 0.27410 0.92570
H13 H 1.00980 0.17640 0.85830
H14 H 0.93460 0.17950 1.00890
O1A O 0.2942(3) 0.5403(2) 0.38788(17)
O2A O 0.0910(3) 0.4418(2) 0.32929(18)
O3A O 0.2687(3) 0.6103(2) 0.65140(18)
H1A H 0.156(3) 0.596(4) 0.655(3)
H2A H 0.305(4) 0.569(4) 0.7238(17)
N1A N 0.4014(3) 0.2783(2) 0.5633(2)
C1A C 0.2105(3) 0.4337(3) 0.3983(2)
C2A C 0.4588(4) 0.1447(3) 0.6547(3)
C3A C 0.2622(4) 0.2851(3) 0.5006(2)
C4A C 0.1686(4) 0.1633(3) 0.5224(3)
H3A H 0.07120 0.17400 0.47600
C5A C 0.6085(4) 0.1333(3) 0.7228(3)
H4A H 0.66860 0.21530 0.70510
C6A C 0.3717(4) 0.0165(3) 0.6825(3)
C7A C 0.2230(4) 0.0296(3) 0.6127(3)
H5A H 0.16320 -0.05230 0.62830
C8A C 0.4359(4) -0.1196(3) 0.7776(3)
H6A H 0.38060 -0.20440 0.79530
C9A C 0.5781(5) -0.1266(4) 0.8429(3)
H7A H 0.61820 -0.21540 0.90580
C10A C 0.6643(5) 0.0006(4) 0.8151(3)
H8A H 0.76130 -0.00550 0.86020
#END
