
#######################################################################
#
#                 Cambridge Crystallographic Data Centre
#                                CCDC
#
#######################################################################
#
# If this CIF has been generated from an entry in the Cambridge
# Structural Database, then it will include bibliographic, chemical,
# crystal, experimental, refinement or atomic coordinate data resulting
# from the CCDC's data processing and validation procedures.
#
#######################################################################

data_CSD_CIF_JAHBID
_audit_creation_date 1989-09-22
_audit_creation_method CSD-ConQuest-V1
_database_code_CSD JAHBID
_chemical_formula_sum 'C20 H48 Br2 Mn1 P4'
_chemical_formula_moiety
;
C20 H48 Br2 Mn1 P4
;
_journal_coden_Cambridge 155
_journal_volume 150
_journal_year 1988
_journal_page_first 11
_journal_name_full 'Inorg.Chim.Acta '
loop_
_publ_author_name
"V.B.Kulkarni"
"R.Govind"
_chemical_name_systematic
;
trans-Dibromo-(bis(diethylphosphino)ethane-P,P')-manganese(ii)
;
_cell_volume    735.480
_exptl_crystal_colour 'colorless'
_exptl_crystal_density_diffrn 1.42
_exptl_special_details
;
Air-sensitive

;
_diffrn_ambient_temperature ?
_diffrn_special_details
;
The study was carried out at room temperature,in the range 283-303K

;
#These two values have been output from a single CSD field.
_refine_ls_R_factor_gt 0.029
_refine_ls_wR_factor_gt 0.029
_symmetry_cell_setting triclinic
_symmetry_space_group_name_H-M 'P -1'
_symmetry_Int_Tables_number 2
loop_
_symmetry_equiv_pos_site_id
_symmetry_equiv_pos_as_xyz
1 x,y,z
2 -x,-y,-z
_cell_length_a 8.155(1)
_cell_length_b 8.794(2)
_cell_length_c 10.962(2)
_cell_angle_alpha 105.64(2)
_cell_angle_beta 97.51(2)
_cell_angle_gamma 98.92(1)
_cell_formula_units_Z 1
loop_
_atom_type_symbol
_atom_type_radius_bond
C 0.68
H 0.23
Br 1.21
Mn 1.35
P 1.05
loop_
_atom_site_label
_atom_site_type_symbol
_atom_site_fract_x
_atom_site_fract_y
_atom_site_fract_z
Mn1 Mn 0.00000 0.00000 0.00000
Br1 Br -0.22191(5) 0.19160(5) 0.01433(5)
P1 P 0.1574(1) 0.1560(1) -0.1487(1)
P2 P 0.2137(1) 0.2506(1) 0.1769(1)
C1 C 0.0394(6) 0.2686(5) -0.2357(5)
C2 C -0.1069(6) 0.1633(6) -0.3347(6)
C3 C 0.2745(6) 0.0516(6) -0.2650(5)
C4 C 0.3995(7) 0.1517(7) -0.3171(6)
C5 C 0.3233(6) 0.3191(5) -0.0371(5)
C6 C 0.2655(6) 0.3934(5) 0.0865(5)
C7 C 0.1472(7) 0.3852(5) 0.3132(5)
C8 C 0.1177(9) 0.3127(7) 0.4195(6)
C9 C 0.4166(6) 0.2164(6) 0.2427(5)
C10 C 0.5549(7) 0.3636(7) 0.3157(6)
H1 H 0.11480 0.32280 -0.27790
H2 H -0.00220 0.34680 -0.17440
H3 H -0.16360 0.22820 -0.37690
H4 H -0.18400 0.10910 -0.29370
H5 H -0.06700 0.08500 -0.39710
H6 H 0.19310 -0.01860 -0.33730
H7 H 0.33590 -0.01160 -0.22410
H8 H 0.45160 0.08180 -0.37670
H9 H 0.48460 0.22190 -0.24720
H10 H 0.34180 0.21490 -0.36040
H11 H 0.35190 0.40100 -0.07780
H12 H 0.42110 0.27570 -0.01750
H13 H 0.35400 0.48000 0.13980
H14 H 0.16680 0.43520 0.06610
H15 H 0.04410 0.41310 0.28150
H16 H 0.23340 0.48090 0.34800
H17 H 0.08350 0.38920 0.48700
H18 H 0.22000 0.28510 0.45300
H19 H 0.03070 0.21740 0.38650
H20 H 0.45970 0.15470 0.17200
H21 H 0.39630 0.15420 0.30090
H22 H 0.65460 0.32870 0.34500
H23 H 0.51670 0.42700 0.38840
H24 H 0.58010 0.42750 0.25950
Br1A Br 0.22191(5) -0.19160(5) -0.01433(5)
P1A P -0.1574(1) -0.1560(1) 0.1487(1)
P2A P -0.2137(1) -0.2506(1) -0.1769(1)
C1A C -0.0394(6) -0.2686(5) 0.2357(5)
C3A C -0.2745(6) -0.0516(6) 0.2650(5)
C5A C -0.3233(6) -0.3191(5) 0.0371(5)
C6A C -0.2655(6) -0.3934(5) -0.0865(5)
C7A C -0.1472(7) -0.3852(5) -0.3132(5)
C9A C -0.4166(6) -0.2164(6) -0.2427(5)
C2A C 0.1069(6) -0.1633(6) 0.3347(6)
H1A H -0.11480 -0.32280 0.27790
H2A H 0.00220 -0.34680 0.17440
C4A C -0.3995(7) -0.1517(7) 0.3171(6)
H6A H -0.19310 0.01860 0.33730
H7A H -0.33590 0.01160 0.22410
H11A H -0.35190 -0.40100 0.07780
H12A H -0.42110 -0.27570 0.01750
H13A H -0.35400 -0.48000 -0.13980
H14A H -0.16680 -0.43520 -0.06610
C8A C -0.1177(9) -0.3127(7) -0.4195(6)
H15A H -0.04410 -0.41310 -0.28150
H16A H -0.23340 -0.48090 -0.34800
C10A C -0.5549(7) -0.3636(7) -0.3157(6)
H20A H -0.45970 -0.15470 -0.17200
H21A H -0.39630 -0.15420 -0.30090
H3A H 0.16360 -0.22820 0.37690
H4A H 0.18400 -0.10910 0.29370
H5A H 0.06700 -0.08500 0.39710
H8A H -0.45160 -0.08180 0.37670
H9A H -0.48460 -0.22190 0.24720
H10A H -0.34180 -0.21490 0.36040
H17A H -0.08350 -0.38920 -0.48700
H18A H -0.22000 -0.28510 -0.45300
H19A H -0.03070 -0.21740 -0.38650
H22A H -0.65460 -0.32870 -0.34500
H23A H -0.51670 -0.42700 -0.38840
H24A H -0.58010 -0.42750 -0.25950
#END
