
#######################################################################
#
#                 Cambridge Crystallographic Data Centre
#                                CCDC
#
#######################################################################
#
# If this CIF has been generated from an entry in the Cambridge
# Structural Database, then it will include bibliographic, chemical,
# crystal, experimental, refinement or atomic coordinate data resulting
# from the CCDC's data processing and validation procedures.
#
#######################################################################

data_CSD_CIF_JAHZOK
_audit_creation_date 2017-01-26
_audit_creation_method CSD-ConQuest-V1
_database_code_CSD JAHZOK
_database_code_depnum_ccdc_archive 'CCDC 1405141'
_chemical_formula_sum 'C16 H36 Cl2 Co1 N6 O14 P2'
_chemical_formula_moiety
;
C16 H28 Co1 N6 O10 P2 2+,4(H2 O1),2(Cl1 1-)
;
_journal_coden_Cambridge 1094
_journal_volume 27
_journal_year 2016
_journal_page_first 1413
_journal_name_full 'Struct.Chem. '
loop_
_publ_author_name
"I.Shatrava"
"V.Ovchynnikov"
"K.Gubina"
"S.Shishkina"
"Oleg Shishkin"
"V.Amirkhanov"
_chemical_name_systematic
;
diaqua-bis(dimethyl N-((pyridin-2-yl)carbamoyl)phosphoramidate)-cobalt(ii) 
bis(chloride) tetrahydrate
;
_cell_volume    800.162
_exptl_crystal_colour 'violet'
_exptl_crystal_density_diffrn 1.511
_exptl_crystal_description 'block'
_diffrn_ambient_temperature 293
#These two values have been output from a single CSD field.
_refine_ls_R_factor_gt 0.0441
_refine_ls_wR_factor_gt 0.0441
_symmetry_cell_setting triclinic
_symmetry_space_group_name_H-M 'P -1'
_symmetry_Int_Tables_number 2
loop_
_symmetry_equiv_pos_site_id
_symmetry_equiv_pos_as_xyz
1 x,y,z
2 -x,-y,-z
_cell_length_a 7.6300(13)
_cell_length_b 10.559(2)
_cell_length_c 10.779(3)
_cell_angle_alpha 96.95(2)
_cell_angle_beta 107.11(2)
_cell_angle_gamma 100.976(16)
_cell_formula_units_Z 1
loop_
_atom_type_symbol
_atom_type_radius_bond
C 0.68
H 0.23
Cl 0.99
Co 1.26
N 0.68
O 0.68
P 1.05
loop_
_atom_site_label
_atom_site_type_symbol
_atom_site_fract_x
_atom_site_fract_y
_atom_site_fract_z
Co1 Co 1.00000 0.50000 0.00000
P1 P 0.66741(10) 0.46033(8) 0.32633(8)
N1 N 0.7697(4) 0.3469(3) 0.2754(3)
H1 H 0.75000 0.27180 0.29880
N2 N 0.9392(4) 0.2575(3) 0.1604(3)
H2 H 0.88420 0.18580 0.17720
N3 N 1.1151(3) 0.3327(2) 0.0245(2)
O1 O 0.9313(3) 0.4745(2) 0.1708(2)
O2 O 0.5660(4) 0.3888(3) 0.4124(3)
O3 O 0.8357(3) 0.5690(3) 0.4205(3)
O4 O 0.5393(3) 0.5069(3) 0.2230(3)
C1 C 1.2481(4) 0.3162(3) -0.0326(3)
H3 H 1.28180 0.37750 -0.08180
C2 C 1.3353(5) 0.2137(4) -0.0215(4)
H4 H 1.42470 0.20550 -0.06300
C3 C 1.2884(6) 0.1244(4) 0.0513(4)
H5 H 1.34390 0.05330 0.05900
C4 C 1.1574(6) 0.1401(4) 0.1140(4)
H6 H 1.12570 0.08130 0.16600
C5 C 1.0745(4) 0.2457(3) 0.0973(3)
C6 C 0.8836(4) 0.3668(3) 0.1984(3)
C7 C 0.6693(9) 0.3552(8) 0.5347(6)
H7 H 0.75560 0.30500 0.51860
H8 H 0.58230 0.30410 0.56880
H9 H 0.73860 0.43410 0.59800
C8 C 0.8305(9) 0.7019(5) 0.4381(9)
H10 H 0.74420 0.71510 0.48490
H11 H 0.78950 0.72670 0.35340
H12 H 0.95440 0.75470 0.48810
O5 O 1.2602(3) 0.6192(2) 0.1072(2)
H13 H 1.27150 0.68350 0.16130
H14 H 1.33630 0.57960 0.14180
Cl1 Cl 0.74923(14) 0.04825(9) 0.30577(11)
O6 O 1.3330(5) 0.8669(3) 0.2294(4)
H15 H 1.44510 0.90720 0.25580
H16 H 1.29530 0.88510 0.29220
O7 O 1.1564(6) 0.9774(5) 0.3891(4)
H17 H 1.16430 0.96200 0.46450
H18 H 1.05190 0.99560 0.36570
P1A P 1.33259(10) 0.53967(8) -0.32633(8)
N1A N 1.2303(4) 0.6531(3) -0.2754(3)
H1A H 1.25000 0.72820 -0.29880
N2A N 1.0608(4) 0.7425(3) -0.1604(3)
H2A H 1.11580 0.81420 -0.17720
N3A N 0.8849(3) 0.6673(2) -0.0245(2)
O1A O 1.0687(3) 0.5255(2) -0.1708(2)
O2A O 1.4340(4) 0.6112(3) -0.4124(3)
O3A O 1.1643(3) 0.4310(3) -0.4205(3)
O4A O 1.4607(3) 0.4931(3) -0.2230(3)
C1A C 0.7519(4) 0.6838(3) 0.0326(3)
H3A H 0.71820 0.62250 0.08180
C2A C 0.6647(5) 0.7863(4) 0.0215(4)
H4A H 0.57530 0.79450 0.06300
C3A C 0.7116(6) 0.8756(4) -0.0513(4)
H5A H 0.65610 0.94670 -0.05900
C4A C 0.8426(6) 0.8599(4) -0.1140(4)
H6A H 0.87430 0.91870 -0.16600
C5A C 0.9255(4) 0.7543(3) -0.0973(3)
C6A C 1.1164(4) 0.6332(3) -0.1984(3)
C7A C 1.3307(9) 0.6448(8) -0.5347(6)
H7A H 1.24440 0.69500 -0.51860
H8A H 1.41770 0.69590 -0.56880
H9A H 1.26140 0.56590 -0.59800
C8A C 1.1695(9) 0.2981(5) -0.4381(9)
H10A H 1.25580 0.28490 -0.48490
H11A H 1.21050 0.27330 -0.35340
H12A H 1.04560 0.24530 -0.48810
O5A O 0.7398(3) 0.3808(2) -0.1072(2)
H13A H 0.72850 0.31650 -0.16130
H14A H 0.66370 0.42040 -0.14180
#END
