
#######################################################################
#
#                 Cambridge Crystallographic Data Centre
#                                CCDC
#
#######################################################################
#
# If this CIF has been generated from an entry in the Cambridge
# Structural Database, then it will include bibliographic, chemical,
# crystal, experimental, refinement or atomic coordinate data resulting
# from the CCDC's data processing and validation procedures.
#
#######################################################################

data_CSD_CIF_JAJFIJ
_audit_creation_date 1989-10-10
_audit_creation_method CSD-ConQuest-V1
_database_code_CSD JAJFIJ
_chemical_formula_sum 'C11 H9 Cr1 F1 O3'
_chemical_formula_moiety
;
C11 H9 Cr1 F1 O3
;
_journal_coden_Cambridge 36
_journal_volume 363
_journal_year 1989
_journal_page_first 297
_journal_name_full 'J.Organomet.Chem. '
loop_
_publ_author_name
"F.Rose-Munch"
"E.Rose"
"A.Semra"
"L.Mignon"
"J.Garcia-Oricain"
_chemical_name_systematic
;
(\h^6^-2,6-Dimethylfluorobenzene)-tricarbonyl-chromium
;
_chemical_melting_point 353.15
_cell_volume    541.983
_exptl_crystal_colour 'yellow'
_exptl_crystal_density_diffrn 1.59
_diffrn_ambient_temperature ?
_diffrn_special_details
;
The study was carried out at room temperature,in the range 283-303K

;
#These two values have been output from a single CSD field.
_refine_ls_R_factor_gt 0.023
_refine_ls_wR_factor_gt 0.023
_symmetry_cell_setting triclinic
_symmetry_space_group_name_H-M 'P -1'
_symmetry_Int_Tables_number 2
loop_
_symmetry_equiv_pos_site_id
_symmetry_equiv_pos_as_xyz
1 x,y,z
2 -x,-y,-z
_cell_length_a 6.517(2)
_cell_length_b 7.122(3)
_cell_length_c 11.945(6)
_cell_angle_alpha 89.56(4)
_cell_angle_beta 89.08(3)
_cell_angle_gamma 77.88(3)
_cell_formula_units_Z 2
loop_
_atom_type_symbol
_atom_type_radius_bond
C 0.68
H 0.23
Cr 1.35
F 0.64
O 0.68
loop_
_atom_site_label
_atom_site_type_symbol
_atom_site_fract_x
_atom_site_fract_y
_atom_site_fract_z
Cr1 Cr 0.03301(5) 0.25423(5) 0.25344(3)
F1 F 0.2179(2) 0.6245(2) 0.1752(1)
O1 O -0.3089(3) 0.6022(3) 0.2803(2)
O2 O -0.1970(3) 0.0450(3) 0.4137(2)
O3 O -0.2055(3) 0.1262(3) 0.0676(2)
C1 C 0.2565(3) 0.4405(3) 0.2120(2)
C2 C 0.2876(3) 0.2957(3) 0.1328(2)
C3 C 0.3305(4) 0.1058(4) 0.1746(2)
C4 C 0.3422(4) 0.0694(4) 0.2889(3)
C5 C 0.3047(4) 0.2211(4) 0.3654(2)
C6 C 0.2604(3) 0.4115(3) 0.3286(2)
C7 C 0.2837(5) 0.3366(5) 0.0090(2)
C8 C 0.2242(5) 0.5781(5) 0.4080(3)
C9 C -0.1780(4) 0.4667(4) 0.2697(2)
C10 C -0.1070(4) 0.1253(3) 0.3523(2)
C11 C -0.1132(4) 0.1740(4) 0.1395(2)
H1 H 0.349(4) 0.006(4) 0.123(2)
H2 H 0.368(4) -0.055(4) 0.315(2)
H3 H 0.306(4) 0.191(4) 0.439(2)
H4 H 0.419(5) 0.340(4) -0.022(2)
H5 H 0.207(5) 0.459(4) -0.011(2)
H6 H 0.228(5) 0.250(4) -0.029(2)
H7 H 0.353(5) 0.638(4) 0.413(2)
H8 H 0.123(5) 0.679(4) 0.382(2)
H9 H 0.193(4) 0.540(4) 0.480(3)
#END
