
#######################################################################
#
#                 Cambridge Crystallographic Data Centre
#                                CCDC
#
#######################################################################
#
# If this CIF has been generated from an entry in the Cambridge
# Structural Database, then it will include bibliographic, chemical,
# crystal, experimental, refinement or atomic coordinate data resulting
# from the CCDC's data processing and validation procedures.
#
#######################################################################

data_CSD_CIF_JALYOK10
_audit_creation_date 1993-10-19
_audit_creation_method CSD-ConQuest-V1
_database_code_CSD JALYOK10
_database_code_depnum_ccdc_fiz 'CSD 53429'
_chemical_formula_sum 'C17 H13 Fe1 N1 O4'
_chemical_formula_moiety
;
C17 H13 Fe1 N1 O4
;
_journal_coden_Cambridge 16
_journal_volume 49
_journal_year 1993
_journal_page_first 841
_journal_name_full 'Tetrahedron '
loop_
_publ_author_name
"H.-J.Knolker"
"M.Bauermeister"
"J.-B.Pannek"
"D.Blaser"
"R.Boese"
_chemical_name_systematic
;
Tricarbonyl-((5,6,7,8-\h)-4b,8a-dihydro-1,2-dimethylcarbazol-3-one)-iron
;
_chemical_melting_point 471.15
_cell_volume    743.554
_exptl_crystal_colour 'yellow'
_exptl_crystal_density_diffrn 1.58
_exptl_special_details
;
Melts with decomposition.
CSD 53429 not available

;
_diffrn_ambient_temperature 120
#These two values have been output from a single CSD field.
_refine_ls_R_factor_gt 0.051
_refine_ls_wR_factor_gt 0.051
_symmetry_cell_setting triclinic
_symmetry_space_group_name_H-M 'P -1'
_symmetry_Int_Tables_number 2
loop_
_symmetry_equiv_pos_site_id
_symmetry_equiv_pos_as_xyz
1 x,y,z
2 -x,-y,-z
_cell_length_a 7.697(4)
_cell_length_b 9.305(5)
_cell_length_c 11.467(6)
_cell_angle_alpha 107.92(4)
_cell_angle_beta 100.53(4)
_cell_angle_gamma 100.32(4)
_cell_formula_units_Z 2
loop_
_atom_type_symbol
_atom_type_radius_bond
C 0.68
H 0.23
Fe 1.34
N 0.68
O 0.68
loop_
_atom_site_label
_atom_site_type_symbol
_atom_site_fract_x
_atom_site_fract_y
_atom_site_fract_z
Fe1 Fe 0.4235(1) 0.6471(1) 0.3167(1)
N1 N 0.1096(5) 0.3188(4) -0.0425(3)
O1 O 0.7281(5) 0.7239(4) 0.5401(3)
O2 O 0.4520(5) 0.9765(4) 0.3509(3)
O3 O 0.0943(5) 0.5827(4) 0.4054(3)
O4 O 0.3017(5) -0.2067(4) -0.0535(3)
C1 C 0.6063(7) 0.6937(5) 0.4533(5)
C2 C 0.4442(7) 0.8482(5) 0.3375(4)
C3 C 0.2268(7) 0.6112(5) 0.3736(4)
C4 C 0.2657(6) 0.5699(5) 0.1279(4)
C5 C 0.4542(7) 0.5854(5) 0.1351(4)
C6 C 0.5388(6) 0.4976(5) 0.1977(4)
C7 C 0.4223(6) 0.4093(5) 0.2477(4)
C8 C 0.2293(6) 0.3167(5) 0.1696(4)
C9 C 0.2265(6) 0.1697(5) 0.0655(4)
C10 C 0.2741(6) 0.0395(5) 0.0668(5)
C11 C 0.2597(6) -0.0851(5) -0.0533(5)
C12 C 0.1936(6) -0.0610(5) -0.1750(4)
C13 C 0.1436(6) 0.0699(5) -0.1762(4)
C14 C 0.1558(6) 0.1898(5) -0.0543(4)
C15 C 0.1409(6) 0.4094(5) 0.0950(4)
C16 C 0.0686(7) 0.1001(6) -0.2950(4)
C17 C 0.1887(7) -0.1925(5) -0.2934(5)
H1 H 0.21240 0.64450 0.10220
H2 H 0.52290 0.65950 0.10760
H3 H 0.66830 0.50750 0.21490
H4 H 0.48020 0.36970 0.30830
H5 H 0.15640 0.29230 0.22380
H6 H 0.32010 0.02770 0.14600
H7 H 0.02600 0.41930 0.11390
H8 H 0.05370 0.20430 -0.27740
H9 H -0.04450 0.02660 -0.34590
H10 H 0.16170 0.08700 -0.34000
H11 H 0.16010 -0.28970 -0.27960
H12 H 0.30450 -0.17880 -0.31410
H13 H 0.09570 -0.19320 -0.36210
#END
