
#######################################################################
#
#                 Cambridge Crystallographic Data Centre
#                                CCDC
#
#######################################################################
#
# If this CIF has been generated from an entry in the Cambridge
# Structural Database, then it will include bibliographic, chemical,
# crystal, experimental, refinement or atomic coordinate data resulting
# from the CCDC's data processing and validation procedures.
#
#######################################################################

data_CSD_CIF_JAMKUE
_audit_creation_date 2005-03-21
_audit_creation_method CSD-ConQuest-V1
_database_code_CSD JAMKUE
_database_code_depnum_ccdc_archive 'CCDC 233523'
_chemical_formula_sum 'C20 H24 Mn1 N14'
_chemical_formula_moiety
;
C20 H24 Mn1 N14
;
_journal_coden_Cambridge 580
_journal_volume 23
_journal_year 2004
_journal_page_first 2349
_journal_name_full 'Polyhedron '
loop_
_publ_author_name
"M.A.S.Goher"
"A.K.Hafez"
"M.A.M.Abu-Youssef"
"A.M.A.Badr"
"C.Gspan"
"F.A.Mautner"
_chemical_name_systematic
;
trans-Diazido-tetrakis(3-aminopyridine)-manganese(ii)
;
_cell_volume    599.289
_exptl_crystal_colour 'brown'
_exptl_crystal_density_diffrn 1.428
_exptl_crystal_description 'irregular'
_diffrn_ambient_temperature 90
#These two values have been output from a single CSD field.
_refine_ls_R_factor_gt 0.0348
_refine_ls_wR_factor_gt 0.0348
_symmetry_cell_setting triclinic
_symmetry_space_group_name_H-M 'P -1'
_symmetry_Int_Tables_number 2
loop_
_symmetry_equiv_pos_site_id
_symmetry_equiv_pos_as_xyz
1 x,y,z
2 -x,-y,-z
_cell_length_a 7.609(2)
_cell_length_b 8.795(2)
_cell_length_c 9.640(2)
_cell_angle_alpha 91.60(2)
_cell_angle_beta 101.26(2)
_cell_angle_gamma 107.93(2)
_cell_formula_units_Z 1
loop_
_atom_type_symbol
_atom_type_radius_bond
C 0.68
H 0.23
Mn 1.35
N 0.68
loop_
_atom_site_label
_atom_site_type_symbol
_atom_site_fract_x
_atom_site_fract_y
_atom_site_fract_z
Mn1 Mn 0.50000 0.00000 0.50000
N1 N 0.1969(3) -0.1290(2) 0.4857(2)
N2 N 0.0836(3) -0.2285(2) 0.3994(2)
N3 N -0.0300(3) -0.3265(2) 0.3169(2)
N4 N 0.4183(3) 0.2185(2) 0.4171(2)
C1 C 0.2386(3) 0.2180(3) 0.3866(2)
H1 H 0.14660 0.13170 0.41040
C2 C 0.1816(3) 0.3397(3) 0.3209(2)
C3 C 0.3217(3) 0.4683(3) 0.2857(2)
H2 H 0.29050 0.55170 0.24090
C4 C 0.5062(3) 0.4698(3) 0.3182(2)
H3 H 0.60140 0.55500 0.29620
C5 C 0.5498(3) 0.3446(3) 0.3837(2)
H4 H 0.67560 0.34780 0.40550
N5 N -0.0071(3) 0.3287(2) 0.2881(2)
N6 N 0.4760(3) -0.0817(2) 0.2684(2)
C6 C 0.6079(3) -0.1326(3) 0.2270(2)
H5 H 0.71910 -0.12170 0.29280
C7 C 0.5871(3) -0.2014(3) 0.0900(2)
C8 C 0.4182(4) -0.2176(3) -0.0060(2)
H6 H 0.39670 -0.26500 -0.09780
C9 C 0.2834(3) -0.1633(3) 0.0355(3)
H7 H 0.17100 -0.17230 -0.02820
C10 C 0.3170(3) -0.0954(3) 0.1727(2)
H8 H 0.22600 -0.05770 0.19990
N7 N 0.7314(3) -0.2447(3) 0.0515(2)
H9 H -0.02530 0.42470 0.28370
H10 H 0.69850 -0.31100 -0.03060
H11 H -0.08440 0.25460 0.33200
H12 H 0.81810 -0.26740 0.11960
N1A N 0.8031(3) 0.1290(2) 0.5143(2)
N2A N 0.9164(3) 0.2285(2) 0.6006(2)
N3A N 1.0300(3) 0.3265(2) 0.6831(2)
N4A N 0.5817(3) -0.2185(2) 0.5829(2)
C1A C 0.7614(3) -0.2180(3) 0.6134(2)
H1A H 0.85340 -0.13170 0.58960
C2A C 0.8184(3) -0.3397(3) 0.6791(2)
C3A C 0.6783(3) -0.4683(3) 0.7143(2)
H2A H 0.70950 -0.55170 0.75910
C4A C 0.4938(3) -0.4698(3) 0.6818(2)
H3A H 0.39860 -0.55500 0.70380
C5A C 0.4502(3) -0.3446(3) 0.6163(2)
H4A H 0.32440 -0.34780 0.59450
N5A N 1.0071(3) -0.3287(2) 0.7119(2)
H9A H 1.02530 -0.42470 0.71630
H11A H 1.08440 -0.25460 0.66800
N6A N 0.5240(3) 0.0817(2) 0.7316(2)
C6A C 0.3921(3) 0.1326(3) 0.7730(2)
H5A H 0.28090 0.12170 0.70720
C7A C 0.4129(3) 0.2014(3) 0.9100(2)
C8A C 0.5818(4) 0.2176(3) 1.0060(2)
H6A H 0.60330 0.26500 1.09780
C9A C 0.7166(3) 0.1633(3) 0.9645(3)
H7A H 0.82900 0.17230 1.02820
C10A C 0.6830(3) 0.0954(3) 0.8273(2)
H8A H 0.77400 0.05770 0.80010
N7A N 0.2686(3) 0.2447(3) 0.9485(2)
H10A H 0.30150 0.31100 1.03060
H12A H 0.18190 0.26740 0.88040
#END
