
#######################################################################
#
#                 Cambridge Crystallographic Data Centre
#                                CCDC
#
#######################################################################
#
# If this CIF has been generated from an entry in the Cambridge
# Structural Database, then it will include bibliographic, chemical,
# crystal, experimental, refinement or atomic coordinate data resulting
# from the CCDC's data processing and validation procedures.
#
#######################################################################

data_CSD_CIF_JATTEE
_audit_creation_date 2006-01-09
_audit_creation_method CSD-ConQuest-V1
_database_code_CSD JATTEE
_database_code_depnum_ccdc_archive 'CCDC 265456'
_chemical_formula_sum 'C26 H38 Fe1 N4 O6'
_chemical_formula_moiety
;
C26 H38 Fe1 N4 O6
;
_journal_coden_Cambridge 177
_journal_volume 3
_journal_year 2005
_journal_page_first 3018
_journal_name_full 'Org.Biomol.Chem. '
loop_
_publ_author_name
"S.Chowdhury"
"K.A.Mahmoud"
"G.Schatte"
"H.-B.Kraatz"
_chemical_name_systematic
;
1,1'-bis(t-Butoxycarbonyl-L-alanine-amido)ferrocene
;
_cell_volume   1421.537
_exptl_crystal_colour 'yellow'
_exptl_crystal_density_diffrn 1.305
_exptl_crystal_description 'square'
_exptl_crystal_preparation 'chloroform/hexanes'
_diffrn_ambient_temperature 173
#These two values have been output from a single CSD field.
_refine_ls_R_factor_gt 0.0346
_refine_ls_wR_factor_gt 0.0346
loop_
_citation_database_id_CSD
_citation_special_details
JAYYEO "is a stereoisomer of this entry"
_symmetry_cell_setting monoclinic
_symmetry_space_group_name_H-M 'C 2'
_symmetry_Int_Tables_number 5
loop_
_symmetry_equiv_pos_site_id
_symmetry_equiv_pos_as_xyz
1 x,y,z
2 -x,y,-z
3 1/2+x,1/2+y,z
4 1/2-x,1/2+y,-z
_cell_length_a 15.4790(3)
_cell_length_b 9.3420(3)
_cell_length_c 11.0400(3)
_cell_angle_alpha 90
_cell_angle_beta 117.071(2)
_cell_angle_gamma 90
_cell_formula_units_Z 2
loop_
_atom_type_symbol
_atom_type_radius_bond
C 0.68
H 0.23
Fe 1.34
N 0.68
O 0.68
loop_
_atom_site_label
_atom_site_type_symbol
_atom_site_fract_x
_atom_site_fract_y
_atom_site_fract_z
Fe1 Fe 0.00000 0.29193(2) 0.00000
O1 O 0.18569(9) 0.55835(14) -0.02474(14)
O2 O 0.1354(1) 0.74324(14) 0.17325(14)
O3 O 0.25441(10) 0.91279(14) 0.24656(13)
N1 N 0.02054(10) 0.56661(14) -0.14226(14)
H1 H -0.02840 0.62650 -0.18110
N2 N 0.18035(11) 0.85584(16) 0.02912(15)
H2 H 0.22210 0.91530 0.02250
C1 C -0.00352(15) 0.41951(19) -0.15196(19)
C2 C 0.05515(12) 0.2969(3) -0.13749(16)
H3 H 0.12180 0.29700 -0.11700
C3 C -0.00472(18) 0.1745(2) -0.1595(2)
H4 H 0.01520 0.07780 -0.15640
C4 C -0.09902(17) 0.2208(2) -0.1868(2)
H5 H -0.15310 0.16060 -0.20510
C5 C -0.09864(15) 0.3734(2) -0.1819(2)
H6 H -0.15210 0.43310 -0.19600
C6 C 0.10941(12) 0.62563(18) -0.08062(16)
C7 C 0.10767(10) 0.7894(2) -0.09278(14)
H7 H 0.04210 0.82540 -0.11050
C8 C 0.12695(16) 0.8297(2) -0.2125(2)
H8 H 0.12710 0.93410 -0.22050
H9 H 0.07600 0.78910 -0.29650
H10 H 0.19010 0.79160 -0.19710
C9 C 0.18621(12) 0.82982(17) 0.15184(18)
C10 C 0.29240(16) 0.8806(2) 0.3927(2)
C11 C 0.34269(19) 0.7374(3) 0.4214(3)
H11 H 0.29470 0.66180 0.37680
H12 H 0.37550 0.72060 0.51980
H13 H 0.39050 0.73680 0.38630
C12 C 0.2133(2) 0.8875(3) 0.4364(2)
H14 H 0.17490 0.97460 0.39990
H15 H 0.24240 0.88890 0.53600
H16 H 0.17120 0.80350 0.40180
C13 C 0.3637(2) 1.0022(3) 0.4560(2)
H17 H 0.41210 1.00040 0.42190
H18 H 0.39620 0.99130 0.55520
H19 H 0.32890 1.09370 0.43200
O1A O -0.18569(9) 0.55835(14) 0.02474(14)
O2A O -0.1354(1) 0.74324(14) -0.17325(14)
O3A O -0.25441(10) 0.91279(14) -0.24656(13)
N1A N -0.02054(10) 0.56661(14) 0.14226(14)
H1A H 0.02840 0.62650 0.18110
N2A N -0.18035(11) 0.85584(16) -0.02912(15)
H2A H -0.22210 0.91530 -0.02250
C1A C 0.00352(15) 0.41951(19) 0.15196(19)
C2A C -0.05515(12) 0.2969(3) 0.13749(16)
H3A H -0.12180 0.29700 0.11700
C3A C 0.00472(18) 0.1745(2) 0.1595(2)
H4A H -0.01520 0.07780 0.15640
C4A C 0.09902(17) 0.2208(2) 0.1868(2)
H5A H 0.15310 0.16060 0.20510
C5A C 0.09864(15) 0.3734(2) 0.1819(2)
H6A H 0.15210 0.43310 0.19600
C6A C -0.10941(12) 0.62563(18) 0.08062(16)
C7A C -0.10767(10) 0.7894(2) 0.09278(14)
H7A H -0.04210 0.82540 0.11050
C8A C -0.12695(16) 0.8297(2) 0.2125(2)
H8A H -0.12710 0.93410 0.22050
H9A H -0.07600 0.78910 0.29650
H10A H -0.19010 0.79160 0.19710
C9A C -0.18621(12) 0.82982(17) -0.15184(18)
C10A C -0.29240(16) 0.8806(2) -0.3927(2)
C11A C -0.34269(19) 0.7374(3) -0.4214(3)
H11A H -0.29470 0.66180 -0.37680
H12A H -0.37550 0.72060 -0.51980
H13A H -0.39050 0.73680 -0.38630
C12A C -0.2133(2) 0.8875(3) -0.4364(2)
H14A H -0.17490 0.97460 -0.39990
H15A H -0.24240 0.88890 -0.53600
H16A H -0.17120 0.80350 -0.40180
C13A C -0.3637(2) 1.0022(3) -0.4560(2)
H17A H -0.41210 1.00040 -0.42190
H18A H -0.39620 0.99130 -0.55520
H19A H -0.32890 1.09370 -0.43200
#END
