
#######################################################################
#
#                 Cambridge Crystallographic Data Centre
#                                CCDC
#
#######################################################################
#
# If this CIF has been generated from an entry in the Cambridge
# Structural Database, then it will include bibliographic, chemical,
# crystal, experimental, refinement or atomic coordinate data resulting
# from the CCDC's data processing and validation procedures.
#
#######################################################################

data_CSD_CIF_JAVHIY
_audit_creation_date 2006-01-09
_audit_creation_method CSD-ConQuest-V1
_database_code_CSD JAVHIY
_database_code_depnum_ccdc_archive 'CCDC 252404'
_chemical_formula_sum 'C16 H19 Fe1 N1 O1'
_chemical_formula_moiety
;
C16 H19 Fe1 N1 O1
;
_journal_coden_Cambridge 29
_journal_volume 631
_journal_year 2005
_journal_page_first 1979
_journal_name_full 'Z.Anorg.Allg.Chem. '
loop_
_publ_author_name
"A.I.Matesanz"
"I.Cuadrado"
"J.Mosa"
"I.Garcia"
"P.Souza"
_chemical_name_systematic
;
1-(Piperidinylcarbonyl)ferrocene
;
_cell_volume    661.524
_exptl_crystal_colour 'yellow'
_exptl_crystal_density_diffrn 1.492
_exptl_crystal_description 'prism'
_exptl_crystal_preparation 'dichloromethane'
_diffrn_ambient_temperature 100
#These two values have been output from a single CSD field.
_refine_ls_R_factor_gt 0.045
_refine_ls_wR_factor_gt 0.045
_symmetry_cell_setting monoclinic
_symmetry_space_group_name_H-M 'P 21'
_symmetry_Int_Tables_number 4
loop_
_symmetry_equiv_pos_site_id
_symmetry_equiv_pos_as_xyz
1 x,y,z
2 -x,1/2+y,-z
_cell_length_a 5.8026(1)
_cell_length_b 9.2416(1)
_cell_length_c 12.3510(2)
_cell_angle_alpha 90
_cell_angle_beta 92.820(1)
_cell_angle_gamma 90
_cell_formula_units_Z 2
loop_
_atom_type_symbol
_atom_type_radius_bond
C 0.68
H 0.23
Fe 1.34
N 0.68
O 0.68
loop_
_atom_site_label
_atom_site_type_symbol
_atom_site_fract_x
_atom_site_fract_y
_atom_site_fract_z
Fe1 Fe 0.24286(11) 0.65921(16) 0.84936(5)
N1 N 0.1987(8) 0.6976(5) 0.5034(3)
O1 O 0.5142(7) 0.7393(4) 0.6125(3)
C1 C 0.1670(11) 0.8475(6) 0.9232(5)
H1 H 0.02140 0.90440 0.91150
C2 C 0.3684(11) 0.8613(6) 0.8631(5)
H2 H 0.38920 0.93020 0.80190
C3 C 0.5323(10) 0.7615(7) 0.9037(5)
H3 H 0.69000 0.74680 0.87640
C4 C 0.4353(11) 0.6839(7) 0.9910(4)
H4 H 0.51200 0.60480 1.03470
C5 C 0.2083(11) 0.7372(6) 1.0025(4)
H5 H 0.09620 0.70210 1.05560
C6 C 0.3486(10) 0.4963(6) 0.7489(4)
H6 H 0.51200 0.46820 0.73730
C7 C 0.2048(11) 0.4367(6) 0.8286(4)
H7 H 0.25120 0.36080 0.88310
C8 C -0.0122(9) 0.5052(6) 0.8181(4)
H8 H -0.14620 0.48590 0.86400
C9 C -0.0081(9) 0.6082(5) 0.7312(4)
H9 H -0.13860 0.67180 0.70480
C10 C 0.2173(10) 0.6015(6) 0.6881(4)
C11 C 0.3190(9) 0.6864(5) 0.5989(4)
C12 C 0.3011(10) 0.7690(6) 0.4124(4)
H10 H 0.44130 0.82220 0.43820
H11 H 0.19040 0.83970 0.37940
C13 C 0.3644(9) 0.6574(9) 0.3273(4)
H12 H 0.42770 0.70740 0.26440
H13 H 0.48490 0.59160 0.35860
C14 C 0.1531(10) 0.5696(7) 0.2898(4)
H14 H 0.19970 0.49170 0.24040
H15 H 0.04170 0.63310 0.24920
C15 C 0.0382(10) 0.5035(6) 0.3865(4)
H16 H -0.10740 0.45580 0.36110
H17 H 0.14090 0.42880 0.42010
C16 C -0.0135(9) 0.6174(6) 0.4708(4)
H18 H -0.13150 0.68550 0.44030
H19 H -0.07600 0.57010 0.53500
#END
