
#######################################################################
#
#                 Cambridge Crystallographic Data Centre
#                                CCDC
#
#######################################################################
#
# If this CIF has been generated from an entry in the Cambridge
# Structural Database, then it will include bibliographic, chemical,
# crystal, experimental, refinement or atomic coordinate data resulting
# from the CCDC's data processing and validation procedures.
#
#######################################################################

data_CSD_CIF_JAWDUG
_audit_creation_date 1990-06-07
_audit_creation_method CSD-ConQuest-V1
_database_code_CSD JAWDUG
_chemical_formula_sum 'C34 H56 Cl1 Co1 N6 O4'
_chemical_formula_moiety
;
C34 H56 Co1 N6 O4 1+,Cl1 1-
;
_journal_coeditor_code "IUCr AS0213"
_journal_coden_Cambridge 591
_journal_volume 46
_journal_year 1990
_journal_page_first 36
_journal_name_full 'Acta Crystallogr.,Sect.C:Cryst.Struct.Commun. '
loop_
_publ_author_name
"Y.Yanase"
"H.Yoshimura"
"S.Kinoshita"
"T.Yamaguchi"
"H.Wakita"
_chemical_name_systematic
;
bis(Aniline-(methyl-octylglyoximato-N,N'))-cobalt(iii) chloride
;
_cell_volume    952.753
_exptl_crystal_colour 'yellow'
_exptl_crystal_density_diffrn 1.23
_diffrn_ambient_temperature ?
_diffrn_special_details
;
The study was carried out at room temperature,in the range 283-303K

;
#These two values have been output from a single CSD field.
_refine_ls_R_factor_gt 0.05
_refine_ls_wR_factor_gt 0.05
_symmetry_cell_setting triclinic
_symmetry_space_group_name_H-M 'P -1'
_symmetry_Int_Tables_number 2
loop_
_symmetry_equiv_pos_site_id
_symmetry_equiv_pos_as_xyz
1 x,y,z
2 -x,-y,-z
_cell_length_a 8.995(2)
_cell_length_b 17.291(3)
_cell_length_c 6.346(1)
_cell_angle_alpha 100.01(1)
_cell_angle_beta 98.49(1)
_cell_angle_gamma 95.98(2)
_cell_formula_units_Z 1
loop_
_atom_type_symbol
_atom_type_radius_bond
C 0.68
H 0.23
Cl 0.99
Co 1.33
N 0.68
O 0.68
loop_
_atom_site_label
_atom_site_type_symbol
_atom_site_fract_x
_atom_site_fract_y
_atom_site_fract_z
Co1 Co 0.00000 0.00000 0.00000
Cl1 Cl 0.50000 0.00000 0.00000
O1 O 0.1139(3) -0.0502(2) 0.3878(4)
O2 O 0.1104(3) 0.1363(2) -0.1599(4)
N1 N -0.1478(3) 0.0585(2) 0.1544(4)
N2 N 0.1324(3) 0.0058(2) 0.2691(4)
N3 N 0.1286(3) 0.0937(2) 0.0033(4)
C1 C -0.1477(4) 0.1416(2) 0.1582(6)
C2 C -0.2311(6) 0.1663(3) -0.0150(8)
C3 C -0.2298(8) 0.2462(4) -0.011(1)
C4 C -0.1490(8) 0.3022(3) 0.1610(12)
C5 C -0.0687(8) 0.2761(4) 0.3299(12)
C6 C -0.0670(6) 0.1971(3) 0.3309(8)
C7 C 0.2421(4) 0.0620(2) 0.3192(5)
C8 C 0.3619(5) 0.0716(3) 0.5164(7)
C9 C 0.2428(4) 0.1161(2) 0.1618(6)
C10 C 0.3624(6) 0.1837(3) 0.1820(8)
C11 C 0.3603(6) 0.2525(3) 0.368(1)
C12 C 0.5056(7) 0.3105(4) 0.4089(11)
C13 C 0.5179(7) 0.3765(4) 0.6041(11)
C14 C 0.6633(8) 0.4334(4) 0.6444(12)
C15 C 0.6793(9) 0.4983(4) 0.8458(12)
C16 C 0.8173(10) 0.5565(5) 0.8810(14)
C17 C 0.8309(14) 0.6205(7) 1.0850(16)
H1 H 0.461(7) 0.096(3) 0.497(9)
H2 H 0.376(6) 0.016(4) 0.534(9)
H3 H 0.337(6) 0.113(3) 0.614(9)
H4 H 0.457(7) 0.164(3) 0.196(9)
H5 H 0.353(7) 0.204(3) 0.069(9)
H6 H 0.266(7) 0.283(3) 0.327(9)
H7 H 0.332(7) 0.240(3) 0.492(7)
H8 H 0.601(7) 0.280(3) 0.423(9)
H9 H 0.506(7) 0.333(3) 0.281(9)
H10 H 0.512(6) 0.349(3) 0.736(9)
H11 H 0.414(7) 0.409(3) 0.583(9)
H12 H 0.756(7) 0.401(3) 0.651(9)
H13 H 0.676(7) 0.455(4) 0.523(9)
H14 H 0.583(7) 0.531(3) 0.838(9)
H15 H 0.697(7) 0.470(3) 0.966(10)
H16 H 0.807(7) 0.579(4) 0.766(10)
H17 H 0.908(6) 0.514(3) 0.876(9)
H18 H 0.844(7) 0.570(4) 1.17(1)
H19 H 0.728(7) 0.628(3) 1.138(10)
H20 H 0.913(7) 0.666(4) 1.079(9)
H21 H -0.26000 0.03000 0.07500
H22 H -0.12900 0.05100 0.31600
H23 H -0.296(6) 0.122(3) -0.123(9)
H24 H -0.289(7) 0.257(3) -0.112(9)
H25 H -0.14800 0.36500 0.16400
H26 H -0.014(7) 0.307(4) 0.415(10)
H27 H -0.006(7) 0.181(3) 0.421(9)
N1A N 0.1478(3) -0.0585(2) -0.1544(4)
N2A N -0.1324(3) -0.0058(2) -0.2691(4)
N3A N -0.1286(3) -0.0937(2) -0.0033(4)
C1A C 0.1477(4) -0.1416(2) -0.1582(6)
H21A H 0.26000 -0.03000 -0.07500
H22A H 0.12900 -0.05100 -0.31600
O1A O -0.1139(3) 0.0502(2) -0.3878(4)
C7A C -0.2421(4) -0.0620(2) -0.3192(5)
O2A O -0.1104(3) -0.1363(2) 0.1599(4)
C9A C -0.2428(4) -0.1161(2) -0.1618(6)
C2A C 0.2311(6) -0.1663(3) 0.0150(8)
C6A C 0.0670(6) -0.1971(3) -0.3309(8)
C8A C -0.3619(5) -0.0716(3) -0.5164(7)
C10A C -0.3624(6) -0.1837(3) -0.1820(8)
C3A C 0.2298(8) -0.2462(4) 0.011(1)
H23A H 0.296(6) -0.122(3) 0.123(9)
C5A C 0.0687(8) -0.2761(4) -0.3299(12)
H27A H 0.006(7) -0.181(3) -0.421(9)
H1A H -0.461(7) -0.096(3) -0.497(9)
H2A H -0.376(6) -0.016(4) -0.534(9)
H3A H -0.337(6) -0.113(3) -0.614(9)
C11A C -0.3603(6) -0.2525(3) -0.368(1)
H4A H -0.457(7) -0.164(3) -0.196(9)
H5A H -0.353(7) -0.204(3) -0.069(9)
C4A C 0.1490(8) -0.3022(3) -0.1610(12)
H24A H 0.289(7) -0.257(3) 0.112(9)
H26A H 0.014(7) -0.307(4) -0.415(10)
C12A C -0.5056(7) -0.3105(4) -0.4089(11)
H6A H -0.266(7) -0.283(3) -0.327(9)
H7A H -0.332(7) -0.240(3) -0.492(7)
H25A H 0.14800 -0.36500 -0.16400
C13A C -0.5179(7) -0.3765(4) -0.6041(11)
H8A H -0.601(7) -0.280(3) -0.423(9)
H9A H -0.506(7) -0.333(3) -0.281(9)
C14A C -0.6633(8) -0.4334(4) -0.6444(12)
H10A H -0.512(6) -0.349(3) -0.736(9)
H11A H -0.414(7) -0.409(3) -0.583(9)
C15A C -0.6793(9) -0.4983(4) -0.8458(12)
H12A H -0.756(7) -0.401(3) -0.651(9)
H13A H -0.676(7) -0.455(4) -0.523(9)
C16A C -0.8173(10) -0.5565(5) -0.8810(14)
H14A H -0.583(7) -0.531(3) -0.838(9)
H15A H -0.697(7) -0.470(3) -0.966(10)
C17A C -0.8309(14) -0.6205(7) -1.0850(16)
H16A H -0.807(7) -0.579(4) -0.766(10)
H17A H -0.908(6) -0.514(3) -0.876(9)
H18A H -0.844(7) -0.570(4) -1.17(1)
H19A H -0.728(7) -0.628(3) -1.138(10)
H20A H -0.913(7) -0.666(4) -1.079(9)
#END
