
#######################################################################
#
#                 Cambridge Crystallographic Data Centre
#                                CCDC
#
#######################################################################
#
# If this CIF has been generated from an entry in the Cambridge
# Structural Database, then it will include bibliographic, chemical,
# crystal, experimental, refinement or atomic coordinate data resulting
# from the CCDC's data processing and validation procedures.
#
#######################################################################

data_CSD_CIF_JAWDOA
_audit_creation_date 1990-06-07
_audit_creation_method CSD-ConQuest-V1
_database_code_CSD JAWDOA
_chemical_formula_sum 'C30 H48 Cl1 Co1 N6 O4'
_chemical_formula_moiety
;
C30 H48 Co1 N6 O4 1+,Cl1 1-
;
_journal_coeditor_code "IUCr AS0213"
_journal_coden_Cambridge 591
_journal_volume 46
_journal_year 1990
_journal_page_first 36
_journal_name_full 'Acta Crystallogr.,Sect.C:Cryst.Struct.Commun. '
loop_
_publ_author_name
"Y.Yanase"
"H.Yoshimura"
"S.Kinoshita"
"T.Yamaguchi"
"H.Wakita"
_chemical_name_systematic
;
bis(Aniline-(hexylmethylglyoximato-N,N'))-cobalt(iii) chloride
;
_cell_volume    826.650
_exptl_crystal_colour 'yellow'
_exptl_crystal_density_diffrn 1.31
_diffrn_ambient_temperature ?
_diffrn_special_details
;
The study was carried out at room temperature,in the range 283-303K

;
#These two values have been output from a single CSD field.
_refine_ls_R_factor_gt 0.051
_refine_ls_wR_factor_gt 0.051
_symmetry_cell_setting triclinic
_symmetry_space_group_name_H-M 'P -1'
_symmetry_Int_Tables_number 2
loop_
_symmetry_equiv_pos_site_id
_symmetry_equiv_pos_as_xyz
1 x,y,z
2 -x,-y,-z
_cell_length_a 8.972(2)
_cell_length_b 15.097(4)
_cell_length_c 6.390(4)
_cell_angle_alpha 81.62(3)
_cell_angle_beta 99.12(3)
_cell_angle_gamma 103.18(2)
_cell_formula_units_Z 1
loop_
_atom_type_symbol
_atom_type_radius_bond
C 0.68
H 0.23
Cl 0.99
Co 1.33
N 0.68
O 0.68
loop_
_atom_site_label
_atom_site_type_symbol
_atom_site_fract_x
_atom_site_fract_y
_atom_site_fract_z
Co1 Co 0.00000 0.00000 0.00000
Cl1 Cl 0.50000 0.00000 0.00000
O1 O 0.1045(3) -0.0590(2) 0.4301(3)
O2 O 0.1341(3) 0.1574(2) -0.2688(3)
N1 N 0.1375(3) -0.0676(2) -0.1045(4)
N2 N 0.1315(3) 0.0047(2) 0.2649(4)
N3 N 0.1450(3) 0.1086(2) -0.0719(4)
C1 C 0.1263(4) -0.1641(2) -0.0366(5)
C2 C 0.2076(5) -0.1910(3) 0.1564(6)
C3 C 0.1944(6) -0.2839(3) 0.2235(8)
C4 C 0.1029(6) -0.3485(3) 0.1013(10)
C5 C 0.0233(6) -0.3209(3) -0.0889(10)
C6 C 0.0335(4) -0.2286(3) -0.1629(7)
C7 C 0.2526(3) 0.0712(2) 0.2713(5)
C8 C 0.3712(4) 0.0818(3) 0.4620(6)
C9 C 0.2615(4) 0.1324(2) 0.0710(5)
C10 C 0.3952(4) 0.2105(3) 0.0362(6)
C11 C 0.4048(5) 0.2906(3) 0.1618(8)
C12 C 0.5607(5) 0.3574(3) 0.1527(9)
C13 C 0.5832(5) 0.4354(3) 0.2857(9)
C14 C 0.7397(7) 0.5005(4) 0.2749(12)
C15 C 0.7641(10) 0.5786(6) 0.4088(15)
H1 H 0.372(5) 0.027(3) 0.547(7)
H2 H 0.465(5) 0.103(3) 0.425(7)
H3 H 0.351(6) 0.125(4) 0.548(9)
H4 H 0.487(5) 0.184(3) 0.072(7)
H5? H 0.388(5) 0.232(3) 0.108(7)
H6 H 0.383(5) 0.268(3) 0.313(7)
H7 H 0.326(5) 0.321(3) 0.103(7)
H8 H 0.644(5) 0.323(3) 0.198(7)
H9 H 0.565(5) 0.382(3) 0.007(7)
H10 H 0.507(5) 0.473(3) 0.231(7)
H11 H 0.567(6) 0.412(3) 0.443(8)
H12 H 0.815(6) 0.465(4) 0.335(8)
H13 H 0.749(7) 0.522(4) 0.134(10)
H14 H 0.676(11) 0.610(6) 0.352(15)
H15 H 0.765(10) 0.552(6) 0.558(14)
H16 H 0.861(8) 0.619(5) 0.396(10)
H17 H 0.123(4) -0.058(2) -0.238(6)
H18 H 0.232(5) -0.040(3) -0.074(6)
H19? H 0.265(5) 0.851(3) 0.264(7)
H20 H 0.248(6) -0.299(4) 0.345(9)
H21 H 0.098(5) -0.412(3) 0.144(7)
H22 H -0.029(5) -0.362(3) -0.175(7)
N1A N -0.1375(3) 0.0676(2) 0.1045(4)
N2A N -0.1315(3) -0.0047(2) -0.2649(4)
N3A N -0.1450(3) -0.1086(2) 0.0719(4)
C1A C -0.1263(4) 0.1641(2) 0.0366(5)
H17A H -0.123(4) 0.058(2) 0.238(6)
H18A H -0.232(5) 0.040(3) 0.074(6)
O1A O -0.1045(3) 0.0590(2) -0.4301(3)
C7A C -0.2526(3) -0.0712(2) -0.2713(5)
O2A O -0.1341(3) -0.1574(2) 0.2688(3)
C9A C -0.2615(4) -0.1324(2) -0.0710(5)
C2A C -0.2076(5) 0.1910(3) -0.1564(6)
C6A C -0.0335(4) 0.2286(3) 0.1629(7)
C8A C -0.3712(4) -0.0818(3) -0.4620(6)
C10A C -0.3952(4) -0.2105(3) -0.0362(6)
C3A C -0.1944(6) 0.2839(3) -0.2235(8)
C5A C -0.0233(6) 0.3209(3) 0.0889(10)
H1A H -0.372(5) -0.027(3) -0.547(7)
H2A H -0.465(5) -0.103(3) -0.425(7)
H3A H -0.351(6) -0.125(4) -0.548(9)
C11A C -0.4048(5) -0.2906(3) -0.1618(8)
H4A H -0.487(5) -0.184(3) -0.072(7)
C4A C -0.1029(6) 0.3485(3) -0.1013(10)
H20A H -0.248(6) 0.299(4) -0.345(9)
H22A H 0.029(5) 0.362(3) 0.175(7)
C12A C -0.5607(5) -0.3574(3) -0.1527(9)
H6A H -0.383(5) -0.268(3) -0.313(7)
H7A H -0.326(5) -0.321(3) -0.103(7)
H21A H -0.098(5) 0.412(3) -0.144(7)
C13A C -0.5832(5) -0.4354(3) -0.2857(9)
H8A H -0.644(5) -0.323(3) -0.198(7)
H9A H -0.565(5) -0.382(3) -0.007(7)
C14A C -0.7397(7) -0.5005(4) -0.2749(12)
H10A H -0.507(5) -0.473(3) -0.231(7)
H11A H -0.567(6) -0.412(3) -0.443(8)
C15A C -0.7641(10) -0.5786(6) -0.4088(15)
H12A H -0.815(6) -0.465(4) -0.335(8)
H13A H -0.749(7) -0.522(4) -0.134(10)
H14A H -0.676(11) -0.610(6) -0.352(15)
H15A H -0.765(10) -0.552(6) -0.558(14)
H16A H -0.861(8) -0.619(5) -0.396(10)
#END
