
#######################################################################
#
#                 Cambridge Crystallographic Data Centre
#                                CCDC
#
#######################################################################
#
# If this CIF has been generated from an entry in the Cambridge
# Structural Database, then it will include bibliographic, chemical,
# crystal, experimental, refinement or atomic coordinate data resulting
# from the CCDC's data processing and validation procedures.
#
#######################################################################

data_CSD_CIF_JAXWIP
_audit_creation_date 2006-01-09
_audit_creation_method CSD-ConQuest-V1
_database_code_CSD JAXWIP
_database_code_depnum_ccdc_archive 'CCDC 287761'
_chemical_formula_sum 'C12 H44 Cl2 Mn1 N8 O10'
_chemical_formula_moiety
;
H12 Mn1 O6 2+,2(C6 H12 N4),2(Cl1 1-),4(H2 O1)
;
_journal_coeditor_code "IUCr XU6047"
_journal_coden_Cambridge 1370
_journal_volume 61
_journal_year 2005
_journal_page_first m1931
_journal_name_full 'Acta Crystallogr.,Sect.E:Struct.Rep.Online '
loop_
_publ_author_name
"Zi-Lu Chen"
"Shi-Bing Li"
"Zhi-Hui Qiu"
"Qing-Fen Zeng"
"Fu-Pei Liang"
_chemical_name_systematic
;
Hexaaqua-manganese(ii) bis(hexamethylenetetraamine) dichloride tetrahydrate
;
_cell_volume    711.444
_exptl_crystal_colour 'pale yellow'
_exptl_crystal_density_diffrn 1.369
_exptl_crystal_description 'block'
_exptl_crystal_preparation 'acetonitrile'
_diffrn_ambient_temperature 294
#These two values have been output from a single CSD field.
_refine_ls_R_factor_gt 0.042
_refine_ls_wR_factor_gt 0.042
_symmetry_cell_setting triclinic
_symmetry_space_group_name_H-M 'P -1'
_symmetry_Int_Tables_number 2
loop_
_symmetry_equiv_pos_site_id
_symmetry_equiv_pos_as_xyz
1 x,y,z
2 -x,-y,-z
_cell_length_a 9.337(3)
_cell_length_b 9.531(2)
_cell_length_c 9.538(2)
_cell_angle_alpha 119.477(4)
_cell_angle_beta 101.018(5)
_cell_angle_gamma 94.140(5)
_cell_formula_units_Z 1
loop_
_atom_type_symbol
_atom_type_radius_bond
C 0.68
H 0.23
Cl 0.99
Mn 1.35
N 0.68
O 0.68
loop_
_atom_site_label
_atom_site_type_symbol
_atom_site_fract_x
_atom_site_fract_y
_atom_site_fract_z
Mn1 Mn 0.50000 0.50000 0.50000
O1 O 0.6255(2) 0.5573(2) 0.3598(2)
H1 H 0.71480 0.64050 0.40000
H2 H 0.63410 0.48550 0.25750
O2 O 0.6263(2) 0.7040(2) 0.7362(2)
H3 H 0.62010 0.80570 0.75990
H4 H 0.67950 0.70120 0.82040
O3 O 0.6372(2) 0.3333(3) 0.5208(2)
H5 H 0.69140 0.27760 0.46470
H6 H 0.63930 0.29910 0.58660
Cl1 Cl 0.81455(9) 0.06236(10) 0.32135(10)
N1 N 0.6664(3) 0.0410(3) 0.8491(3)
N2 N 0.6603(3) 0.3259(3) 1.0453(3)
N3 N 0.6652(2) 0.2412(3) 0.7604(3)
N4 N 0.8857(2) 0.2548(3) 0.9556(3)
C1 C 0.6090(3) 0.1522(3) 0.9890(3)
H7 H 0.64150 0.13490 1.08120
H8 H 0.50120 0.12650 0.95510
C2 C 0.6077(3) 0.3474(3) 0.9030(3)
H9 H 0.63940 0.46130 0.93710
H10 H 0.49980 0.32200 0.86900
C3 C 0.6145(3) 0.0698(3) 0.7107(3)
H11 H 0.65170 -0.00220 0.61690
H12 H 0.50670 0.04310 0.67500
C4 C 0.8232(3) 0.3615(4) 1.0938(3)
H13 H 0.85830 0.34640 1.18710
H14 H 0.85840 0.47540 1.13030
C5 C 0.8291(3) 0.0828(3) 0.9014(4)
H15 H 0.86800 0.01070 0.80920
H16 H 0.86470 0.06460 0.99240
C6 C 0.8291(3) 0.2793(4) 0.8161(3)
H17 H 0.86850 0.20970 0.72330
H18 H 0.86410 0.39260 0.85020
O4 O 0.8039(2) 0.7197(2) 1.0046(2)
H19 H 0.78560 0.82070 1.08420
H20 H 0.89790 0.72280 1.00160
O5 O 0.8512(3) 0.8047(3) 0.4465(3)
H21 H 0.84090 0.87540 0.40550
H22 H 0.93630 0.84780 0.52010
O1A O 0.3745(2) 0.4427(2) 0.6402(2)
H1A H 0.28520 0.35950 0.60000
H2A H 0.36590 0.51450 0.74250
O2A O 0.3737(2) 0.2960(2) 0.2638(2)
H3A H 0.37990 0.19430 0.24010
H4A H 0.32050 0.29880 0.17960
O3A O 0.3628(2) 0.6667(3) 0.4792(2)
H5A H 0.30860 0.72240 0.53530
H6A H 0.36070 0.70090 0.41340
#END
