
#######################################################################
#
#                 Cambridge Crystallographic Data Centre
#                                CCDC
#
#######################################################################
#
# If this CIF has been generated from an entry in the Cambridge
# Structural Database, then it will include bibliographic, chemical,
# crystal, experimental, refinement or atomic coordinate data resulting
# from the CCDC's data processing and validation procedures.
#
#######################################################################

data_CSD_CIF_JAYYEO
_audit_creation_date 2006-01-09
_audit_creation_method CSD-ConQuest-V1
_database_code_CSD JAYYEO
_database_code_depnum_ccdc_archive 'CCDC 265457'
_chemical_formula_sum 'C26 H38 Fe1 N4 O6'
_chemical_formula_moiety
;
C26 H38 Fe1 N4 O6
;
_journal_coden_Cambridge 177
_journal_volume 3
_journal_year 2005
_journal_page_first 3018
_journal_name_full 'Org.Biomol.Chem. '
loop_
_publ_author_name
"S.Chowdhury"
"K.A.Mahmoud"
"G.Schatte"
"H.-B.Kraatz"
_chemical_name_systematic
;
1,1'-bis(t-Butoxycarbonyl-D-alanine-amido)ferrocene
;
_cell_volume   1421.334
_exptl_crystal_colour 'orange'
_exptl_crystal_density_diffrn 1.305
_exptl_crystal_description 'needle'
_exptl_crystal_preparation 'hexanes/chloroform'
_diffrn_ambient_temperature 173
#These two values have been output from a single CSD field.
_refine_ls_R_factor_gt 0.0393
_refine_ls_wR_factor_gt 0.0393
loop_
_citation_database_id_CSD
_citation_special_details
JATTEE "is a stereoisomer of this entry"
_symmetry_cell_setting monoclinic
_symmetry_space_group_name_H-M 'C 2'
_symmetry_Int_Tables_number 5
loop_
_symmetry_equiv_pos_site_id
_symmetry_equiv_pos_as_xyz
1 x,y,z
2 -x,y,-z
3 1/2+x,1/2+y,z
4 1/2-x,1/2+y,-z
_cell_length_a 15.490(3)
_cell_length_b 9.3390(19)
_cell_length_c 11.036(2)
_cell_angle_alpha 90
_cell_angle_beta 117.09(3)
_cell_angle_gamma 90
_cell_formula_units_Z 2
loop_
_atom_type_symbol
_atom_type_radius_bond
C 0.68
H 0.23
Fe 1.34
N 0.68
O 0.68
loop_
_atom_site_label
_atom_site_type_symbol
_atom_site_fract_x
_atom_site_fract_y
_atom_site_fract_z
Fe1 Fe 0.00000 1.20800(4) 0.00000
O1 O 0.18547(15) 0.9411(2) -0.0253(2)
O2 O 0.13521(14) 0.7568(2) 0.17303(19)
O3 O 0.25443(15) 0.5876(2) 0.24617(18)
N1 N 0.02026(16) 0.9333(2) -0.1425(2)
H1 H -0.02860 0.87330 -0.18090
N2 N 0.18031(17) 0.6442(2) 0.0290(2)
H2 H 0.22210 0.58490 0.02250
C1 C -0.0041(2) 1.0807(3) -0.1527(3)
C2 C 0.05444(18) 1.2032(4) -0.1379(2)
H3 H 0.12100 1.20320 -0.11740
C3 C -0.0050(3) 1.3250(3) -0.1592(3)
H4 H 0.01490 1.42180 -0.15600
C4 C -0.0987(3) 1.2787(3) -0.1861(3)
H5 H -0.15260 1.33900 -0.20400
C5 C -0.0990(2) 1.1263(3) -0.1820(3)
H6 H -0.15250 1.06660 -0.19620
C6 C 0.1094(2) 0.8741(3) -0.0810(2)
C7 C 0.10751(16) 0.7102(4) -0.0933(2)
H7 H 0.04200 0.67410 -0.11110
C8 C 0.1270(2) 0.6701(3) -0.2125(3)
H8 H 0.12610 0.56570 -0.22160
H9 H 0.19060 0.70690 -0.19620
H10 H 0.07670 0.71210 -0.29640
C9 C 0.1863(2) 0.6701(3) 0.1518(3)
C10 C 0.2924(2) 0.6197(4) 0.3929(3)
C11 C 0.3430(3) 0.7634(4) 0.4212(4)
H11 H 0.29530 0.83890 0.37520
H12 H 0.39150 0.76290 0.38730
H13 H 0.37510 0.78120 0.51950
C12 C 0.2131(3) 0.6128(4) 0.4360(3)
H14 H 0.17630 0.52390 0.40220
H15 H 0.16970 0.69500 0.39820
H16 H 0.24190 0.61500 0.53550
C13 C 0.3639(3) 0.4981(4) 0.4563(3)
H17 H 0.41250 0.50060 0.42260
H18 H 0.32930 0.40650 0.43160
H19 H 0.39610 0.50850 0.55550
O1A O -0.18547(15) 0.9411(2) 0.0253(2)
O2A O -0.13521(14) 0.7568(2) -0.17303(19)
O3A O -0.25443(15) 0.5876(2) -0.24617(18)
N1A N -0.02026(16) 0.9333(2) 0.1425(2)
H1A H 0.02860 0.87330 0.18090
N2A N -0.18031(17) 0.6442(2) -0.0290(2)
H2A H -0.22210 0.58490 -0.02250
C1A C 0.0041(2) 1.0807(3) 0.1527(3)
C2A C -0.05444(18) 1.2032(4) 0.1379(2)
H3A H -0.12100 1.20320 0.11740
C3A C 0.0050(3) 1.3250(3) 0.1592(3)
H4A H -0.01490 1.42180 0.15600
C4A C 0.0987(3) 1.2787(3) 0.1861(3)
H5A H 0.15260 1.33900 0.20400
C5A C 0.0990(2) 1.1263(3) 0.1820(3)
H6A H 0.15250 1.06660 0.19620
C6A C -0.1094(2) 0.8741(3) 0.0810(2)
C7A C -0.10751(16) 0.7102(4) 0.0933(2)
H7A H -0.04200 0.67410 0.11110
C8A C -0.1270(2) 0.6701(3) 0.2125(3)
H8A H -0.12610 0.56570 0.22160
H9A H -0.19060 0.70690 0.19620
H10A H -0.07670 0.71210 0.29640
C9A C -0.1863(2) 0.6701(3) -0.1518(3)
C10A C -0.2924(2) 0.6197(4) -0.3929(3)
C11A C -0.3430(3) 0.7634(4) -0.4212(4)
H11A H -0.29530 0.83890 -0.37520
H12A H -0.39150 0.76290 -0.38730
H13A H -0.37510 0.78120 -0.51950
C12A C -0.2131(3) 0.6128(4) -0.4360(3)
H14A H -0.17630 0.52390 -0.40220
H15A H -0.16970 0.69500 -0.39820
H16A H -0.24190 0.61500 -0.53550
C13A C -0.3639(3) 0.4981(4) -0.4563(3)
H17A H -0.41250 0.50060 -0.42260
H18A H -0.32930 0.40650 -0.43160
H19A H -0.39610 0.50850 -0.55550
#END
