
#######################################################################
#
#                 Cambridge Crystallographic Data Centre
#                                CCDC
#
#######################################################################
#
# If this CIF has been generated from an entry in the Cambridge
# Structural Database, then it will include bibliographic, chemical,
# crystal, experimental, refinement or atomic coordinate data resulting
# from the CCDC's data processing and validation procedures.
#
#######################################################################

data_CSD_CIF_JEDHIM
_audit_creation_date 2017-06-19
_audit_creation_method CSD-ConQuest-V1
_database_code_CSD JEDHIM
_database_code_depnum_ccdc_archive 'CCDC 1537730'
_chemical_formula_sum 'C36 H28 Co1 N6 O4'
_chemical_formula_moiety
;
C36 H28 Co1 N6 O4
;
_journal_coden_Cambridge 1267
_journal_volume 232
_journal_year 2017
_journal_page_first 447
_journal_name_full 'Z.Kristallogr.-New Cryst.Struct. '
loop_
_publ_author_name
"T.N.Hill"
"R.Koen"
"A.Roodt"
_chemical_name_systematic
;
trans-bis((E)-7-oxo-4-(phenyldiazenyl)cyclohepta-1,3,5-trien-1-olato)-bis(pyri
dine)-cobalt(ii)
;
_cell_volume    747.487
_exptl_crystal_colour 'red'
_exptl_crystal_density_diffrn 1.483
_exptl_crystal_description 'columnar'
_diffrn_ambient_temperature 100
#These two values have been output from a single CSD field.
_refine_ls_R_factor_gt 0.0332
_refine_ls_wR_factor_gt 0.0332
_symmetry_cell_setting triclinic
_symmetry_space_group_name_H-M 'P -1'
_symmetry_Int_Tables_number 2
loop_
_symmetry_equiv_pos_site_id
_symmetry_equiv_pos_as_xyz
1 x,y,z
2 -x,-y,-z
_cell_length_a 6.3166(4)
_cell_length_b 8.5454(5)
_cell_length_c 14.8075(9)
_cell_angle_alpha 105.157(2)
_cell_angle_beta 94.494(3)
_cell_angle_gamma 101.890(2)
_cell_formula_units_Z 1
loop_
_atom_type_symbol
_atom_type_radius_bond
C 0.68
H 0.23
Co 1.26
N 0.68
O 0.68
loop_
_atom_site_label
_atom_site_type_symbol
_atom_site_fract_x
_atom_site_fract_y
_atom_site_fract_z
C1 C 0.4184(2) 0.24143(18) 0.32614(10)
C2 C 0.4405(3) 0.10253(19) 0.25390(11)
H1 H 0.57550 0.07610 0.26030
C3 C 0.2300(3) 0.32071(18) 0.32599(10)
C4 C 0.0381(3) 0.25923(19) 0.25863(11)
H2 H -0.06280 0.32520 0.26830
C5 C -0.0268(3) 0.12028(19) 0.18166(11)
H3 H -0.16580 0.10510 0.15000
C6 C 0.0851(3) -0.00141(19) 0.14405(10)
C7 C 0.2986(3) -0.00094(19) 0.17572(11)
H4 H 0.35460 -0.08380 0.13810
C8 C 0.1193(3) 0.34610(19) 0.58620(11)
H5 H 0.07950 0.44340 0.58260
C9 C -0.0129(3) 0.2394(2) 0.62583(11)
H6 H -0.13740 0.26570 0.64930
C10 C 0.0431(3) 0.0934(2) 0.62988(11)
H7 H -0.04280 0.01980 0.65630
C11 C 0.2296(3) 0.05830(19) 0.59385(11)
H8 H 0.26980 -0.04010 0.59460
C12 C 0.3546(3) 0.17273(19) 0.55673(10)
H9 H 0.48070 0.14970 0.53340
C13 C -0.3063(3) -0.30783(19) -0.03555(11)
C14 C -0.1900(3) -0.4247(2) -0.07566(12)
H10 H -0.04370 -0.40990 -0.05280
C15 C -0.2936(3) -0.5624(2) -0.14954(12)
H11 H -0.21670 -0.64050 -0.17630
C16 C -0.5119(3) -0.5849(2) -0.18410(11)
H12 H -0.58020 -0.67750 -0.23420
C17 C -0.6273(3) -0.4706(2) -0.14437(12)
H13 H -0.77350 -0.48610 -0.16750
C18 C -0.5247(3) -0.3312(2) -0.06933(12)
H14 H -0.60290 -0.25430 -0.04210
N1 N 0.3022(2) 0.31525(15) 0.55284(9)
N2 N -0.0128(2) -0.14182(16) 0.06543(9)
N3 N -0.2147(2) -0.16271(16) 0.04200(9)
O1 O 0.57008(17) 0.30884(13) 0.39636(7)
O2 O 0.24615(18) 0.45279(13) 0.39276(7)
Co1 Co 0.50000 0.50000 0.50000
C1A C 0.5816(2) 0.75857(18) 0.67386(10)
C2A C 0.5595(3) 0.89747(19) 0.74610(11)
H1A H 0.42450 0.92390 0.73970
C3A C 0.7700(3) 0.67929(18) 0.67401(10)
C4A C 0.9619(3) 0.74077(19) 0.74137(11)
H2A H 1.06280 0.67480 0.73170
C5A C 1.0268(3) 0.87972(19) 0.81834(11)
H3A H 1.16580 0.89490 0.85000
C6A C 0.9149(3) 1.00141(19) 0.85595(10)
C7A C 0.7014(3) 1.00094(19) 0.82428(11)
H4A H 0.64540 1.08380 0.86190
C8A C 0.8807(3) 0.65390(19) 0.41380(11)
H5A H 0.92050 0.55660 0.41740
C9A C 1.0129(3) 0.7606(2) 0.37417(11)
H6A H 1.13740 0.73430 0.35070
C10A C 0.9569(3) 0.9066(2) 0.37012(11)
H7A H 1.04280 0.98020 0.34370
C11A C 0.7704(3) 0.94170(19) 0.40615(11)
H8A H 0.73020 1.04010 0.40540
C12A C 0.6454(3) 0.82727(19) 0.44327(10)
H9A H 0.51930 0.85030 0.46660
C13A C 1.3063(3) 1.30783(19) 1.03555(11)
C14A C 1.1900(3) 1.4247(2) 1.07566(12)
H10A H 1.04370 1.40990 1.05280
C15A C 1.2936(3) 1.5624(2) 1.14954(12)
H11A H 1.21670 1.64050 1.17630
C16A C 1.5119(3) 1.5849(2) 1.18410(11)
H12A H 1.58020 1.67750 1.23420
C17A C 1.6273(3) 1.4706(2) 1.14437(12)
H13A H 1.77350 1.48610 1.16750
C18A C 1.5247(3) 1.3312(2) 1.06933(12)
H14A H 1.60290 1.25430 1.04210
N1A N 0.6978(2) 0.68475(15) 0.44716(9)
N2A N 1.0128(2) 1.14182(16) 0.93457(9)
N3A N 1.2147(2) 1.16271(16) 0.95800(9)
O1A O 0.42992(17) 0.69116(13) 0.60364(7)
O2A O 0.75385(18) 0.54721(13) 0.60724(7)
#END
