
#######################################################################
#
#                 Cambridge Crystallographic Data Centre
#                                CCDC
#
#######################################################################
#
# If this CIF has been generated from an entry in the Cambridge
# Structural Database, then it will include bibliographic, chemical,
# crystal, experimental, refinement or atomic coordinate data resulting
# from the CCDC's data processing and validation procedures.
#
#######################################################################

data_CSD_CIF_JEDTOC
_audit_creation_date 2006-04-11
_audit_creation_method CSD-ConQuest-V1
_database_code_CSD JEDTOC
_database_code_depnum_ccdc_archive 'CCDC 204520'
_chemical_formula_sum 'C20 H24 Co1 N2 O14'
_chemical_formula_moiety
;
C20 H20 Co1 N2 O12,2(H2 O1)
;
_journal_coden_Cambridge 580
_journal_volume 25
_journal_year 2006
_journal_page_first 17
_journal_name_full 'Polyhedron '
loop_
_publ_author_name
"N.Barooah"
"R.J.Sarma"
"A.S.Batsanov"
"J.B.Baruah"
_chemical_name_systematic
;
Tetra-aqua-bis(N-phthaloylglycinato-O)-cobalt(ii) dihydrate
;
_cell_volume    581.264
_exptl_crystal_colour 'pink'
_exptl_crystal_density_diffrn 1.644
_exptl_special_details
;
isostructural with the Zn analogue

;
_exptl_crystal_preparation 'acetone/water'
_diffrn_ambient_temperature 120
#These two values have been output from a single CSD field.
_refine_ls_R_factor_gt 0.0384
_refine_ls_wR_factor_gt 0.0384
_symmetry_cell_setting triclinic
_symmetry_space_group_name_H-M 'P -1'
_symmetry_Int_Tables_number 2
loop_
_symmetry_equiv_pos_site_id
_symmetry_equiv_pos_as_xyz
1 x,y,z
2 -x,-y,-z
_cell_length_a 6.2487(6)
_cell_length_b 8.1580(7)
_cell_length_c 12.0022(11)
_cell_angle_alpha 94.407(4)
_cell_angle_beta 104.562(3)
_cell_angle_gamma 98.630(4)
_cell_formula_units_Z 1
loop_
_atom_type_symbol
_atom_type_radius_bond
C 0.68
H 0.23
Co 1.33
N 0.68
O 0.68
loop_
_atom_site_label
_atom_site_type_symbol
_atom_site_fract_x
_atom_site_fract_y
_atom_site_fract_z
Co1 Co 0.00000 0.00000 0.00000
O1 O 0.2693(3) -0.0220(2) 0.13570(13)
H1 H 0.338(5) 0.032(4) 0.191(3)
H2 H 0.350(5) -0.082(4) 0.112(3)
O2 O -0.1643(3) -0.2268(2) 0.03076(13)
H3 H -0.308(6) -0.239(4) 0.028(3)
H4 H -0.158(7) -0.322(5) 0.005(3)
O3 O 0.1320(2) -0.13254(18) -0.11819(11)
O4 O 0.3884(2) -0.24660(17) 0.00395(11)
C1 C 0.2675(3) -0.2312(2) -0.09562(14)
C2 C 0.2885(3) -0.3513(2) -0.19523(15)
H5 H 0.219(4) -0.461(3) -0.186(2)
H6 H 0.445(5) -0.359(3) -0.193(2)
N1 N 0.1758(3) -0.31451(19) -0.30939(12)
C3 C 0.2834(3) -0.2171(2) -0.37663(14)
O5 O 0.4807(2) -0.15134(19) -0.34741(12)
C4 C 0.1112(3) -0.2121(2) -0.48654(14)
C5 C 0.1294(3) -0.1341(2) -0.58289(16)
H7 H 0.263(5) -0.070(3) -0.589(2)
C6 C -0.0657(4) -0.1497(2) -0.67379(16)
H8 H -0.061(5) -0.101(3) -0.742(2)
C7 C -0.2696(3) -0.2397(2) -0.66630(16)
H9 H -0.409(5) -0.250(3) -0.729(2)
C8 C -0.2863(3) -0.3185(2) -0.56845(17)
H10 H -0.417(4) -0.380(3) -0.567(2)
C9 C -0.0924(3) -0.3033(2) -0.47969(15)
C10 C -0.0517(3) -0.3708(2) -0.36574(15)
O6 O -0.1823(3) -0.46020(18) -0.32714(13)
O7 O -0.1736(8) -0.5052(4) -0.1029(3)
H11 H -0.208(10) -0.524(7) -0.1784(9)
H12 H -0.240(9) -0.600(4) -0.090(4)
O1A O -0.2693(3) 0.0220(2) -0.13570(13)
H1A H -0.338(5) -0.032(4) -0.191(3)
H2A H -0.350(5) 0.082(4) -0.112(3)
O2A O 0.1643(3) 0.2268(2) -0.03076(13)
H3A H 0.308(6) 0.239(4) -0.028(3)
H4A H 0.158(7) 0.322(5) -0.005(3)
O3A O -0.1320(2) 0.13254(18) 0.11819(11)
O4A O -0.3884(2) 0.24660(17) -0.00395(11)
C1A C -0.2675(3) 0.2312(2) 0.09562(14)
C2A C -0.2885(3) 0.3513(2) 0.19523(15)
H5A H -0.219(4) 0.461(3) 0.186(2)
H6A H -0.445(5) 0.359(3) 0.193(2)
N1A N -0.1758(3) 0.31451(19) 0.30939(12)
C3A C -0.2834(3) 0.2171(2) 0.37663(14)
O5A O -0.4807(2) 0.15134(19) 0.34741(12)
C4A C -0.1112(3) 0.2121(2) 0.48654(14)
C5A C -0.1294(3) 0.1341(2) 0.58289(16)
H7A H -0.263(5) 0.070(3) 0.589(2)
C6A C 0.0657(4) 0.1497(2) 0.67379(16)
H8A H 0.061(5) 0.101(3) 0.742(2)
C7A C 0.2696(3) 0.2397(2) 0.66630(16)
H9A H 0.409(5) 0.250(3) 0.729(2)
C8A C 0.2863(3) 0.3185(2) 0.56845(17)
H10A H 0.417(4) 0.380(3) 0.567(2)
C9A C 0.0924(3) 0.3033(2) 0.47969(15)
C10A C 0.0517(3) 0.3708(2) 0.36574(15)
O6A O 0.1823(3) 0.46020(18) 0.32714(13)
#END
