
#######################################################################
#
#                 Cambridge Crystallographic Data Centre
#                                CCDC
#
#######################################################################
#
# If this CIF has been generated from an entry in the Cambridge
# Structural Database, then it will include bibliographic, chemical,
# crystal, experimental, refinement or atomic coordinate data resulting
# from the CCDC's data processing and validation procedures.
#
#######################################################################

data_CSD_CIF_JEHVAT01
_audit_creation_date 2012-08-03
_audit_creation_method CSD-ConQuest-V1
_database_code_CSD JEHVAT01
_database_code_depnum_ccdc_archive 'CCDC 848990'
_chemical_formula_sum 'C18 H20 Fe1 N2 O3 S2'
_chemical_formula_moiety
;
C14 H12 Fe1 N2 O2 S2,C4 H8 O1
;
_journal_coden_Cambridge 1290
_journal_year 2012
_journal_page_first 1072
_journal_name_full 'Eur.J.Inorg.Chem. '
loop_
_publ_author_name
"V.P.L.Velasquez"
"T.M.A.Jazzazi"
"A.Malassa"
"H.Gorls"
"G.Gessner"
"S.H.Heinemann"
"M.Westerhausen"
_chemical_name_systematic
;
cis-Dicarbonyl-bis(o-aminophenylthiolato-N,S)-iron tetrahydrofuran solvate
;
_cell_volume    487.304
_exptl_crystal_colour 'red brown'
_exptl_crystal_density_diffrn 1.473
_exptl_crystal_description 'plate'
_diffrn_ambient_temperature 133
#These two values have been output from a single CSD field.
_refine_ls_R_factor_gt 0.0238
_refine_ls_wR_factor_gt 0.0238
_symmetry_cell_setting triclinic
_symmetry_space_group_name_H-M 'P 1'
_symmetry_Int_Tables_number 1
loop_
_symmetry_equiv_pos_site_id
_symmetry_equiv_pos_as_xyz
1 x,y,z
_cell_length_a 5.6236(1)
_cell_length_b 8.8547(2)
_cell_length_c 10.5982(2)
_cell_angle_alpha 106.325(1)
_cell_angle_beta 103.221(1)
_cell_angle_gamma 94.462(1)
_cell_formula_units_Z 1
loop_
_atom_type_symbol
_atom_type_radius_bond
C 0.68
H 0.23
Fe 1.47
N 0.68
O 0.68
S 1.02
loop_
_atom_site_label
_atom_site_type_symbol
_atom_site_fract_x
_atom_site_fract_y
_atom_site_fract_z
Fe1 Fe 0.71698(4) 0.11056(3) 0.12733(2)
S1 S 1.03904(7) 0.01871(5) 0.24467(5)
S2 S 0.38582(7) 0.17979(5) -0.00440(5)
O1 O 0.6163(3) 0.27389(19) 0.38548(15)
O2 O 1.0148(3) 0.41133(18) 0.16135(17)
N1 N 0.5104(3) -0.0976(2) 0.11053(19)
H1 H 0.364(6) -0.077(3) 0.120(3)
H2 H 0.485(4) -0.157(3) 0.030(3)
N2 N 0.8012(3) 0.0035(2) -0.05047(18)
H3 H 0.778(5) -0.099(3) -0.063(3)
H4 H 0.975(6) 0.032(4) -0.037(3)
C1 C 0.8635(3) -0.1321(2) 0.2779(2)
C2 C 0.9669(4) -0.2080(2) 0.3721(2)
H5 H 1.13710 -0.17940 0.41930
C3 C 0.8210(4) -0.3255(3) 0.3967(2)
H6 H 0.89210 -0.37690 0.46060
C4 C 0.5720(4) -0.3677(3) 0.3283(2)
H7 H 0.47260 -0.44710 0.34590
C5 C 0.4690(4) -0.2940(2) 0.2346(2)
H8 H 0.29910 -0.32360 0.18710
C6 C 0.6136(3) -0.1769(2) 0.20983(19)
C7 C 0.4688(3) 0.1236(2) -0.1597(2)
C8 C 0.3419(3) 0.1622(2) -0.2735(2)
H9 H 0.20370 0.21680 -0.26880
C9 C 0.4163(4) 0.1214(3) -0.3932(2)
H10 H 0.32940 0.14890 -0.46960
C10 C 0.6170(4) 0.0405(2) -0.4022(2)
H11 H 0.66690 0.01230 -0.48450
C11 C 0.7437(4) 0.0013(2) -0.2902(2)
H12 H 0.88150 -0.05360 -0.29560
C12 C 0.6699(3) 0.0419(2) -0.16990(19)
C13 C 0.6482(4) 0.2068(3) 0.2833(2)
C14 C 0.9012(4) 0.2920(3) 0.1451(2)
O3 O 0.6170(3) -0.34066(19) 0.86883(17)
C15 C 0.6039(6) -0.4114(3) 0.7269(3)
H13 H 0.57200 -0.33330 0.67640
H14 H 0.47140 -0.50450 0.68500
C16 C 0.8547(6) -0.4613(4) 0.7267(3)
H15 H 0.97840 -0.37020 0.73620
H16 H 0.84740 -0.54750 0.64220
C17 C 0.9142(5) -0.5197(3) 0.8510(2)
H17 H 1.09240 -0.49090 0.89850
H18 H 0.86800 -0.63660 0.82460
C18 C 0.7581(5) -0.4342(3) 0.9408(2)
H19 H 0.64600 -0.51260 0.95900
H20 H 0.86600 -0.36440 1.02890
#END
