
#######################################################################
#
#                 Cambridge Crystallographic Data Centre
#                                CCDC
#
#######################################################################
#
# If this CIF has been generated from an entry in the Cambridge
# Structural Database, then it will include bibliographic, chemical,
# crystal, experimental, refinement or atomic coordinate data resulting
# from the CCDC's data processing and validation procedures.
#
#######################################################################

data_CSD_CIF_JIWTIS
_audit_creation_date 1992-03-02
_audit_creation_method CSD-ConQuest-V1
_database_code_CSD JIWTIS
_chemical_formula_sum 'C17 H10 Bi1 Mn1 O5'
_chemical_formula_moiety
;
C17 H10 Bi1 Mn1 O5
;
_journal_coden_Cambridge 9
_journal_volume 30
_journal_year 1991
_journal_page_first 2788
_journal_name_full 'Inorg.Chem. '
loop_
_publ_author_name
"J.M.Cassidy"
"K.H.Whitmire"
_chemical_name_systematic
;
Diphenylbismuthido-pentacarbonyl-manganese
;
_chemical_melting_point 348.15
_cell_volume    883.899
_exptl_crystal_colour 'orange'
_exptl_crystal_density_diffrn 2.1
_exptl_special_details
;
Melting point range 348.15-354.15K

;
_diffrn_ambient_temperature ?
_diffrn_special_details
;
The study was carried out at room temperature,in the range 283-303K

;
#These two values have been output from a single CSD field.
_refine_ls_R_factor_gt 0.044
_refine_ls_wR_factor_gt 0.044
_symmetry_cell_setting triclinic
_symmetry_space_group_name_H-M 'P -1'
_symmetry_Int_Tables_number 2
loop_
_symmetry_equiv_pos_site_id
_symmetry_equiv_pos_as_xyz
1 x,y,z
2 -x,-y,-z
_cell_length_a 10.135(4)
_cell_length_b 13.484(4)
_cell_length_c 6.567(4)
_cell_angle_alpha 99.11(3)
_cell_angle_beta 92.53(4)
_cell_angle_gamma 86.46(2)
_cell_formula_units_Z 2
loop_
_atom_type_symbol
_atom_type_radius_bond
C 0.68
H 0.23
Bi 1.54
Mn 1.35
O 0.68
loop_
_atom_site_label
_atom_site_type_symbol
_atom_site_fract_x
_atom_site_fract_y
_atom_site_fract_z
Bi1 Bi 0.15537(5) 0.66560(3) 0.24856(7)
Mn1 Mn -0.0344(2) 0.8158(1) 0.1473(3)
O1 O -0.151(1) 0.7877(7) 0.541(1)
O2 O 0.118(1) 0.8086(8) -0.230(1)
O3 O 0.140(1) 0.9654(8) 0.392(2)
O4 O -0.202(1) 0.6572(8) -0.075(2)
O5 O -0.228(1) 0.9750(9) 0.048(2)
C1 C -0.106(1) 0.7984(9) 0.390(2)
C2 C 0.062(1) 0.810(1) -0.086(2)
C3 C 0.076(2) 0.907(1) 0.299(2)
C4 C -0.134(2) 0.715(1) 0.010(2)
C5 C -0.154(1) 0.915(1) 0.089(2)
C6 C 0.218(1) 0.5842(8) -0.064(2)
C7 C 0.128(1) 0.535(1) -0.202(2)
C8 C 0.168(2) 0.469(1) -0.373(2)
C9 C 0.298(2) 0.452(1) -0.409(2)
C10 C 0.388(2) 0.501(1) -0.276(3)
C11 C 0.349(2) 0.567(1) -0.104(2)
C12 C 0.333(2) 0.7574(9) 0.302(2)
C13 C 0.385(2) 0.809(1) 0.162(2)
C14 C 0.488(2) 0.869(1) 0.210(3)
C15 C 0.549(2) 0.874(1) 0.403(4)
C16 C 0.506(2) 0.821(2) 0.542(3)
C17 C 0.399(2) 0.763(1) 0.493(2)
H1 H 0.03590 0.54690 -0.17790
H2 H 0.10420 0.43510 -0.46560
H3 H 0.32650 0.40600 -0.52550
H4 H 0.48020 0.48900 -0.30180
H5 H 0.41360 0.60030 -0.01340
H6 H 0.34650 0.80280 0.02680
H7 H 0.51810 0.90740 0.11180
H8 H 0.62250 0.91470 0.43810
H9 H 0.54980 0.82470 0.67420
H10 H 0.36950 0.72540 0.59200
#END
