
#######################################################################
#
#                 Cambridge Crystallographic Data Centre
#                                CCDC
#
#######################################################################
#
# If this CIF has been generated from an entry in the Cambridge
# Structural Database, then it will include bibliographic, chemical,
# crystal, experimental, refinement or atomic coordinate data resulting
# from the CCDC's data processing and validation procedures.
#
#######################################################################

data_CSD_CIF_JOHXEK
_audit_creation_date 2009-02-06
_audit_creation_method CSD-ConQuest-V1
_database_code_CSD JOHXEK
_database_code_depnum_ccdc_archive 'CCDC 677962'
_chemical_formula_sum 'C17 H18 Fe1 N2 O3'
_chemical_formula_moiety
;
C16 H12 Fe1 N2 O1,H2 O1,C1 H4 O1
;
_journal_coden_Cambridge 182
_journal_year 2008
_journal_page_first 3735
_journal_name_full 'Chem.Commun. '
loop_
_publ_author_name
"M.A.Galindo"
"A.Houlton"
"W.Clegg"
"R.W.Harrington"
"J.Dobado"
"F.Santoyo-Gonzalez"
"F.Linares"
"M.A.Romero"
"J.A.R.Navarro"
_chemical_name_systematic
;
5-ferrocenylethynyl-2-oxo-1H-pyrimidine methanol solvate monohydrate
;
_cell_volume    728.633
_exptl_crystal_colour 'orange'
_exptl_crystal_density_diffrn 1.614
_exptl_crystal_description 'needle'
_diffrn_ambient_temperature 120
_diffrn_radiation_probe x-ray
_diffrn_source synchrotron
_refine_special_details
;
Disordered methanol molecules were removed using SQUEEZE/PLATON.

;
#These two values have been output from a single CSD field.
_refine_ls_R_factor_gt 0.0751
_refine_ls_wR_factor_gt 0.0751
_symmetry_cell_setting triclinic
_symmetry_space_group_name_H-M 'P -1'
_symmetry_Int_Tables_number 2
loop_
_symmetry_equiv_pos_site_id
_symmetry_equiv_pos_as_xyz
1 x,y,z
2 -x,-y,-z
_cell_length_a 6.022(4)
_cell_length_b 9.912(6)
_cell_length_c 12.964(8)
_cell_angle_alpha 78.772(7)
_cell_angle_beta 77.213(6)
_cell_angle_gamma 77.793(6)
_cell_formula_units_Z 2
loop_
_atom_type_symbol
_atom_type_radius_bond
C 0.68
H 0.23
Fe 1.34
N 0.68
O 0.68
loop_
_atom_site_label
_atom_site_type_symbol
_atom_site_fract_x
_atom_site_fract_y
_atom_site_fract_z
N1 N 0.5169(8) 0.4029(5) 0.7210(4)
C1 C 0.3449(10) 0.4060(7) 0.8075(5)
O1 O 0.3706(7) 0.4229(5) 0.8964(4)
N2 N 0.1278(8) 0.3908(5) 0.7962(4)
H1 H 0.023(9) 0.393(7) 0.855(3)
C2 C 0.0819(10) 0.3752(6) 0.7040(5)
H2 H -0.07110 0.36950 0.69950
C3 C 0.2539(10) 0.3675(6) 0.6157(5)
C4 C 0.473(1) 0.3838(6) 0.6299(5)
H3 H 0.59660 0.38080 0.56990
C5 C 0.2137(10) 0.3448(7) 0.5158(5)
C6 C 0.1764(10) 0.3234(6) 0.4347(5)
C7 C 0.128(1) 0.3002(6) 0.3373(5)
C8 C 0.2768(10) 0.3122(7) 0.2357(5)
H4 H 0.42630 0.33650 0.22090
C9 C 0.1634(11) 0.2816(7) 0.1594(5)
H5 H 0.22370 0.28270 0.08510
C10 C -0.0550(11) 0.2494(7) 0.2140(5)
H6 H -0.16620 0.22510 0.18240
C11 C -0.0794(10) 0.2596(6) 0.3243(5)
H7 H -0.20860 0.24270 0.37920
C12 C 0.3377(12) -0.0379(7) 0.3909(6)
H8 H 0.35040 -0.02570 0.46010
C13 C 0.5062(12) -0.0202(7) 0.2971(6)
H9 H 0.65240 0.00490 0.29210
C14 C 0.4182(14) -0.0467(8) 0.2114(6)
H10 H 0.49330 -0.04210 0.13850
C15 C 0.1951(13) -0.0814(7) 0.2562(7)
H11 H 0.09470 -0.10430 0.21760
C16 C 0.1488(12) -0.0764(7) 0.3651(6)
H12 H 0.01210 -0.09580 0.41380
Fe1 Fe 0.20383(14) 0.11483(9) 0.27950(7)
O2 O -0.2234(7) 0.3696(5) 0.9694(3)
H13 H -0.34830 0.38560 0.94680
H14 H -0.26690 0.43120 1.00930
#END
