
#######################################################################
#
#                 Cambridge Crystallographic Data Centre
#                                CCDC
#
#######################################################################
#
# If this CIF has been generated from an entry in the Cambridge
# Structural Database, then it will include bibliographic, chemical,
# crystal, experimental, refinement or atomic coordinate data resulting
# from the CCDC's data processing and validation procedures.
#
#######################################################################

data_CSD_CIF_JOPDOK
_audit_creation_date 2019-08-29
_audit_creation_method CSD-ConQuest-V1
_database_code_CSD JOPDOK
_database_code_depnum_ccdc_archive 'CCDC 1887268'
_chemical_formula_sum 'C28 H22 Co1 N2 O13'
_chemical_formula_moiety
;
(C28 H20 Co1 N2 O12)n,H2 O1
;
_journal_coden_Cambridge 1659
_journal_year 2019
_journal_page_first 118135
_journal_name_full 'Applied Catalysis B: Environmental(Appl.Catal.,B) '
loop_
_publ_author_name
"Zhou Zhong"
"Renfu Li"
"Wenlie Lin"
"Xiao Xu"
"Xuemin Tian"
"Xiaoxin Li"
"Xueyuan Chen"
"Longtian Kang"
_chemical_name_systematic
;
catena-[(\m-2,2'-(1,3,8,10-tetraoxo-1,3,8,10-tetrahydroisoquinolino[4',5',6':6
,5,10]anthra[2,1,9-def]isoquinoline-2,9-diyl)diacetato)-tetraaqua-cobalt(ii) 
monohydrate]
;
_cell_volume    614.767
_exptl_crystal_colour 'brick red'
_exptl_crystal_density_diffrn 1.765
_exptl_crystal_description 'rod'
_diffrn_ambient_temperature 293
_refine_special_details
;
O7W disordered by symmetry over two configurations with occupancy 0.5.

;
#These two values have been output from a single CSD field.
_refine_ls_R_factor_gt 0.0679
_refine_ls_wR_factor_gt 0.0679
_symmetry_cell_setting triclinic
_symmetry_space_group_name_H-M 'P -1'
_symmetry_Int_Tables_number 2
loop_
_symmetry_equiv_pos_site_id
_symmetry_equiv_pos_as_xyz
1 x,y,z
2 -x,-y,-z
_cell_length_a 4.7917(4)
_cell_length_b 8.3466(9)
_cell_length_c 16.0425(10)
_cell_angle_alpha 76.943(7)
_cell_angle_beta 81.836(6)
_cell_angle_gamma 81.925(8)
_cell_formula_units_Z 1
loop_
_atom_type_symbol
_atom_type_radius_bond
C 0.68
H 0.23
Co 1.26
N 0.68
O 0.68
loop_
_atom_site_label
_atom_site_type_symbol
_atom_site_fract_x
_atom_site_fract_y
_atom_site_fract_z
Co1 Co 1.00000 0.50000 0.00000
O1 O 1.0614(5) 0.5890(3) 0.36938(16)
O2 O 0.7911(5) 0.5642(3) 0.19311(17)
O3 O 1.1583(6) 0.5975(3) 0.08953(17)
O4 O 1.3433(6) 0.3168(3) 0.00565(19)
H1 H 1.28991 0.22728 -0.00081
H2 H 1.40612 0.29951 0.05459
N1 N 0.9141(6) 0.8033(4) 0.26514(19)
O5 O 0.7447(8) 1.0021(5) 0.1580(2)
C1 C 0.6531(7) 0.7631(4) 0.4095(2)
C2 C 0.1993(7) 0.8570(4) 0.5273(2)
C3 C 0.4580(7) 0.9011(4) 0.3821(2)
C4 C 0.0370(7) 1.0927(4) 0.4119(2)
C5 C 0.2285(7) 0.9502(4) 0.4412(2)
C6 C 0.8907(7) 0.7087(4) 0.3493(2)
C7 C 0.6210(7) 0.6751(4) 0.4933(2)
H3 H 0.75082 0.58421 0.51118
C8 C 0.3956(7) 0.7210(4) 0.5517(2)
H4 H 0.37652 0.65948 0.60784
C9 C 0.4893(8) 0.9896(4) 0.2959(2)
C10 C 0.0804(8) 1.1790(4) 0.3271(2)
H5 H -0.04122 1.27348 0.30843
C11 C 1.1285(8) 0.7421(5) 0.2024(2)
H6 H 1.29032 0.68437 0.23098
H7 H 1.19277 0.83504 0.15909
C12 C 0.3018(8) 1.1273(5) 0.2697(2)
H8 H 0.32359 1.18622 0.21298
C13 C 1.0131(8) 0.6260(5) 0.1589(2)
C14 C 0.7199(9) 0.9356(5) 0.2342(3)
O6 O 0.7702(7) 0.3500(4) 0.10071(18)
H9 H 0.71019 0.40248 0.14150
O7? O 1.1563(14) 0.0238(7) 0.0140(4)
H10? H 1.382(7) 0.000(5) 0.008(2)
H11? H 1.62578 0.32283 0.08268
O1A O -1.0614(5) 1.4110(3) 0.63062(16)
O2A O -0.7911(5) 1.4358(3) 0.80689(17)
O3A O -1.1583(6) 1.4025(3) 0.91047(17)
N1A N -0.9141(6) 1.1967(4) 0.73486(19)
O5A O -0.7447(8) 0.9979(5) 0.8420(2)
C1A C -0.6531(7) 1.2369(4) 0.5905(2)
C2A C -0.1993(7) 1.1430(4) 0.4727(2)
C3A C -0.4580(7) 1.0989(4) 0.6179(2)
C4A C -0.0370(7) 0.9073(4) 0.5881(2)
C5A C -0.2285(7) 1.0498(4) 0.5588(2)
C6A C -0.8907(7) 1.2913(4) 0.6507(2)
C7A C -0.6210(7) 1.3249(4) 0.5067(2)
H3A H -0.75082 1.41579 0.48882
C8A C -0.3956(7) 1.2790(4) 0.4483(2)
H4A H -0.37652 1.34052 0.39216
C9A C -0.4893(8) 1.0104(4) 0.7041(2)
C10A C -0.0804(8) 0.8210(4) 0.6729(2)
H5A H 0.04122 0.72652 0.69157
C11A C -1.1285(8) 1.2579(5) 0.7976(2)
H6A H -1.29032 1.31563 0.76902
H7A H -1.19277 1.16496 0.84091
C12A C -0.3018(8) 0.8727(5) 0.7303(2)
H8A H -0.32359 0.81378 0.78702
C13A C -1.0131(8) 1.3740(5) 0.8411(2)
C14A C -0.7199(9) 1.0644(5) 0.7658(3)
O4A O 0.6567(6) 0.6832(3) -0.00565(19)
H1A H 0.71009 0.77272 0.00081
H2A H 0.59388 0.70049 -0.05459
O6A O 1.2298(7) 0.6500(4) -0.10071(18)
H9A H 1.28981 0.59752 -0.14150
Co1* Co -1.00000 1.50000 1.00000
O3A* O 0.8417(6) 0.4025(3) -0.08953(17)
#END
