
#######################################################################
#
#                 Cambridge Crystallographic Data Centre
#                                CCDC
#
#######################################################################
#
# If this CIF has been generated from an entry in the Cambridge
# Structural Database, then it will include bibliographic, chemical,
# crystal, experimental, refinement or atomic coordinate data resulting
# from the CCDC's data processing and validation procedures.
#
#######################################################################

data_CSD_CIF_JOPHUU
_audit_creation_date 2019-08-29
_audit_creation_method CSD-ConQuest-V1
_database_code_CSD JOPHUU
_database_code_depnum_ccdc_archive 'CCDC 1940481'
_chemical_formula_sum 'C8 H10 Co1 N4 O6'
_chemical_formula_moiety
;
C8 H10 Co1 N4 O6
;
_journal_coeditor_code "fn3320"
_journal_coden_Cambridge 1777
_journal_volume 75
_journal_year 2019
_journal_page_first 1319
_journal_name_full 'Acta Crystallogr.,Sect.C:Cryst.Struct.Chem. '
loop_
_publ_author_name
"N.Meundaeng"
"T.J.Prior"
"A.Rujiwatra"
_chemical_name_systematic
;
diaqua-bis(1H-imidazole-2-carboxylato)-cobalt(ii)
;
_cell_volume    560.139
_exptl_crystal_colour 'pale orange'
_exptl_crystal_density_diffrn 1.88
_exptl_crystal_description 'block'
_diffrn_ambient_temperature 150
#These two values have been output from a single CSD field.
_refine_ls_R_factor_gt 0.0234
_refine_ls_wR_factor_gt 0.0234
_symmetry_cell_setting monoclinic
_symmetry_space_group_name_H-M 'P 21/c'
_symmetry_Int_Tables_number 14
loop_
_symmetry_equiv_pos_site_id
_symmetry_equiv_pos_as_xyz
1 x,y,z
2 -x,1/2+y,1/2-z
3 -x,-y,-z
4 x,-1/2-y,-1/2+z
_cell_length_a 5.1145(7)
_cell_length_b 10.6123(12)
_cell_length_c 10.4179(13)
_cell_angle_alpha 90
_cell_angle_beta 97.858(10)
_cell_angle_gamma 90
_cell_formula_units_Z 2
loop_
_atom_type_symbol
_atom_type_radius_bond
C 0.68
H 0.23
Co 1.26
N 0.68
O 0.68
loop_
_atom_site_label
_atom_site_type_symbol
_atom_site_fract_x
_atom_site_fract_y
_atom_site_fract_z
Co1 Co 0.50000 0.50000 0.50000
C1 C 0.2691(3) 0.89171(17) 0.42726(16)
H1 H 0.1925(19) 0.9647(17) 0.43085(18)
O1 O 0.7373(2) 0.54766(10) 0.35744(11)
O2 O 0.2152(2) 0.44396(13) 0.34702(12)
O3 O 0.8152(2) 0.70089(11) 0.22067(12)
N1 N 0.3895(3) 0.69131(12) 0.46601(13)
C2 C 0.5145(3) 0.73694(15) 0.37229(15)
C3 C 0.7044(3) 0.65913(15) 0.31028(15)
C4 C 0.2359(3) 0.78838(15) 0.50138(17)
H2 H 0.129(2) 0.78431(18) 0.5645(14)
N2 N 0.4455(3) 0.85818(13) 0.34665(14)
H3 H 0.5026(15) 0.9055(12) 0.2898(14)
H4 H 0.198(4) 0.368(2) 0.337(2)
H5 H 0.076(5) 0.474(2) 0.343(2)
C1B C 0.7309(3) 0.10829(17) 0.57274(16)
H1B H 0.8075(19) 0.0353(17) 0.56915(18)
O1B O 0.2627(2) 0.45234(10) 0.64256(11)
O2B O 0.7848(2) 0.55604(13) 0.65298(12)
O3B O 0.1848(2) 0.29911(11) 0.77933(12)
N1B N 0.6105(3) 0.30869(12) 0.53399(13)
C2B C 0.4855(3) 0.26306(15) 0.62771(15)
C3B C 0.2956(3) 0.34087(15) 0.68972(15)
C4B C 0.7641(3) 0.21162(15) 0.49862(17)
H2B H 0.871(2) 0.21569(18) 0.4355(14)
N2B N 0.5545(3) 0.14182(13) 0.65335(14)
H3B H 0.4974(15) 0.0945(12) 0.7102(14)
H4B H 0.802(4) 0.632(2) 0.663(2)
H5B H 0.924(5) 0.526(2) 0.657(2)
#END
