
#######################################################################
#
#                 Cambridge Crystallographic Data Centre
#                                CCDC
#
#######################################################################
#
# If this CIF has been generated from an entry in the Cambridge
# Structural Database, then it will include bibliographic, chemical,
# crystal, experimental, refinement or atomic coordinate data resulting
# from the CCDC's data processing and validation procedures.
#
#######################################################################

data_CSD_CIF_JOPHEE
_audit_creation_date 2019-08-29
_audit_creation_method CSD-ConQuest-V1
_database_code_CSD JOPHEE
_database_code_depnum_ccdc_archive 'CCDC 1940478'
_chemical_formula_sum 'C8 H8 Co1 N2 O6 S2'
_chemical_formula_moiety
;
C8 H8 Co1 N2 O6 S2
;
_journal_coeditor_code "fn3320"
_journal_coden_Cambridge 1777
_journal_volume 75
_journal_year 2019
_journal_page_first 1319
_journal_name_full 'Acta Crystallogr.,Sect.C:Cryst.Struct.Chem. '
loop_
_publ_author_name
"N.Meundaeng"
"T.J.Prior"
"A.Rujiwatra"
_chemical_name_systematic
;
diaqua-bis(1,3-thiazole-2-carboxylato)-cobalt(ii)
;
_cell_volume    598.725
_exptl_crystal_colour 'dark pink'
_exptl_crystal_density_diffrn 1.948
_exptl_crystal_description 'Block'
_diffrn_ambient_temperature 150
#These two values have been output from a single CSD field.
_refine_ls_R_factor_gt 0.0215
_refine_ls_wR_factor_gt 0.0215
_symmetry_cell_setting monoclinic
_symmetry_space_group_name_H-M 'P 21/n'
_symmetry_Int_Tables_number 14
loop_
_symmetry_equiv_pos_site_id
_symmetry_equiv_pos_as_xyz
1 x,y,z
2 1/2-x,1/2+y,1/2-z
3 -x,-y,-z
4 -1/2+x,-1/2-y,-1/2+z
_cell_length_a 5.0481(4)
_cell_length_b 18.633(2)
_cell_length_c 6.7533(6)
_cell_angle_alpha 90
_cell_angle_beta 109.517(7)
_cell_angle_gamma 90
_cell_formula_units_Z 2
loop_
_atom_type_symbol
_atom_type_radius_bond
C 0.68
H 0.23
Co 1.26
N 0.68
O 0.68
S 1.02
loop_
_atom_site_label
_atom_site_type_symbol
_atom_site_fract_x
_atom_site_fract_y
_atom_site_fract_z
Co1 Co 0.50000 0.50000 0.50000
S1 S 0.68756(8) 0.71302(2) 0.82051(5)
O1 O 0.3270(2) 0.52278(5) 0.73902(14)
O2 O 0.1516(2) 0.54862(6) 0.27445(14)
O3 O 0.3324(2) 0.60882(6) 0.97625(14)
N1 N 0.6624(2) 0.60438(6) 0.58708(15)
C1 C 0.3988(3) 0.58325(7) 0.82967(18)
C2 C 0.5815(3) 0.62785(7) 0.74123(18)
C3 C 0.8481(3) 0.71826(8) 0.6352(2)
H1 H 0.946(2) 0.7588(9) 0.6121(5)
C4 C 0.8151(3) 0.65571(7) 0.52517(19)
H2 H 0.8902(14) 0.64818(16) 0.416(2)
H3 H 0.188(5) 0.5618(11) 0.179(3)
H4 H -0.008(5) 0.5279(13) 0.240(3)
S1B S 0.31244(8) 0.28698(2) 0.17949(5)
O1B O 0.6730(2) 0.47722(5) 0.26098(14)
O2B O 0.8484(2) 0.45138(6) 0.72555(14)
O3B O 0.6676(2) 0.39118(6) 0.02375(14)
N1B N 0.3376(2) 0.39562(6) 0.41292(15)
C1B C 0.6012(3) 0.41675(7) 0.17033(18)
C2B C 0.4185(3) 0.37215(7) 0.25877(18)
C3B C 0.1519(3) 0.28174(8) 0.3648(2)
H1B H 0.054(2) 0.2412(9) 0.3879(5)
C4B C 0.1849(3) 0.34429(7) 0.47483(19)
H2B H 0.1098(14) 0.35182(16) 0.584(2)
H3B H 0.812(5) 0.4382(11) 0.821(3)
H4B H 1.008(5) 0.4721(13) 0.760(3)
#END
