
#######################################################################
#
#                 Cambridge Crystallographic Data Centre
#                                CCDC
#
#######################################################################
#
# If this CIF has been generated from an entry in the Cambridge
# Structural Database, then it will include bibliographic, chemical,
# crystal, experimental, refinement or atomic coordinate data resulting
# from the CCDC's data processing and validation procedures.
#
#######################################################################

data_CSD_CIF_JOPJAC
_audit_creation_date 2019-08-29
_audit_creation_method CSD-ConQuest-V1
_database_code_CSD JOPJAC
_database_code_depnum_ccdc_archive 'CCDC 1940482'
_chemical_formula_sum 'C8 H8 Co1 N2 O8'
_chemical_formula_moiety
;
C8 H8 Co1 N2 O8
;
_journal_coeditor_code "fn3320"
_journal_coden_Cambridge 1777
_journal_volume 75
_journal_year 2019
_journal_page_first 1319
_journal_name_full 'Acta Crystallogr.,Sect.C:Cryst.Struct.Chem. '
loop_
_publ_author_name
"N.Meundaeng"
"T.J.Prior"
"A.Rujiwatra"
_chemical_name_systematic
;
diaqua-bis(1,3-oxazole-4-carboxylato)-cobalt(ii)
;
_cell_volume    546.369
_exptl_crystal_colour 'pink'
_exptl_crystal_density_diffrn 1.94
_exptl_crystal_description 'rod'
_diffrn_ambient_temperature 150
#These two values have been output from a single CSD field.
_refine_ls_R_factor_gt 0.0247
_refine_ls_wR_factor_gt 0.0247
_symmetry_cell_setting monoclinic
_symmetry_space_group_name_H-M 'P 21/c'
_symmetry_Int_Tables_number 14
loop_
_symmetry_equiv_pos_site_id
_symmetry_equiv_pos_as_xyz
1 x,y,z
2 -x,1/2+y,1/2-z
3 -x,-y,-z
4 x,-1/2-y,-1/2+z
_cell_length_a 5.1664(7)
_cell_length_b 10.9879(15)
_cell_length_c 9.7550(11)
_cell_angle_alpha 90
_cell_angle_beta 99.378(10)
_cell_angle_gamma 90
_cell_formula_units_Z 2
loop_
_atom_type_symbol
_atom_type_radius_bond
C 0.68
H 0.23
Co 1.26
N 0.68
O 0.68
loop_
_atom_site_label
_atom_site_type_symbol
_atom_site_fract_x
_atom_site_fract_y
_atom_site_fract_z
Co1 Co 0.50000 0.50000 0.50000
O1 O 0.2663(2) 0.88157(11) 0.48213(14)
O2 O 0.7373(2) 0.56802(10) 0.36309(13)
O3 O 0.2083(2) 0.46901(12) 0.32952(14)
O4 O 0.8395(2) 0.73459(11) 0.25189(14)
N1 N 0.3868(3) 0.68823(13) 0.49404(15)
C1 C 0.5207(3) 0.74931(15) 0.40020(18)
C2 C 0.7136(3) 0.68066(14) 0.33175(17)
C3 C 0.2420(3) 0.77044(15) 0.53788(19)
H1 H 0.132(2) 0.7548(4) 0.6016(14)
C4 C 0.4451(3) 0.86603(16) 0.3935(2)
H2 H 0.4986(14) 0.9211(15) 0.3430(13)
H3 H 0.194(4) 0.398(3) 0.303(3)
H4 H 0.076(5) 0.497(3) 0.334(3)
O1B O 0.7337(2) 0.11843(11) 0.51787(14)
O2B O 0.2627(2) 0.43198(10) 0.63691(13)
O3B O 0.7917(2) 0.53099(12) 0.67048(14)
O4B O 0.1605(2) 0.26541(11) 0.74811(14)
N1B N 0.6132(3) 0.31177(13) 0.50596(15)
C1B C 0.4793(3) 0.25069(15) 0.59980(18)
C2B C 0.2864(3) 0.31934(14) 0.66825(17)
C3B C 0.7580(3) 0.22956(15) 0.46212(19)
H1B H 0.868(2) 0.2452(4) 0.3984(14)
C4B C 0.5549(3) 0.13397(16) 0.6065(2)
H2B H 0.5014(14) 0.0789(15) 0.6570(13)
H3B H 0.806(4) 0.602(3) 0.697(3)
H4B H 0.924(5) 0.503(3) 0.666(3)
#END
