
#######################################################################
#
#                 Cambridge Crystallographic Data Centre
#                                CCDC
#
#######################################################################
#
# If this CIF has been generated from an entry in the Cambridge
# Structural Database, then it will include bibliographic, chemical,
# crystal, experimental, refinement or atomic coordinate data resulting
# from the CCDC's data processing and validation procedures.
#
#######################################################################

data_CSD_CIF_JOYNEQ
_audit_creation_date 1999-07-14
_audit_creation_method CSD-ConQuest-V1
_database_code_CSD JOYNEQ
_database_code_depnum_ccdc_archive 'CCDC 1189732'
_chemical_formula_sum 'C10 H9 Cl2 Co1 N3'
_chemical_formula_moiety
;
C10 H9 Cl2 Co1 N3
;
_journal_coden_Cambridge 580
_journal_volume 17
_journal_year 1998
_journal_page_first 589
_journal_name_full 'Polyhedron '
loop_
_publ_author_name
"F.A.Cotton"
"L.M.Daniels"
"G.T.Jordan IV"
"C.A.Murillo"
_chemical_name_systematic
;
Dichloro-(2,2'-dipyridylamine)-cobalt(ii)
;
_cell_volume    576.080
_exptl_crystal_colour 'dark blue'
_exptl_crystal_density_diffrn 1.735
_exptl_crystal_preparation 'DMSO/dichloromethane/diethyl ether'
_diffrn_ambient_temperature 213
#These two values have been output from a single CSD field.
_refine_ls_R_factor_gt 0.032
_refine_ls_wR_factor_gt 0.032
_symmetry_cell_setting triclinic
_symmetry_space_group_name_H-M 'P -1'
_symmetry_Int_Tables_number 2
loop_
_symmetry_equiv_pos_site_id
_symmetry_equiv_pos_as_xyz
1 x,y,z
2 -x,-y,-z
_cell_length_a 7.363(1)
_cell_length_b 8.647(2)
_cell_length_c 9.387(3)
_cell_angle_alpha 75.14(2)
_cell_angle_beta 89.73(2)
_cell_angle_gamma 85.84(2)
_cell_formula_units_Z 2
loop_
_atom_type_symbol
_atom_type_radius_bond
C 0.68
H 0.23
Cl 0.99
Co 1.33
N 0.68
loop_
_atom_site_label
_atom_site_type_symbol
_atom_site_fract_x
_atom_site_fract_y
_atom_site_fract_z
Co1 Co 0.7503(1) 0.3108(1) 0.3447(1)
Cl1 Cl 0.5217(1) 0.2155(1) 0.2483(1)
Cl2 Cl 1.0181(1) 0.1870(1) 0.3082(1)
N1 N 0.7720(4) 0.5486(3) 0.2772(3)
N2 N 0.7854(4) 0.5829(3) 0.5198(3)
N3 N 0.7102(4) 0.3121(3) 0.5550(3)
C1 C 0.7843(6) 0.6166(5) 0.1300(4)
C2 C 0.8182(6) 0.7713(5) 0.0712(4)
C3 C 0.8430(6) 0.8672(4) 0.1670(4)
C4 C 0.8309(5) 0.8030(4) 0.3159(4)
C5 C 0.7955(5) 0.6422(4) 0.3699(4)
C6 C 0.6631(5) 0.1752(4) 0.6505(4)
C7 C 0.6455(6) 0.1570(5) 0.7989(4)
C8 C 0.6817(6) 0.2856(4) 0.8556(4)
C9 C 0.7299(5) 0.4257(4) 0.7615(4)
C10 C 0.7412(5) 0.4376(4) 0.6098(4)
H1 H 0.8126(4) 0.6513(3) 0.5686(3)
H2 H 0.7672(58) 0.5524(51) 0.0774(49)
H3 H 0.8326(59) 0.8084(51) -0.0229(52)
H4 H 0.8764(56) 0.9755(52) 0.1276(45)
H5 H 0.8427(54) 0.8610(47) 0.3793(46)
H6 H 0.6414(54) 0.0906(49) 0.6038(44)
H7 H 0.6067(58) 0.0551(51) 0.8586(46)
H8 H 0.6684(58) 0.2803(49) 0.9534(50)
H9 H 0.7488(55) 0.5045(50) 0.7995(45)
#END
