
#######################################################################
#
#                 Cambridge Crystallographic Data Centre
#                                CCDC
#
#######################################################################
#
# If this CIF has been generated from an entry in the Cambridge
# Structural Database, then it will include bibliographic, chemical,
# crystal, experimental, refinement or atomic coordinate data resulting
# from the CCDC's data processing and validation procedures.
#
#######################################################################

data_CSD_CIF_JOZCIK
_audit_creation_date 1993-02-02
_audit_creation_method CSD-ConQuest-V1
_database_code_CSD JOZCIK
_chemical_formula_sum 'C22 H31 Cr1 N2 O18'
_chemical_formula_moiety
;
C12 H11 Cr1 O14 2-,2(C5 H6 N1 1+),4(H2 O1)
;
_journal_coden_Cambridge 580
_journal_volume 11
_journal_year 1992
_journal_page_first 1343
_journal_name_full 'Polyhedron '
loop_
_publ_author_name
"M.Quiros"
"D.M.L.Goodgame"
"D.J.Williams"
_chemical_name_systematic
;
bis(Pyridinium) bis(citrato)-chromium(iii) tetrahydrate
;
_cell_volume    708.508
_exptl_crystal_colour 'yellowish-green'
_exptl_crystal_density_diffrn 1.56
_diffrn_ambient_temperature ?
_diffrn_special_details
;
The study was carried out at room temperature,in the range 283-303K

;
_refine_special_details
;
Both hydroxy groups are disordered, as are the Hs of the water molecules.

;
#These two values have been output from a single CSD field.
_refine_ls_R_factor_gt 0.035
_refine_ls_wR_factor_gt 0.035
_symmetry_cell_setting triclinic
_symmetry_space_group_name_H-M 'P -1'
_symmetry_Int_Tables_number 2
loop_
_symmetry_equiv_pos_site_id
_symmetry_equiv_pos_as_xyz
1 x,y,z
2 -x,-y,-z
_cell_length_a 7.584(1)
_cell_length_b 10.070(2)
_cell_length_c 10.389(2)
_cell_angle_alpha 88.01(2)
_cell_angle_beta 69.81(2)
_cell_angle_gamma 72.60(1)
_cell_formula_units_Z 1
loop_
_atom_type_symbol
_atom_type_radius_bond
C 0.68
H 0.23
Cr 1.35
N 0.68
O 0.68
loop_
_atom_site_label
_atom_site_type_symbol
_atom_site_fract_x
_atom_site_fract_y
_atom_site_fract_z
Cr1 Cr 0.00000 0.00000 0.00000
C1 C -0.0679(4) -0.2095(3) 0.2053(3)
O1 O -0.0033(3) -0.1812(2) 0.0812(2)
O2 O -0.0579(3) -0.3316(2) 0.2369(2)
C2 C -0.1601(4) -0.0960(3) 0.3216(3)
C3 C -0.1272(4) 0.0457(3) 0.2833(2)
O3 O -0.2012(3) 0.0952(2) 0.1742(2)
C4 C -0.2314(4) 0.1482(3) 0.4103(3)
C5 C -0.1921(4) 0.2862(3) 0.3911(3)
O4 O -0.0771(3) 0.3166(2) 0.2935(2)
O5 O -0.3044(4) 0.3746(3) 0.4980(3)
C6 C 0.0966(4) 0.0255(3) 0.2274(3)
O6 O 0.1769(2) 0.0165(2) 0.0953(2)
O7 O 0.1857(3) 0.0140(2) 0.3079(2)
N1 N 0.2130(3) 0.4802(3) 0.0250(3)
C7 C 0.3056(5) 0.5389(3) -0.0830(3)
C8 C 0.4614(5) 0.4572(4) -0.1876(3)
C9 C 0.5186(5) 0.3154(3) -0.1802(3)
C10 C 0.4214(5) 0.2570(3) -0.0692(3)
C11 C 0.2668(5) 0.3416(4) 0.0334(3)
O8 O 0.4069(4) 0.1918(3) 0.2876(3)
H1 H 0.3375(53) 0.1366(36) 0.2784(44)
H2? H 0.5353(29) 0.1785(74) 0.2391(65)
H3 H 0.428(11) 0.1648(75) 0.3657(42)
O9 O -0.1851(4) -0.4045(2) 0.5002(2)
H4? H -0.1584(52) -0.3716(36) 0.4164(17)
H5 H -0.2625(84) -0.3413(55) 0.5716(47)
H6 H -0.0632(45) -0.4185(71) 0.5021(80)
H7 H -0.29980 -0.08170 0.35700
H8 H -0.10610 -0.12810 0.39220
H9? H -0.3336(9) 0.1202(67) 0.2040(68)
H10 H -0.18890 0.10630 0.48320
H11 H -0.37090 0.16480 0.43580
H12 H -0.2808(60) 0.4574(21) 0.4856(41)
H13 H 0.10440 0.53860 0.09930
H14 H 0.26300 0.63830 -0.08730
H15 H 0.53060 0.49850 -0.26590
H16 H 0.62810 0.25710 -0.25390
H17 H 0.46140 0.15770 -0.06350
H18 H 0.19570 0.30200 0.11240
O1A O 0.0033(3) 0.1812(2) -0.0812(2)
C1A C 0.0679(4) 0.2095(3) -0.2053(3)
O2A O 0.0579(3) 0.3316(2) -0.2369(2)
C2A C 0.1601(4) 0.0960(3) -0.3216(3)
C3A C 0.1272(4) -0.0457(3) -0.2833(2)
O3A O 0.2012(3) -0.0952(2) -0.1742(2)
O6A O -0.1769(2) -0.0165(2) -0.0953(2)
C6A C -0.0966(4) -0.0255(3) -0.2274(3)
C4A C 0.2314(4) -0.1482(3) -0.4103(3)
C5A C 0.1921(4) -0.2862(3) -0.3911(3)
O4A O 0.0771(3) -0.3166(2) -0.2935(2)
O5A O 0.3044(4) -0.3746(3) -0.4980(3)
H12A H 0.2808(60) -0.4574(21) -0.4856(41)
H10A H 0.18890 -0.10630 -0.48320
H11A H 0.37090 -0.16480 -0.43580
O7A O -0.1857(3) -0.0140(2) -0.3079(2)
H7A H 0.29980 0.08170 -0.35700
H8A H 0.10610 0.12810 -0.39220
#END
