
#######################################################################
#
#                 Cambridge Crystallographic Data Centre
#                                CCDC
#
#######################################################################
#
# If this CIF has been generated from an entry in the Cambridge
# Structural Database, then it will include bibliographic, chemical,
# crystal, experimental, refinement or atomic coordinate data resulting
# from the CCDC's data processing and validation procedures.
#
#######################################################################

data_CSD_CIF_KARWEF
_audit_creation_date 1990-02-23
_audit_creation_method CSD-ConQuest-V1
_database_code_CSD KARWEF
_chemical_formula_sum 'C12 H10 Cr1 O7'
_chemical_formula_moiety
;
C12 H10 Cr1 O7
;
_journal_coden_Cambridge 4
_journal_volume 111
_journal_year 1989
_journal_page_first 4762
_journal_name_full 'J.Am.Chem.Soc. '
loop_
_publ_author_name
"K.N.Juneau"
"L.S.Hegedus"
"F.W.Roepke"
_chemical_name_systematic
;
(2,3-Diethoxycyclopropenylidene)-pentacarbonyl-chromium(0)
;
_chemical_melting_point 335.15
_cell_volume   2856.435
_exptl_crystal_colour 'white'
_exptl_crystal_density_diffrn 1.48
_exptl_special_details
;
Melting point range 335.15-337.15K
The R factor is given as 0.0035, possibly should be 0.035
;
_diffrn_ambient_temperature 153.15
_symmetry_cell_setting orthorhombic
_symmetry_space_group_name_H-M 'F d d 2'
_symmetry_Int_Tables_number 43
loop_
_symmetry_equiv_pos_site_id
_symmetry_equiv_pos_as_xyz
1 x,y,z
2 x,1/2+y,1/2+z
3 1/2+x,y,1/2+z
4 1/2+x,1/2+y,z
5 1/4-x,1/4+y,1/4+z
6 1/4-x,3/4+y,3/4+z
7 3/4-x,1/4+y,3/4+z
8 3/4-x,3/4+y,1/4+z
9 1/4+x,1/4-y,1/4+z
10 1/4+x,3/4-y,3/4+z
11 3/4+x,1/4-y,3/4+z
12 3/4+x,3/4-y,1/4+z
13 1/2-x,-y,1/2+z
14 1/2-x,1/2-y,z
15 -x,-y,z
16 -x,1/2-y,1/2+z
_cell_length_a 18.105(4)
_cell_length_b 11.965(4)
_cell_length_c 13.186(3)
_cell_angle_alpha 90
_cell_angle_beta 90
_cell_angle_gamma 90
_cell_formula_units_Z 8
loop_
_atom_type_symbol
_atom_type_radius_bond
C 0.68
H 0.23
Cr 1.35
O 0.68
loop_
_atom_site_label
_atom_site_type_symbol
_atom_site_fract_x
_atom_site_fract_y
_atom_site_fract_z
Cr1 Cr 0.00000 0.00000 0.82130
O1 O 0.0628(2) 0.1151(2) 0.5242(3)
O2 O 0.00000 0.00000 1.0504(5)
O3 O 0.1674(2) -0.0083(3) 0.8212(6)
O4 O -0.0130(3) -0.2525(2) 0.8235(5)
C1 C 0.00000 0.00000 0.6689(5)
C2 C 0.0232(2) 0.0435(3) 0.5747(4)
C3 C 0.1011(2) 0.1980(3) 0.5878(3)
C4 C 0.1463(3) 0.2673(4) 0.5181(4)
C5 C 0.00000 0.00000 0.9647(6)
C6 C 0.1044(2) -0.0069(3) 0.8212(6)
C7 C -0.0069(2) -0.1578(3) 0.8230(5)
H1 H 0.06590 0.24380 0.62280
H2 H 0.13230 0.16100 0.63620
H3 H 0.17300 0.31800 0.56100
H4 H 0.11460 0.30880 0.47360
H5 H 0.18060 0.22420 0.47870
C6N C -0.1044(2) 0.0069(3) 0.8212(6)
C7N C 0.0069(2) 0.1578(3) 0.8230(5)
C2N C -0.0232(2) -0.0435(3) 0.5747(4)
O3N O -0.1674(2) 0.0083(3) 0.8212(6)
O4N O 0.0130(3) 0.2525(2) 0.8235(5)
O1N O -0.0628(2) -0.1151(2) 0.5242(3)
C3N C -0.1011(2) -0.1980(3) 0.5878(3)
C4N C -0.1463(3) -0.2673(4) 0.5181(4)
H1N H -0.06590 -0.24380 0.62280
H2N H -0.13230 -0.16100 0.63620
H3N H -0.17300 -0.31800 0.56100
H4N H -0.11460 -0.30880 0.47360
H5N H -0.18060 -0.22420 0.47870
#END
