
#######################################################################
#
#                 Cambridge Crystallographic Data Centre
#                                CCDC
#
#######################################################################
#
# If this CIF has been generated from an entry in the Cambridge
# Structural Database, then it will include bibliographic, chemical,
# crystal, experimental, refinement or atomic coordinate data resulting
# from the CCDC's data processing and validation procedures.
#
#######################################################################

data_CSD_CIF_KATLIC
_audit_creation_date 2012-02-24
_audit_creation_method CSD-ConQuest-V1
_database_code_CSD KATLIC
_database_code_depnum_ccdc_archive 'CCDC 799968'
_chemical_formula_sum 'C14 H18 Co1 N12 O8'
_chemical_formula_moiety
;
(C14 H14 Co1 N12 O6)n,2n(H2 O1)
;
_journal_coden_Cambridge 208
_journal_volume 124
_journal_year 2012
_journal_page_first 186
_journal_name_full 'J.Solid State Chem. '
loop_
_publ_author_name
"Jie Yang"
"Lei Shen"
"Gao-Wen Yang"
"Qiao-Yun Li"
"Wei Shen"
"Jian-Ning Jin"
"Jing-Jing Zhao"
"Jian Dai"
_chemical_name_systematic
;
catena-(bis(\m~2~-(5-(Pyrazin-2-yl)-2H-tetrazol-2-yl)acetato)-diaqua-cobalt 
dihydrate)
;
_cell_volume    555.207
_exptl_crystal_density_diffrn 1.619
_diffrn_ambient_temperature 291
#These two values have been output from a single CSD field.
_refine_ls_R_factor_gt 0.0682
_refine_ls_wR_factor_gt 0.0682
_symmetry_cell_setting triclinic
_symmetry_space_group_name_H-M 'P -1'
_symmetry_Int_Tables_number 2
loop_
_symmetry_equiv_pos_site_id
_symmetry_equiv_pos_as_xyz
1 x,y,z
2 -x,-y,-z
_cell_length_a 7.2524(15)
_cell_length_b 8.7822(18)
_cell_length_c 9.2384(18)
_cell_angle_alpha 72.22(3)
_cell_angle_beta 82.39(3)
_cell_angle_gamma 86.36(3)
_cell_formula_units_Z 1
loop_
_atom_type_symbol
_atom_type_radius_bond
C 0.68
H 0.23
Co 1.26
N 0.68
O 0.68
loop_
_atom_site_label
_atom_site_type_symbol
_atom_site_fract_x
_atom_site_fract_y
_atom_site_fract_z
Co1 Co 1.00000 1.00000 -1.00000
O1 O 1.2567(3) 0.9664(2) -1.1135(3)
O2 O 1.1035(3) 1.1930(2) -0.9498(3)
H1 H 1.17280 1.26210 -1.01560
H2 H 1.01960 1.25050 -0.91700
O3 O 1.2360(5) 0.7462(4) -1.1829(4)
N1 N 1.5942(5) 0.7690(4) -1.3192(4)
N2 N 1.6680(5) 0.6256(4) -1.2545(4)
C1 C 1.3217(6) 0.8598(5) -1.1729(5)
C2 C 1.5258(6) 0.8826(5) -1.2371(5)
H3 H 1.54170 0.99040 -1.30590
H4 H 1.59940 0.87030 -1.15370
N3 N 1.8189(6) 0.3700(5) -1.4914(4)
N4 N 1.6479(6) 0.6678(5) -1.5026(4)
N5 N 1.5809(6) 0.7974(5) -1.4669(5)
C3 C 1.8296(6) 0.3036(5) -1.2224(5)
H5 H 1.80000 0.33410 -1.13390
C4 C 1.7842(6) 0.4063(5) -1.3610(5)
C5 C 1.6996(6) 0.5668(5) -1.3704(5)
C6 C 1.9020(7) 0.2273(5) -1.4801(6)
H6 H 1.92810 0.19520 -1.56790
C7 C 1.9501(7) 0.1265(5) -1.3450(5)
H7 H 2.00980 0.02950 -1.34470
N6 N 1.9145(4) 0.1622(3) -1.2132(3)
O4 O 1.2901(4) 1.4098(3) -1.1848(3)
H8 H 1.28130 1.51480 -1.19350
H9 H 1.31500 1.40300 -1.27830
Co1* Co 0.00000 2.00000 -1.00000
Co1** Co 2.00000 0.00000 -1.00000
O1A O 0.7433(3) 1.0336(2) -0.8865(3)
O2A O 0.8965(3) 0.8070(2) -1.0502(3)
H1A H 0.82720 0.73790 -0.98440
H2A H 0.98040 0.74950 -1.08300
O3A O 0.7640(5) 1.2538(4) -0.8171(4)
N1A N 0.4058(5) 1.2310(4) -0.6808(4)
N2A N 0.3320(5) 1.3744(4) -0.7455(4)
C1A C 0.6783(6) 1.1402(5) -0.8271(5)
C2A C 0.4742(6) 1.1174(5) -0.7629(5)
H3A H 0.45830 1.00960 -0.69410
H4A H 0.40060 1.12970 -0.84630
N3A N 0.1811(6) 1.6300(5) -0.5086(4)
N4A N 0.3521(6) 1.3322(5) -0.4974(4)
N5A N 0.4191(6) 1.2026(5) -0.5331(5)
C3A C 0.1704(6) 1.6964(5) -0.7776(5)
H5A H 0.20000 1.66590 -0.86610
C4A C 0.2158(6) 1.5937(5) -0.6390(5)
C5A C 0.3004(6) 1.4332(5) -0.6296(5)
C6A C 0.0980(7) 1.7727(5) -0.5199(6)
H6A H 0.07190 1.80480 -0.43210
C7A C 0.0499(7) 1.8735(5) -0.6550(5)
H7A H -0.00980 1.97050 -0.65530
N6A N 0.0855(4) 1.8378(3) -0.7868(3)
N6* N 0.9145(4) 1.1622(3) -1.2132(3)
N6A* N 1.0855(4) 0.8378(3) -0.7868(3)
#END
