
#######################################################################
#
#                 Cambridge Crystallographic Data Centre
#                                CCDC
#
#######################################################################
#
# If this CIF has been generated from an entry in the Cambridge
# Structural Database, then it will include bibliographic, chemical,
# crystal, experimental, refinement or atomic coordinate data resulting
# from the CCDC's data processing and validation procedures.
#
#######################################################################

data_CSD_CIF_KAVPEF
_audit_creation_date 2017-03-09
_audit_creation_method CSD-ConQuest-V1
_database_code_CSD KAVPEF
_database_code_depnum_ccdc_archive 'CCDC 1013899'
_chemical_formula_sum 'C16 H20 Co1 N10 O8'
_chemical_formula_moiety
;
(C16 H16 Co1 N10 O6)n,2(H2 O1)
;
_journal_coden_Cambridge 910
_journal_volume 26
_journal_year 2016
_journal_page_first 616
_journal_name_full 'J.Inorg.Organomet.Polym.Mater. '
loop_
_publ_author_name
"Da Liang Zhu"
"Qiu Yan Yue"
"Jue Wang"
"Meng Yue Guo"
"Li Li Miao"
"Li Jun Qiu"
"Qiao Yun Li"
"Gao Wen Yang"
_chemical_name_systematic
;
catena-[diaqua-bis(\m-(5-(pyridin-3-yl)-2H-tetrazol-2-yl)acetato)-cobalt(ii) 
dihydrate]
;
_cell_volume    618.057
_exptl_crystal_density_diffrn 1.449
_diffrn_ambient_temperature 291
#These two values have been output from a single CSD field.
_refine_ls_R_factor_gt 0.0877
_refine_ls_wR_factor_gt 0.0877
_symmetry_cell_setting triclinic
_symmetry_space_group_name_H-M 'P -1'
_symmetry_Int_Tables_number 2
loop_
_symmetry_equiv_pos_site_id
_symmetry_equiv_pos_as_xyz
1 x,y,z
2 -x,-y,-z
_cell_length_a 7.1627(14)
_cell_length_b 9.3887(19)
_cell_length_c 10.673(2)
_cell_angle_alpha 64.46(3)
_cell_angle_beta 72.92(3)
_cell_angle_gamma 79.90(3)
_cell_formula_units_Z 1
loop_
_atom_type_symbol
_atom_type_radius_bond
C 0.68
H 0.23
Co 1.26
N 0.68
O 0.68
loop_
_atom_site_label
_atom_site_type_symbol
_atom_site_fract_x
_atom_site_fract_y
_atom_site_fract_z
Co1 Co 0.00000 0.00000 0.00000
O1 O -0.0338(7) -0.5936(5) 0.8207(5)
O2 O -0.1877(6) -0.8147(4) 0.9021(4)
O3 O 0.2175(7) 0.1581(5) -0.0700(5)
N1 N -0.2838(7) -0.3280(6) 0.6003(5)
N2 N -0.3503(7) -0.4053(5) 0.7415(5)
N3 N -0.3944(8) -0.3155(6) 0.8137(5)
N4 N -0.3545(8) -0.1709(6) 0.7172(5)
N5 N -0.1014(7) 0.0483(6) 0.1948(5)
C1 C -0.1032(10) 0.1936(7) 0.1912(7)
H1 H -0.06180 0.27620 0.10280
C2 C -0.1635(10) 0.2268(7) 0.3120(7)
H2 H -0.16070 0.32900 0.30420
C3 C -0.2274(10) 0.1068(7) 0.4437(7)
H3 H -0.27210 0.12660 0.52610
C4 C -0.2236(8) -0.0454(6) 0.4504(6)
C5 C -0.1605(9) -0.0675(7) 0.3235(6)
H4 H -0.15940 -0.16910 0.32860
C6 C -0.2883(8) -0.1803(6) 0.5893(6)
C7 C -0.364(1) -0.5769(6) 0.8108(7)
H5 H -0.40160 -0.61180 0.74870
H6 H -0.46600 -0.60350 0.89910
C8 C -0.1739(9) -0.6652(7) 0.8443(6)
H7 H 0.170(7) 0.248(3) -0.116(5)
H8 H 0.335(4) 0.153(7) -0.116(7)
O4 O 0.4280(7) -0.0997(5) 0.2121(5)
H9 H 0.403(8) -0.009(3) 0.213(6)
H10 H 0.337(7) -0.116(7) 0.186(8)
O1A O 0.0338(7) -0.4064(5) 0.1793(5)
O2A O 0.1877(6) -0.1853(4) 0.0979(4)
N1A N 0.2838(7) -0.6720(6) 0.3997(5)
N2A N 0.3503(7) -0.5947(5) 0.2585(5)
N3A N 0.3944(8) -0.6845(6) 0.1863(5)
N4A N 0.3545(8) -0.8291(6) 0.2828(5)
N5A N 0.1014(7) -1.0483(6) 0.8052(5)
C1A C 0.1032(10) -1.1936(7) 0.8088(7)
H1A H 0.06180 -1.27620 0.89720
C2A C 0.1635(10) -1.2268(7) 0.6880(7)
H2A H 0.16070 -1.32900 0.69580
C3A C 0.2274(10) -1.1068(7) 0.5563(7)
H3A H 0.27210 -1.12660 0.47390
C4A C 0.2236(8) -0.9546(6) 0.5496(6)
C5A C 0.1605(9) -0.9325(7) 0.6765(6)
H4A H 0.15940 -0.83090 0.67140
C6A C 0.2883(8) -0.8197(6) 0.4107(6)
C7A C 0.364(1) -0.4231(6) 0.1892(7)
H5A H 0.40160 -0.38820 0.25130
H6A H 0.46600 -0.39650 0.10090
C8A C 0.1739(9) -0.3348(7) 0.1557(6)
O3A O -0.2175(7) -0.1581(5) 0.0700(5)
H7A H -0.170(7) -0.248(3) 0.116(5)
H8A H -0.335(4) -0.153(7) 0.116(7)
Co1* Co 0.00000 -1.00000 1.00000
O2* O -0.1877(6) 0.1853(4) -0.0979(4)
N5A* N 0.1014(7) -0.0483(6) -0.1948(5)
#END
