
#######################################################################
#
#                 Cambridge Crystallographic Data Centre
#                                CCDC
#
#######################################################################
#
# If this CIF has been generated from an entry in the Cambridge
# Structural Database, then it will include bibliographic, chemical,
# crystal, experimental, refinement or atomic coordinate data resulting
# from the CCDC's data processing and validation procedures.
#
#######################################################################

data_CSD_CIF_KAWKEA
_audit_creation_date 2012-11-07
_audit_creation_method CSD-ConQuest-V1
_database_code_CSD KAWKEA
_database_code_depnum_ccdc_archive 'CCDC 827220'
_chemical_formula_sum 'C12 H40 Br3 Cr1 N6 O5'
_chemical_formula_moiety
;
C12 H30 Cr1 N6 3+,3(Br1 1-),5(H2 O1)
;
_journal_coden_Cambridge 9
_journal_volume 50
_journal_year 2011
_journal_page_first 12446
_journal_name_full 'Inorg.Chem. '
loop_
_publ_author_name
"C.C.Scarborough"
"S.Sproules"
"T.Weyhermuller"
"S.DeBeer"
"K.Wieghardt"
_chemical_name_systematic
;
bis(1,4,7-triazonane)-chromium(iii) tribromide pentahydrate
;
_cell_volume   1864.105
_exptl_crystal_colour 'yellow'
_exptl_crystal_density_diffrn 1.711
_exptl_crystal_description 'parallelepiped'
_diffrn_ambient_temperature 100
_refine_special_details
;
The structure is disordered.

;
#These two values have been output from a single CSD field.
_refine_ls_R_factor_gt 0.0357
_refine_ls_wR_factor_gt 0.0357
_symmetry_cell_setting rhombohedral
_symmetry_space_group_name_H-M 'R 3 2'
_symmetry_Int_Tables_number 155
loop_
_symmetry_equiv_pos_site_id
_symmetry_equiv_pos_as_xyz
1 x,y,z
2 -y,x-y,z
3 -x+y,-x,z
4 y,x,-z
5 x-y,-y,-z
6 -x,-x+y,-z
7 2/3+x,1/3+y,1/3+z
8 2/3-y,1/3+x-y,1/3+z
9 2/3-x+y,1/3-x,1/3+z
10 2/3+y,1/3+x,1/3-z
11 2/3+x-y,1/3-y,1/3-z
12 2/3-x,1/3-x+y,1/3-z
13 1/3+x,2/3+y,2/3+z
14 1/3-y,2/3+x-y,2/3+z
15 1/3-x+y,2/3-x,2/3+z
16 1/3+y,2/3+x,2/3-z
17 1/3+x-y,2/3-y,2/3-z
18 1/3-x,2/3-x+y,2/3-z
_cell_length_a 8.2782(12)
_cell_length_b 8.2782(12)
_cell_length_c 31.410(3)
_cell_angle_alpha 90
_cell_angle_beta 90
_cell_angle_gamma 120
_cell_formula_units_Z 3
loop_
_atom_type_symbol
_atom_type_radius_bond
C 0.68
H 0.23
Br 1.21
Cr 1.39
N 0.68
O 0.68
loop_
_atom_site_label
_atom_site_type_symbol
_atom_site_fract_x
_atom_site_fract_y
_atom_site_fract_z
Br1 Br -0.66670 -0.33330 0.018979(12)
Br2 Br 0.33330 -0.33330 -0.14336(4)
Cr1 Cr 0.00000 0.00000 0.00000
N1 N -0.22023(19) -0.1122(3) 0.04277(4)
H1 H -0.33040 -0.18640 0.02800
C1 C -0.1954(3) -0.2289(3) 0.07582(6)
H2 H -0.31580 -0.34480 0.08070
H3 H -0.15570 -0.15940 0.10300
C2 C -0.2270(3) 0.0507(3) 0.06151(6)
H4 H -0.31350 0.00910 0.08610
H5 H -0.27330 0.10520 0.04000
O1 O 0.33330 -0.33330 0.1315(2)
O2 O 0.3670(8) -0.66670 -0.16670
H6 H 0.353(12) -0.575(8) -0.170(4)
O3? O 0.33330 -0.33330 -0.1378(5)
N1A N 0.11220(19) -0.10803(30) 0.04277(4)
N1B N 0.10803(19) 0.22023(30) 0.04277(4)
N1C N -0.11220(19) -0.22023(30) -0.04277(4)
N1D N -0.10803(19) 0.1122(3) -0.04277(4)
N1E N 0.22023(19) 0.10803(30) -0.04277(4)
H1B H 0.14400 0.33040 0.02800
H1A H 0.18640 -0.14400 0.02800
H1C H -0.18640 -0.33040 -0.02800
H1E H 0.33040 0.14400 -0.02800
H1D H -0.14400 0.18640 -0.02800
C1B C -0.0335(3) 0.1954(3) 0.07582(6)
C1A C 0.2289(3) 0.0335(3) 0.07582(6)
C1C C -0.2289(3) -0.1954(3) -0.07582(6)
C1E C 0.1954(3) -0.0335(3) -0.07582(6)
C1D C 0.0335(3) 0.2289(3) -0.07582(6)
H2B H -0.02900 0.31580 0.08070
H2A H 0.34480 0.02900 0.08070
H2C H -0.34480 -0.31580 -0.08070
H2E H 0.31580 -0.02900 -0.08070
H2D H 0.02900 0.34480 -0.08070
H3B H -0.00370 0.15570 0.10300
H3A H 0.15940 0.00370 0.10300
H3C H -0.15940 -0.15570 -0.10300
H3E H 0.15570 -0.00370 -0.10300
H3D H 0.00370 0.15940 -0.10300
C2A C -0.0507(3) -0.2777(3) 0.06151(6)
C2B C 0.2777(3) 0.2270(3) 0.06151(6)
C2D C -0.2777(3) -0.0507(3) -0.06151(6)
C2C C 0.0507(3) -0.2270(3) -0.06151(6)
C2E C 0.2270(3) 0.2777(3) -0.06151(6)
H4B H 0.32260 0.31350 0.08610
H4C H 0.00910 -0.31350 -0.08610
H4E H 0.31350 0.32260 -0.08610
H4D H -0.32260 -0.00910 -0.08610
H4A H -0.00910 -0.32260 0.08610
H5B H 0.37850 0.27330 0.04000
H5C H 0.10520 -0.27330 -0.04000
H5E H 0.27330 0.37850 -0.04000
H5D H -0.37850 -0.10520 -0.04000
H5A H -0.10520 -0.37850 0.04000
H6P H 0.261333(12000) -0.758333(8000) -0.163333(4000)
#END
