
#######################################################################
#
#                 Cambridge Crystallographic Data Centre
#                                CCDC
#
#######################################################################
#
# If this CIF has been generated from an entry in the Cambridge
# Structural Database, then it will include bibliographic, chemical,
# crystal, experimental, refinement or atomic coordinate data resulting
# from the CCDC's data processing and validation procedures.
#
#######################################################################

data_CSD_CIF_KELXUU
_audit_creation_date 1991-01-24
_audit_creation_method CSD-ConQuest-V1
_database_code_CSD KELXUU
_database_code_depnum_ccdc_fiz 'CSD 54262'
_chemical_formula_sum 'C10 H24 Fe1 I2 N4 S2'
_chemical_formula_moiety
;
C10 H24 Fe1 I2 N4 S2
;
_journal_coden_Cambridge 644
_journal_volume 45
_journal_year 1990
_journal_page_first 45
_journal_name_full 'Z.Naturforsch.,B:Chem.Sci. '
loop_
_publ_author_name
"U.Bierbach"
"W.Saak"
"D.Haase"
"S.Pohl"
_chemical_name_systematic
;
Di-iodo-bis(1,1,3,3-tetramethylthiourea-S)-iron(ii)
;
_cell_volume   1985.387
_exptl_crystal_colour 'yellow'
_exptl_crystal_density_diffrn 1.912
_exptl_special_details
;
Cell dimension b is 10.340 not 10.840

;
_diffrn_ambient_temperature ?
_diffrn_special_details
;
The study was carried out at room temperature,in the range 283-303K

;
#These two values have been output from a single CSD field.
_refine_ls_R_factor_gt 0.053
_refine_ls_wR_factor_gt 0.053
_symmetry_cell_setting monoclinic
_symmetry_space_group_name_H-M 'C 2/c'
_symmetry_Int_Tables_number 15
loop_
_symmetry_equiv_pos_site_id
_symmetry_equiv_pos_as_xyz
1 x,y,z
2 1/2+x,1/2+y,z
3 -x,y,1/2-z
4 1/2-x,1/2+y,1/2-z
5 -x,-y,-z
6 -1/2-x,-1/2-y,-z
7 x,-y,-1/2+z
8 -1/2+x,-1/2-y,-1/2+z
_cell_length_a 18.625(1)
_cell_length_b 10.340(1)
_cell_length_c 14.334(1)
_cell_angle_alpha 90
_cell_angle_beta 134.01(1)
_cell_angle_gamma 90
_cell_formula_units_Z 4
loop_
_atom_type_symbol
_atom_type_radius_bond
C 0.68
H 0.23
Fe 1.34
I 1.40
N 0.68
S 1.02
loop_
_atom_site_label
_atom_site_type_symbol
_atom_site_fract_x
_atom_site_fract_y
_atom_site_fract_z
Fe1 Fe 0.00000 0.52950 0.25000
I1 I 0.0502(1) 0.6753(1) 0.1525(1)
S1 S 0.1429(1) 0.4132(2) 0.4288(2)
N1 N 0.1934(5) 0.3551(7) 0.2978(6)
N2 N 0.3028(5) 0.4835(7) 0.4763(7)
C1 C 0.2171(5) 0.4162(7) 0.3969(7)
C2 C 0.3208(8) 0.5848(9) 0.5626(11)
C3 C 0.3924(6) 0.444(1) 0.5042(10)
C4 C 0.1193(8) 0.2502(10) 0.2339(10)
C5 C 0.2199(8) 0.3996(12) 0.2295(10)
H1 H 0.3938(8) 0.6262(9) 0.6176(11)
H2 H 0.3171(8) 0.5436(9) 0.6283(11)
H3 H 0.2647(8) 0.6589(9) 0.5051(11)
H4 H 0.4519(6) 0.5122(10) 0.5701(10)
H5 H 0.3750(6) 0.4415(10) 0.4149(10)
H6 H 0.4158(6) 0.3496(10) 0.5479(10)
H7 H 0.1092(8) 0.2115(10) 0.1555(10)
H8 H 0.0490(8) 0.2871(10) 0.1958(10)
H9 H 0.1455(8) 0.1751(10) 0.3035(10)
H10 H 0.1918(8) 0.3328(12) 0.1527(10)
H11 H 0.3001(8) 0.4059(12) 0.2962(10)
H12 H 0.1874(8) 0.4933(12) 0.1884(10)
I1B I -0.0502(1) 0.6753(1) 0.3475(1)
S1B S -0.1429(1) 0.4132(2) 0.0712(2)
C1B C -0.2171(5) 0.4162(7) 0.1031(7)
N1B N -0.1934(5) 0.3551(7) 0.2022(6)
N2B N -0.3028(5) 0.4835(7) 0.0237(7)
C4B C -0.1193(8) 0.2502(10) 0.2661(10)
C5B C -0.2199(8) 0.3996(12) 0.2705(10)
C2B C -0.3208(8) 0.5848(9) -0.0626(11)
C3B C -0.3924(6) 0.444(1) -0.0042(10)
H7B H -0.1092(8) 0.2115(10) 0.3445(10)
H8B H -0.0490(8) 0.2871(10) 0.3042(10)
H9B H -0.1455(8) 0.1751(10) 0.1965(10)
H10B H -0.1918(8) 0.3328(12) 0.3473(10)
H11B H -0.3001(8) 0.4059(12) 0.2038(10)
H12B H -0.1874(8) 0.4933(12) 0.3116(10)
H1B H -0.3938(8) 0.6262(9) -0.1176(11)
H2B H -0.3171(8) 0.5436(9) -0.1283(11)
H3B H -0.2647(8) 0.6589(9) -0.0051(11)
H4B H -0.4519(6) 0.5122(10) -0.0701(10)
H5B H -0.3750(6) 0.4415(10) 0.0851(10)
H6B H -0.4158(6) 0.3496(10) -0.0479(10)
#END
