
#######################################################################
#
#                 Cambridge Crystallographic Data Centre
#                                CCDC
#
#######################################################################
#
# If this CIF has been generated from an entry in the Cambridge
# Structural Database, then it will include bibliographic, chemical,
# crystal, experimental, refinement or atomic coordinate data resulting
# from the CCDC's data processing and validation procedures.
#
#######################################################################

data_CSD_CIF_KESLUR
_audit_creation_date 2013-03-18
_audit_creation_method CSD-ConQuest-V1
_database_code_CSD KESLUR
_database_code_depnum_ccdc_archive 'CCDC 867409'
_chemical_formula_sum 'C28 H28 Co1 N4 O14'
_chemical_formula_moiety
;
C24 H22 Co1 N4 O12,2(C2 H3 O1)
;
_journal_coden_Cambridge 923
_journal_volume 42
_journal_year 2012
_journal_page_first 1204
_journal_name_full 'Synth.React.Inorg.,Met.-Org.,Nano-Met.Chem. '
loop_
_publ_author_name
"Zhifang Xiong"
"Hongliang Jia"
"Bing Ma"
"Gang Li"
_chemical_name_systematic
;
bis(4-carboxy-2-(3-methoxyphenyl)-1H-imidazole-5-carboxylato)-diaqua-cobalt(ii
) methanol solvate
;
_cell_volume    725.408
_exptl_crystal_density_diffrn 1.596
_diffrn_ambient_temperature 296
#These two values have been output from a single CSD field.
_refine_ls_R_factor_gt 0.0417
_refine_ls_wR_factor_gt 0.0417
_symmetry_cell_setting triclinic
_symmetry_space_group_name_H-M 'P -1'
_symmetry_Int_Tables_number 2
loop_
_symmetry_equiv_pos_site_id
_symmetry_equiv_pos_as_xyz
1 x,y,z
2 -x,-y,-z
_cell_length_a 7.309(14)
_cell_length_b 8.960(18)
_cell_length_c 12.62(2)
_cell_angle_alpha 106.22(2)
_cell_angle_beta 93.24(2)
_cell_angle_gamma 111.70(2)
_cell_formula_units_Z 1
loop_
_atom_type_symbol
_atom_type_radius_bond
C 0.68
H 0.23
Co 1.26
N 0.68
O 0.68
loop_
_atom_site_label
_atom_site_type_symbol
_atom_site_fract_x
_atom_site_fract_y
_atom_site_fract_z
Co1 Co 0.50000 1.00000 0.00000
O1 O 0.4455(3) 0.7644(2) -0.11600(14)
O2 O 0.3478(3) 0.4919(2) -0.14141(16)
O3 O 0.2863(4) 1.0642(3) 0.56413(17)
O4 O 0.1967(3) 0.2975(2) -0.03941(16)
O5 O 0.0730(3) 0.3058(2) 0.11668(17)
O6 O 0.7626(3) 1.0055(2) 0.07216(17)
H1 H 0.85350 1.09100 0.07530
N1 N 0.3388(3) 0.8280(2) 0.08536(16)
N2 N 0.1979(3) 0.6542(2) 0.17761(17)
C1 C 0.3733(4) 0.6411(3) -0.0838(2)
C2 C 0.3124(3) 0.6680(3) 0.0252(2)
C3 C 0.2664(4) 0.8157(3) 0.1771(2)
C4 C 0.2257(4) 0.5583(3) 0.0808(2)
C5 C 0.2566(4) 0.9528(3) 0.2672(2)
C6 C 0.2758(4) 0.9505(3) 0.3761(2)
H2 H 0.29580 0.86170 0.39170
C7 C 0.2652(4) 1.0799(4) 0.4616(2)
C8 C 0.2368(5) 1.2105(4) 0.4384(3)
H3 H 0.23110 1.29880 0.49610
C9 C 0.2186(5) 1.2116(4) 0.3304(3)
H4 H 0.19940 1.30090 0.31510
C10 C 0.2272(4) 1.0840(3) 0.2442(2)
H5 H 0.21360 1.08570 0.17100
C11 C 0.2894(6) 1.1972(5) 0.6570(3)
H6 H 0.39810 1.30060 0.66080
H7 H 0.30720 1.17100 0.72440
H8 H 0.16580 1.21060 0.64910
C12 C 0.1586(4) 0.3737(3) 0.0524(2)
O7 O 1.0104(5) 0.5377(4) 0.3544(3)
C13 C 0.8928(5) 0.4179(4) 0.3599(3)
C14 C 0.7495(6) 0.2627(6) 0.3629(4)
H9 H 0.66940 0.30180 0.42460
H10 H 0.65590 0.20260 0.29850
H11 H 0.80460 0.20100 0.39230
O1A O 0.5545(3) 1.2356(2) 0.11600(14)
O2A O 0.6522(3) 1.5081(2) 0.14141(16)
O3A O 0.7137(4) 0.9358(3) -0.56413(17)
O4A O 0.8033(3) 1.7025(2) 0.03941(16)
O5A O 0.9270(3) 1.6942(2) -0.11668(17)
O6A O 0.2374(3) 0.9945(2) -0.07216(17)
H1A H 0.14650 0.90900 -0.07530
N1A N 0.6612(3) 1.1720(2) -0.08536(16)
N2A N 0.8021(3) 1.3458(2) -0.17761(17)
C1A C 0.6267(4) 1.3589(3) 0.0838(2)
C2A C 0.6876(3) 1.3320(3) -0.0252(2)
C3A C 0.7336(4) 1.1843(3) -0.1771(2)
C4A C 0.7743(4) 1.4417(3) -0.0808(2)
C5A C 0.7434(4) 1.0472(3) -0.2672(2)
C6A C 0.7242(4) 1.0495(3) -0.3761(2)
H2A H 0.70420 1.13830 -0.39170
C7A C 0.7348(4) 0.9201(4) -0.4616(2)
C8A C 0.7632(5) 0.7895(4) -0.4384(3)
H3A H 0.76890 0.70120 -0.49610
C9A C 0.7814(5) 0.7884(4) -0.3304(3)
H4A H 0.80060 0.69910 -0.31510
C10A C 0.7728(4) 0.9160(3) -0.2442(2)
H5A H 0.78640 0.91430 -0.17100
C11A C 0.7106(6) 0.8028(5) -0.6570(3)
H6A H 0.60190 0.69940 -0.66080
H7A H 0.69280 0.82900 -0.72440
H8A H 0.83420 0.78940 -0.64910
C12A C 0.8414(4) 1.6263(3) -0.0524(2)
#END
