
#######################################################################
#
#                 Cambridge Crystallographic Data Centre
#                                CCDC
#
#######################################################################
#
# If this CIF has been generated from an entry in the Cambridge
# Structural Database, then it will include bibliographic, chemical,
# crystal, experimental, refinement or atomic coordinate data resulting
# from the CCDC's data processing and validation procedures.
#
#######################################################################

data_CSD_CIF_KESLOL
_audit_creation_date 2013-03-18
_audit_creation_method CSD-ConQuest-V1
_database_code_CSD KESLOL
_database_code_depnum_ccdc_archive 'CCDC 867408'
_chemical_formula_sum 'C24 H24 Co1 N4 O14'
_chemical_formula_moiety
;
C24 H20 Co1 N4 O12,2(H2 O1)
;
_journal_coden_Cambridge 923
_journal_volume 42
_journal_year 2012
_journal_page_first 1204
_journal_name_full 'Synth.React.Inorg.,Met.-Org.,Nano-Met.Chem. '
loop_
_publ_author_name
"Zhifang Xiong"
"Hongliang Jia"
"Bing Ma"
"Gang Li"
_chemical_name_systematic
;
bis(2-(3-methoxyphenyl)-1H-imidazole-4,5-dicarboxylato)-diaqua-cobalt(ii) 
dihydrate
;
_cell_volume    639.450
_exptl_crystal_density_diffrn 1.686
_diffrn_ambient_temperature 293
#These two values have been output from a single CSD field.
_refine_ls_R_factor_gt 0.0419
_refine_ls_wR_factor_gt 0.0419
_symmetry_cell_setting triclinic
_symmetry_space_group_name_H-M 'P -1'
_symmetry_Int_Tables_number 2
loop_
_symmetry_equiv_pos_site_id
_symmetry_equiv_pos_as_xyz
1 x,y,z
2 -x,-y,-z
_cell_length_a 6.4019(10)
_cell_length_b 9.5963(14)
_cell_length_c 11.2096(17)
_cell_angle_alpha 75.763(2)
_cell_angle_beta 83.277(2)
_cell_angle_gamma 73.582(2)
_cell_formula_units_Z 1
loop_
_atom_type_symbol
_atom_type_radius_bond
C 0.68
H 0.23
Co 1.26
N 0.68
O 0.68
loop_
_atom_site_label
_atom_site_type_symbol
_atom_site_fract_x
_atom_site_fract_y
_atom_site_fract_z
Co1 Co 0.50000 1.00000 1.00000
N1 N 0.5720(4) 0.8343(2) 0.8751(2)
N2 N 0.6497(4) 0.6481(2) 0.7788(2)
O1 O 0.2480(3) 0.9030(2) 1.04976(19)
O2 O 0.1053(3) 0.7219(2) 1.0358(2)
O3 O 0.1867(4) 0.5135(2) 0.9253(2)
O4 O 0.4494(4) 0.4216(2) 0.7975(2)
O5 O 1.3295(4) 0.6875(3) 0.5052(2)
O6 O 0.3051(3) 1.1645(2) 0.86877(19)
H1 H 0.35360 1.24130 0.84700
H2 H 0.17350 1.18890 0.89610
O7 O 0.9015(4) 0.4061(3) 0.6684(3)
H3 H 0.77620 0.41000 0.70450
H4 H 0.89560 0.40800 0.59260
C1 C 0.2460(4) 0.7955(3) 1.0053(3)
C2 C 0.4199(4) 0.7539(3) 0.9107(2)
C3 C 0.4664(4) 0.6377(3) 0.8525(2)
C4 C 0.3641(5) 0.5163(3) 0.8565(3)
C5 C 0.7092(4) 0.7687(3) 0.7929(2)
C6 C 0.8950(4) 0.8163(3) 0.7226(2)
C7 C 0.9371(5) 0.9476(3) 0.7331(3)
H5 H 0.84770 1.00520 0.78440
C8 C 1.1124(6) 0.9915(4) 0.6667(3)
H6 H 1.13950 1.07930 0.67390
C9 C 1.2478(5) 0.9085(4) 0.5901(3)
H7 H 1.36570 0.93920 0.54640
C10 C 1.2056(5) 0.7789(3) 0.5793(3)
C11 C 1.0317(5) 0.7319(3) 0.6455(3)
H8 H 1.00620 0.64370 0.63830
C12 C 1.5229(6) 0.7215(5) 0.4436(4)
H9 H 1.59280 0.64910 0.39580
H10 H 1.62030 0.71940 0.50340
H11 H 1.48590 0.81890 0.39010
N1A N 0.4280(4) 1.1657(2) 1.1249(2)
N2A N 0.3503(4) 1.3519(2) 1.2212(2)
O1A O 0.7520(3) 1.0970(2) 0.95024(19)
O2A O 0.8947(3) 1.2781(2) 0.9642(2)
O3A O 0.8133(4) 1.4865(2) 1.0747(2)
O4A O 0.5506(4) 1.5784(2) 1.2025(2)
O5A O -0.3295(4) 1.3125(3) 1.4948(2)
O6A O 0.6949(3) 0.8355(2) 1.13123(19)
H1A H 0.64640 0.75870 1.15300
H2A H 0.82650 0.81110 1.10390
C1A C 0.7540(4) 1.2045(3) 0.9947(3)
C2A C 0.5801(4) 1.2461(3) 1.0893(2)
C3A C 0.5336(4) 1.3623(3) 1.1475(2)
C4A C 0.6359(5) 1.4837(3) 1.1435(3)
C5A C 0.2908(4) 1.2313(3) 1.2071(2)
C6A C 0.1050(4) 1.1837(3) 1.2774(2)
C7A C 0.0629(5) 1.0524(3) 1.2669(3)
H5A H 0.15230 0.99480 1.21560
C8A C -0.1124(6) 1.0085(4) 1.3333(3)
H6A H -0.13950 0.92070 1.32610
C9A C -0.2478(5) 1.0915(4) 1.4099(3)
H7A H -0.36570 1.06080 1.45360
C10A C -0.2056(5) 1.2211(3) 1.4207(3)
C11A C -0.0317(5) 1.2681(3) 1.3545(3)
H8A H -0.00620 1.35630 1.36170
C12A C -0.5229(6) 1.2785(5) 1.5564(4)
H9A H -0.59280 1.35090 1.60420
H10A H -0.62030 1.28060 1.49660
H11A H -0.48590 1.18110 1.60990
#END
