
#######################################################################
#
#                 Cambridge Crystallographic Data Centre
#                                CCDC
#
#######################################################################
#
# If this CIF has been generated from an entry in the Cambridge
# Structural Database, then it will include bibliographic, chemical,
# crystal, experimental, refinement or atomic coordinate data resulting
# from the CCDC's data processing and validation procedures.
#
#######################################################################

data_CSD_CIF_KESSUY
_audit_creation_date 2013-04-04
_audit_creation_method CSD-ConQuest-V1
_database_code_CSD KESSUY
_database_code_depnum_ccdc_archive 'CCDC 875249'
_chemical_formula_sum 'C20 H22 Mn1 N4 O10'
_chemical_formula_moiety
;
C18 H14 Mn1 N4 O8,2(C1 H4 O1)
;
_journal_coden_Cambridge 211
_journal_volume 66
_journal_year 2013
_journal_page_first 18
_journal_name_full 'J.Coord.Chem. '
loop_
_publ_author_name
"Yao-Min Hu"
"Jing Qu"
"Yong-Ling Yi"
"Hong-Ling Gao"
"Jian-Zhong Cui"
_chemical_name_systematic
;
bis(5-nitroquinolin-8-olato)-diaqua-manganese(ii) methanol solvate
;
_cell_volume    540.166
_exptl_crystal_colour 'colorless'
_exptl_crystal_density_diffrn 1.64
_exptl_crystal_description 'prism'
_diffrn_ambient_temperature 113
#These two values have been output from a single CSD field.
_refine_ls_R_factor_gt 0.027
_refine_ls_wR_factor_gt 0.027
_symmetry_cell_setting triclinic
_symmetry_space_group_name_H-M 'P -1'
_symmetry_Int_Tables_number 2
loop_
_symmetry_equiv_pos_site_id
_symmetry_equiv_pos_as_xyz
1 x,y,z
2 -x,-y,-z
_cell_length_a 5.130(2)
_cell_length_b 8.593(3)
_cell_length_c 12.703(5)
_cell_angle_alpha 76.770(14)
_cell_angle_beta 82.36(2)
_cell_angle_gamma 89.36(2)
_cell_formula_units_Z 1
loop_
_atom_type_symbol
_atom_type_radius_bond
C 0.68
H 0.23
Mn 1.61
N 0.68
O 0.68
loop_
_atom_site_label
_atom_site_type_symbol
_atom_site_fract_x
_atom_site_fract_y
_atom_site_fract_z
Mn1 Mn 0.50000 0.50000 0.50000
O1 O 0.25452(19) 0.44027(11) 0.39211(8)
O2 O 0.2847(2) 0.72489(14) -0.10215(9)
O3 O 0.6330(2) 0.85115(14) -0.08485(9)
O4 O 0.2283(2) 0.68765(13) 0.53506(8)
H1 H 0.283(3) 0.746(2) 0.5727(15)
H2 H 0.073(3) 0.648(2) 0.5577(15)
N1 N 0.6451(2) 0.66112(14) 0.33583(10)
N2 N 0.4481(3) 0.75579(16) -0.04507(11)
C1 C 0.3070(3) 0.51011(17) 0.29005(12)
C2 C 0.1722(3) 0.47401(18) 0.20968(12)
H3 H 0.04130 0.39140 0.22910
C3 C 0.2270(3) 0.55676(18) 0.10298(12)
H4 H 0.13040 0.53030 0.05040
C4 C 0.4178(3) 0.67742(18) 0.06874(11)
C5 C 0.5705(3) 0.72014(17) 0.14501(12)
C6 C 0.7685(3) 0.84191(18) 0.12303(12)
H5 H 0.81230 0.90540 0.05110
C7 C 0.8957(3) 0.86741(17) 0.20573(12)
H6 H 1.02780 0.94890 0.19140
C8 C 0.8311(3) 0.77361(18) 0.31121(12)
H7 H 0.92440 0.79130 0.36730
C9 C 0.5132(3) 0.63365(17) 0.25469(12)
O5 O 0.6076(2) 0.13916(13) 0.33057(8)
H8 H 0.62850 0.17340 0.26250
C10 C 0.3535(3) 0.06344(19) 0.36510(13)
H9 H 0.30390 0.05660 0.44330
H10 H 0.35900 -0.04440 0.35150
H11 H 0.22380 0.12630 0.32420
O1A O 0.74548(19) 0.55973(11) 0.60789(8)
O2A O 0.7153(2) 0.27511(14) 1.10215(9)
O3A O 0.3670(2) 0.14885(14) 1.08485(9)
O4A O 0.7717(2) 0.31235(13) 0.46494(8)
H1A H 0.717(3) 0.254(2) 0.4273(15)
H2A H 0.927(3) 0.352(2) 0.4423(15)
N1A N 0.3549(2) 0.33888(14) 0.66417(10)
N2A N 0.5519(3) 0.24421(16) 1.04507(11)
C1A C 0.6930(3) 0.48989(17) 0.70995(12)
C2A C 0.8278(3) 0.52599(18) 0.79032(12)
H3A H 0.95870 0.60860 0.77090
C3A C 0.7730(3) 0.44324(18) 0.89702(12)
H4A H 0.86960 0.46970 0.94960
C4A C 0.5822(3) 0.32258(18) 0.93126(11)
C5A C 0.4295(3) 0.27986(17) 0.85499(12)
C6A C 0.2315(3) 0.15809(18) 0.87697(12)
H5A H 0.18770 0.09460 0.94890
C7A C 0.1043(3) 0.13259(17) 0.79427(12)
H6A H -0.02780 0.05110 0.80860
C8A C 0.1689(3) 0.22639(18) 0.68879(12)
H7A H 0.07560 0.20870 0.63270
C9A C 0.4868(3) 0.36635(17) 0.74531(12)
#END
