
#######################################################################
#
#                 Cambridge Crystallographic Data Centre
#                                CCDC
#
#######################################################################
#
# If this CIF has been generated from an entry in the Cambridge
# Structural Database, then it will include bibliographic, chemical,
# crystal, experimental, refinement or atomic coordinate data resulting
# from the CCDC's data processing and validation procedures.
#
#######################################################################

data_CSD_CIF_KEWBIX
_audit_creation_date 1991-03-28
_audit_creation_method CSD-ConQuest-V1
_database_code_CSD KEWBIX
_database_code_depnum_ccdc_archive 'CCDC 1195611'
_chemical_formula_sum 'C13 H21 Cl2 Mn1 N3 O3'
_chemical_formula_moiety
;
C13 H19 Cl2 Mn1 N3 O2,H2 O1
;
_journal_coden_Cambridge 186
_journal_year 1990
_journal_page_first 2397
_journal_name_full 'J.Chem.Soc.,Dalton Trans. '
loop_
_publ_author_name
"S.Brooker"
"V.McKee"
_chemical_name_systematic
;
Dichloro-(2,6-bis(1-(2-hydroxyethylimino)ethyl)pyridine-O,O',N,N',N'')-mangane
se(ii) monohydrate
;
_cell_volume    827.104
_exptl_crystal_colour 'yellow'
_diffrn_ambient_temperature ?
_diffrn_special_details
;
The study was carried out at room temperature,in the range 283-303K

;
#These two values have been output from a single CSD field.
_refine_ls_R_factor_gt 0.0363
_refine_ls_wR_factor_gt 0.0363
_symmetry_cell_setting triclinic
_symmetry_space_group_name_H-M 'P -1'
_symmetry_Int_Tables_number 2
loop_
_symmetry_equiv_pos_site_id
_symmetry_equiv_pos_as_xyz
1 x,y,z
2 -x,-y,-z
_cell_length_a 8.322(6)
_cell_length_b 8.465(5)
_cell_length_c 12.935(9)
_cell_angle_alpha 72.82(5)
_cell_angle_beta 72.20(6)
_cell_angle_gamma 81.38(5)
_cell_formula_units_Z 2
loop_
_atom_type_symbol
_atom_type_radius_bond
C 0.68
H 0.23
Cl 0.99
Mn 1.35
N 0.68
O 0.68
loop_
_atom_site_label
_atom_site_type_symbol
_atom_site_fract_x
_atom_site_fract_y
_atom_site_fract_z
Mn1 Mn 0.2001(1) 0.3959(1) 0.1882(1)
N1 N 0.1126(2) 0.2676(2) 0.3766(2)
C1 C -0.0231(3) 0.3310(3) 0.4426(2)
C2 C -0.0754(3) 0.2633(3) 0.5589(2)
C3 C 0.0173(3) 0.1249(3) 0.6058(2)
C4 C 0.1578(3) 0.0582(3) 0.5374(2)
C5 C 0.2016(3) 0.1331(3) 0.4220(2)
C6 C 0.3460(3) 0.0719(3) 0.3375(2)
C7 C 0.4582(3) -0.0763(3) 0.3745(2)
N2 N 0.3627(3) 0.1544(2) 0.2357(2)
C8 C 0.5007(3) 0.1104(3) 0.1440(2)
C9 C 0.4523(4) 0.1838(3) 0.0361(2)
O1 O 0.3978(3) 0.3549(2) 0.0290(2)
O2 O 0.1514(2) 0.6396(2) 0.0579(1)
C10 C 0.0475(4) 0.7613(3) 0.1114(2)
C11 C -0.1018(3) 0.6817(3) 0.2037(2)
N3 N -0.0340(3) 0.5371(2) 0.2775(2)
C12 C -0.1117(3) 0.4799(3) 0.3807(2)
C13 C -0.2804(3) 0.5438(3) 0.4434(2)
Cl1 Cl 0.4022(1) 0.5577(1) 0.2286(1)
Cl2 Cl -0.0018(1) 0.2413(1) 0.1450(1)
H1 H -0.17240 0.31100 0.60510
H2 H -0.01570 0.07520 0.68560
H3 H 0.22310 -0.03720 0.56890
H4 H 0.42150 -0.11780 0.45500
H5 H 0.57260 -0.04520 0.35200
H6 H 0.45230 -0.16090 0.34030
H7 H 0.60340 0.15450 0.13910
H8 H 0.51690 -0.00790 0.15800
H9 H 0.36200 0.12570 0.03570
H10 H 0.54800 0.17550 -0.02670
H11 H 0.40020 0.45440 -0.03090
H12 H 0.22580 0.64120 -0.01560
H13 H 0.11360 0.80720 0.14340
H14 H 0.00710 0.84790 0.05640
H15 H -0.17630 0.64730 0.17170
H16 H -0.16250 0.75890 0.24580
H17 H -0.30900 0.47870 0.52040
H18 H -0.36520 0.53620 0.40910
H19 H -0.27480 0.65740 0.44090
O3 O 0.3496(3) -0.2702(2) 0.6686(2)
H20 H 0.44360 -0.32950 0.69470
H21 H 0.38650 -0.17010 0.61200
#END
