
#######################################################################
#
#                 Cambridge Crystallographic Data Centre
#                                CCDC
#
#######################################################################
#
# If this CIF has been generated from an entry in the Cambridge
# Structural Database, then it will include bibliographic, chemical,
# crystal, experimental, refinement or atomic coordinate data resulting
# from the CCDC's data processing and validation procedures.
#
#######################################################################

data_CSD_CIF_KEWYAO
_audit_creation_date 2013-05-21
_audit_creation_method CSD-ConQuest-V1
_database_code_CSD KEWYAO
_database_code_depnum_ccdc_archive 'CCDC 888103'
_chemical_formula_sum 'C24 H26 Mn1 N12 O6'
_chemical_formula_moiety
;
C24 H22 Mn1 N12 O4,2(H2 O1)
;
_journal_coden_Cambridge 29
_journal_volume 639
_journal_year 2013
_journal_page_first 409
_journal_name_full 'Z.Anorg.Allg.Chem. '
loop_
_publ_author_name
"Yun-Zhi Tang"
"Jun Huang"
"Man Zhou"
"Ji-Si Wu"
"Yu-Hui Tan"
"He-Rui Wen"
_chemical_name_systematic
;
Diaqua-bis(2-methyl-5-(1H-tetrazol-5-yl)-3,4'-bipyridin-6(1H)-onato)-manganese
(ii) dihydrate
;
_cell_volume    711.433
_exptl_crystal_density_diffrn 1.479
_diffrn_ambient_temperature 293
#These two values have been output from a single CSD field.
_refine_ls_R_factor_gt 0.0473
_refine_ls_wR_factor_gt 0.0473
_symmetry_cell_setting triclinic
_symmetry_space_group_name_H-M 'P -1'
_symmetry_Int_Tables_number 2
loop_
_symmetry_equiv_pos_site_id
_symmetry_equiv_pos_as_xyz
1 x,y,z
2 -x,-y,-z
_cell_length_a 7.646
_cell_length_b 10.037
_cell_length_c 10.302
_cell_angle_alpha 71.86
_cell_angle_beta 88.57
_cell_angle_gamma 71.8
_cell_formula_units_Z 1
loop_
_atom_type_symbol
_atom_type_radius_bond
C 0.68
H 0.23
Mn 1.61
N 0.68
O 0.68
loop_
_atom_site_label
_atom_site_type_symbol
_atom_site_fract_x
_atom_site_fract_y
_atom_site_fract_z
Mn1 Mn 0.00000 0.50000 0.00000
C1 C 0.4069(4) 0.4217(3) 0.1405(3)
N1 N 0.2917(3) 0.3818(2) 0.0757(2)
N2 N 0.3945(3) 0.2515(2) 0.0606(2)
N3 N 0.5752(3) 0.3225(2) 0.1653(2)
C2 C 0.3546(4) 0.5562(3) 0.1817(3)
O1 O -0.0877(4) 0.3800(3) 0.2015(3)
N4 N 0.5618(3) 0.2176(2) 0.1139(2)
C3 C 0.4747(4) 0.5829(3) 0.2590(3)
H1 H 0.59060 0.51230 0.28720
C4 C 0.5744(4) 0.7269(3) 0.3849(3)
C5 C 0.4330(4) 0.7112(3) 0.2983(3)
N5 N 0.8444(5) 0.7438(3) 0.5547(3)
C6 C 0.5279(5) 0.7815(3) 0.4944(3)
H2 H 0.40520 0.81260 0.51400
C7 C 0.7595(4) 0.6817(4) 0.3634(3)
H3 H 0.79780 0.64570 0.29090
C8 C 0.6650(5) 0.7892(4) 0.5733(3)
H4 H 0.63020 0.82850 0.64420
C9 C 0.8884(5) 0.6903(4) 0.4505(3)
H5 H 1.01260 0.65690 0.43530
C10 C 0.1749(4) 0.6633(3) 0.1418(3)
O2 O 0.0430(3) 0.6563(2) 0.0780(2)
N6 N 0.1443(3) 0.7878(2) 0.1782(2)
H6 H 0.03850 0.85500 0.15130
C11 C 0.2645(4) 0.8162(3) 0.2529(3)
C12 C 0.1912(5) 0.9670(3) 0.2709(4)
H7 H 0.28170 0.98040 0.32420
H8 H 0.07970 0.97450 0.31720
H9 H 0.16550 1.04200 0.18270
H10 H -0.176(5) 0.357(4) 0.200(4)
H11 H -0.029(6) 0.334(5) 0.275(4)
O3 O 0.2128(4) 0.0467(3) 0.9285(3)
H12 H 0.267(5) -0.015(4) 0.903(4)
H13 H 0.278(6) 0.106(5) 0.942(4)
C1A C -0.4069(4) 0.5783(3) -0.1405(3)
N1A N -0.2917(3) 0.6182(2) -0.0757(2)
N2A N -0.3945(3) 0.7485(2) -0.0606(2)
N3A N -0.5752(3) 0.6775(2) -0.1653(2)
C2A C -0.3546(4) 0.4438(3) -0.1817(3)
O1A O 0.0877(4) 0.6200(3) -0.2015(3)
N4A N -0.5618(3) 0.7824(2) -0.1139(2)
C3A C -0.4747(4) 0.4171(3) -0.2590(3)
H1A H -0.59060 0.48770 -0.28720
C4A C -0.5744(4) 0.2731(3) -0.3849(3)
C5A C -0.4330(4) 0.2888(3) -0.2983(3)
N5A N -0.8444(5) 0.2562(3) -0.5547(3)
C6A C -0.5279(5) 0.2185(3) -0.4944(3)
H2A H -0.40520 0.18740 -0.51400
C7A C -0.7595(4) 0.3183(4) -0.3634(3)
H3A H -0.79780 0.35430 -0.29090
C8A C -0.6650(5) 0.2108(4) -0.5733(3)
H4A H -0.63020 0.17150 -0.64420
C9A C -0.8884(5) 0.3097(4) -0.4505(3)
H5A H -1.01260 0.34310 -0.43530
C10A C -0.1749(4) 0.3367(3) -0.1418(3)
O2A O -0.0430(3) 0.3437(2) -0.0780(2)
N6A N -0.1443(3) 0.2122(2) -0.1782(2)
H6A H -0.03850 0.14500 -0.15130
C11A C -0.2645(4) 0.1838(3) -0.2529(3)
C12A C -0.1912(5) 0.0330(3) -0.2709(4)
H7A H -0.28170 0.01960 -0.32420
H8A H -0.07970 0.02550 -0.31720
H9A H -0.16550 -0.04200 -0.18270
H10A H 0.176(5) 0.643(4) -0.200(4)
H11A H 0.029(6) 0.666(5) -0.275(4)
#END
