
#######################################################################
#
#                 Cambridge Crystallographic Data Centre
#                                CCDC
#
#######################################################################
#
# If this CIF has been generated from an entry in the Cambridge
# Structural Database, then it will include bibliographic, chemical,
# crystal, experimental, refinement or atomic coordinate data resulting
# from the CCDC's data processing and validation procedures.
#
#######################################################################

data_CSD_CIF_KEYPIT
_audit_creation_date 1991-06-10
_audit_creation_method CSD-ConQuest-V1
_database_code_CSD KEYPIT
_database_code_depnum_ccdc_archive 'CCDC 1195855'
_chemical_formula_sum 'C11 H12 Mn1 N4 O7'
_chemical_formula_moiety
;
C11 H12 Mn1 N4 O7
;
_journal_coden_Cambridge 9
_journal_volume 29
_journal_year 1990
_journal_page_first 3031
_journal_name_full 'Inorg.Chem. '
loop_
_publ_author_name
"D.Deguenon"
"G.Bernardinelli"
"J.-P.Tuchagues"
"P.Castan"
_chemical_name_systematic
;
Diaqua-(croconato-O,O')-bis(imidazole-N)-manganese(ii)
;
_cell_volume    758.100
_exptl_crystal_colour 'yellow-green'
_exptl_crystal_density_diffrn 1.61
_diffrn_ambient_temperature ?
_diffrn_special_details
;
The study was carried out at room temperature,in the range 283-303K

;
#These two values have been output from a single CSD field.
_refine_ls_R_factor_gt 0.034
_refine_ls_wR_factor_gt 0.034
_symmetry_cell_setting triclinic
_symmetry_space_group_name_H-M 'P -1'
_symmetry_Int_Tables_number 2
loop_
_symmetry_equiv_pos_site_id
_symmetry_equiv_pos_as_xyz
1 x,y,z
2 -x,-y,-z
_cell_length_a 7.405(1)
_cell_length_b 8.672(1)
_cell_length_c 12.139(2)
_cell_angle_alpha 84.84(1)
_cell_angle_beta 78.04(1)
_cell_angle_gamma 85.53(1)
_cell_formula_units_Z 2
loop_
_atom_type_symbol
_atom_type_radius_bond
C 0.68
H 0.23
Mn 1.35
N 0.68
O 0.68
loop_
_atom_site_label
_atom_site_type_symbol
_atom_site_fract_x
_atom_site_fract_y
_atom_site_fract_z
Mn1 Mn 0.2452(1) 0.13282(9) 0.17811(6)
O1 O 0.5447(5) 0.1349(4) 0.1262(3)
O2 O -0.0557(5) 0.1411(4) 0.2273(4)
O3 O 0.2345(4) 0.0883(3) -0.0050(2)
O4 O 0.2331(4) 0.3700(3) 0.0904(3)
O5 O 0.2210(4) 0.6293(3) -0.0865(3)
O6 O 0.1874(5) 0.4895(4) -0.2929(3)
O7 O 0.1984(5) 0.1523(4) -0.2468(3)
N1 N 0.2641(5) -0.1174(4) 0.2185(3)
N2 N 0.2601(6) -0.3654(5) 0.2019(4)
N3 N 0.2652(6) 0.2163(5) 0.3391(3)
N4 N 0.200(1) 0.2867(8) 0.5106(4)
C1 C 0.2240(6) 0.2174(5) -0.0605(4)
C2 C 0.2268(6) 0.3621(5) -0.0128(4)
C3 C 0.2192(6) 0.4878(5) -0.0984(4)
C4 C 0.2034(7) 0.4192(5) -0.2028(4)
C5 C 0.2085(6) 0.2482(5) -0.1785(4)
C6 C 0.2435(7) -0.2225(6) 0.1517(4)
C7 C 0.290(1) -0.3496(6) 0.3049(6)
C8 C 0.2926(9) -0.1977(6) 0.3154(5)
C9 C 0.134(1) 0.2549(8) 0.4217(6)
C10 C 0.377(1) 0.2756(9) 0.4851(6)
C11 C 0.421(1) 0.2269(9) 0.3806(5)
H1 H 0.599(7) 0.217(5) 0.113(4)
H2 H 0.604(7) 0.078(5) 0.077(4)
H3 H -0.109(7) 0.059(5) 0.229(4)
H4 H -0.106(7) 0.205(5) 0.198(4)
H5 H 0.247(6) -0.446(5) 0.166(4)
H6 H 0.133(7) 0.316(6) 0.570(4)
H7 H 0.218(6) -0.210(5) 0.067(4)
H8 H 0.304(7) -0.421(5) 0.354(4)
H9 H 0.311(6) -0.141(5) 0.373(4)
H10 H 0.002(6) 0.228(5) 0.421(4)
H11 H 0.468(6) 0.313(5) 0.540(4)
H12 H 0.522(6) 0.253(5) 0.319(4)
#END
