
#######################################################################
#
#                 Cambridge Crystallographic Data Centre
#                                CCDC
#
#######################################################################
#
# If this CIF has been generated from an entry in the Cambridge
# Structural Database, then it will include bibliographic, chemical,
# crystal, experimental, refinement or atomic coordinate data resulting
# from the CCDC's data processing and validation procedures.
#
#######################################################################

data_CSD_CIF_KEYQOV
_audit_creation_date 2007-06-28
_audit_creation_method CSD-ConQuest-V1
_database_code_CSD KEYQOV
_database_code_depnum_ccdc_archive 'CCDC 617198'
_chemical_formula_sum 'C10 H7 Cr1 N1 O5 S1'
_chemical_formula_moiety
;
C10 H7 Cr1 N1 O5 S1
;
_journal_coden_Cambridge 644
_journal_volume 62
_journal_year 2007
_journal_page_first 346
_journal_name_full 'Z.Naturforsch.,B:Chem.Sci. '
loop_
_publ_author_name
"N.Szesni"
"M.Drexler"
"B.Weibert"
"H.Fischer"
_chemical_name_systematic
;
Pentacarbonyl-(propynethioic acid dimethylamide-S)-chromium
;
_chemical_melting_point 384.15
_cell_volume    646.563
_exptl_crystal_colour 'red'
_exptl_crystal_density_diffrn 1.568
_exptl_special_details
;
Melts with decomposition.

;
_exptl_crystal_description 'block'
_exptl_crystal_preparation 'dichloromethane/hexane'
_diffrn_ambient_temperature 188
#These two values have been output from a single CSD field.
_refine_ls_R_factor_gt 0.049
_refine_ls_wR_factor_gt 0.049
_symmetry_cell_setting monoclinic
_symmetry_space_group_name_H-M 'P 21/m'
_symmetry_Int_Tables_number 11
loop_
_symmetry_equiv_pos_site_id
_symmetry_equiv_pos_as_xyz
1 x,y,z
2 -x,1/2+y,-z
3 -x,-y,-z
4 x,-1/2-y,z
_cell_length_a 8.6484(13)
_cell_length_b 8.237(5)
_cell_length_c 9.095(6)
_cell_angle_alpha 90
_cell_angle_beta 93.68(7)
_cell_angle_gamma 90
_cell_formula_units_Z 2
loop_
_atom_type_symbol
_atom_type_radius_bond
C 0.68
H 0.23
Cr 1.35
N 0.68
O 0.68
S 1.02
loop_
_atom_site_label
_atom_site_type_symbol
_atom_site_fract_x
_atom_site_fract_y
_atom_site_fract_z
Cr1 Cr 0.62906(7) 0.75000 0.69105(6)
S1 S 0.76237(12) 0.75000 0.93293(10)
C1 C 0.5012(3) 0.9132(4) 0.7654(3)
O1 O 0.4219(3) 1.0100(3) 0.8047(3)
N1 N 1.0353(4) 0.75000 1.0743(3)
C2 C 0.7554(3) 0.9078(4) 0.6090(3)
O2 O 0.8273(3) 0.9993(3) 0.5522(3)
C3 C 0.5056(5) 0.75000 0.5200(4)
O3 O 0.4285(4) 0.75000 0.4138(4)
C4 C 1.1063(5) 0.75000 0.7082(5)
H1 H 1.147(5) 0.75000 0.609(5)
C5 C 1.0408(4) 0.75000 0.8152(4)
C6 C 0.9555(5) 0.75000 0.9448(4)
C7 C 0.9519(6) 0.75000 1.2092(4)
H2 H 0.88690 0.84730 1.21160
H3 H 1.02640 0.74960 1.29500
H4 H 0.88640 0.65300 1.21130
C8 C 1.2028(6) 0.75000 1.0885(5)
H5 H 1.24200 0.65250 1.04170
H6 H 1.23800 0.75080 1.19310
H7 H 1.24200 0.84670 1.04040
C1C C 0.5012(3) 0.5868(4) 0.7654(3)
O1C O 0.4219(3) 0.4900(3) 0.8047(3)
C2C C 0.7554(3) 0.5922(4) 0.6090(3)
O2C O 0.8273(3) 0.5007(3) 0.5522(3)
#END
