
#######################################################################
#
#                 Cambridge Crystallographic Data Centre
#                                CCDC
#
#######################################################################
#
# If this CIF has been generated from an entry in the Cambridge
# Structural Database, then it will include bibliographic, chemical,
# crystal, experimental, refinement or atomic coordinate data resulting
# from the CCDC's data processing and validation procedures.
#
#######################################################################

data_CSD_CIF_KIBKOV
_audit_creation_date 1991-06-18
_audit_creation_method CSD-ConQuest-V1
_database_code_CSD KIBKOV
_chemical_formula_sum 'C8 H20 Cl1 Co1 N4 O5'
_chemical_formula_moiety
;
C8 H18 Co1 N4 O4 1+,Cl1 1-,H2 O1
;
_journal_coden_Cambridge 367
_journal_volume 15
_journal_year 1989
_journal_page_first 803
_journal_name_full 'Koord.Khim.(Russ.)(Coord.Chem.) '
loop_
_publ_author_name
"A.B.Ilyukhin"
"L.M.Shkol'nikova"
"M.A.Porai-Koshits"
"A.L.Poznyak"
"V.I.Pavlovskii"
"N.M.Dyatlova"
_chemical_name_systematic
;
Ammine-(diethylenetriamine-N,N'-diacetato-O,O',N,N',N'')-cobalt(iii) chloride 
monohydrate
;
_cell_volume    673.077
_diffrn_ambient_temperature ?
_diffrn_special_details
;
The study was carried out at room temperature,in the range 283-303K

;
#These two values have been output from a single CSD field.
_refine_ls_R_factor_gt 0.044
_refine_ls_wR_factor_gt 0.044
_symmetry_cell_setting triclinic
_symmetry_space_group_name_H-M 'P -1'
_symmetry_Int_Tables_number 2
loop_
_symmetry_equiv_pos_site_id
_symmetry_equiv_pos_as_xyz
1 x,y,z
2 -x,-y,-z
_cell_length_a 8.269(2)
_cell_length_b 9.077(9)
_cell_length_c 9.372(2)
_cell_angle_alpha 105.82(7)
_cell_angle_beta 92.97(2)
_cell_angle_gamma 94.21(5)
_cell_formula_units_Z 2
loop_
_atom_type_symbol
_atom_type_radius_bond
C 0.68
H 0.23
Cl 0.99
Co 1.33
N 0.68
O 0.68
loop_
_atom_site_label
_atom_site_type_symbol
_atom_site_fract_x
_atom_site_fract_y
_atom_site_fract_z
Co1 Co 0.29135(5) 0.28286(5) 0.26043(5)
Cl1 Cl 0.3058(2) 0.3487(1) 0.8135(1)
O1 O -0.1182(6) -0.0437(4) 0.1794(4)
O2 O 0.3134(3) 0.4647(2) 0.4207(3)
O3 O 0.2697(3) 0.0993(3) 0.1028(3)
O4 O 0.3244(3) 0.7198(3) 0.4725(3)
O5 O 0.3352(4) -0.1410(3) 0.0370(4)
N1 N 0.1944(4) 0.4088(3) 0.1447(3)
N2 N 0.0746(3) 0.2346(3) 0.3087(3)
N3 N 0.3573(4) 0.1501(3) 0.3835(3)
N4 N 0.5157(4) 0.3319(4) 0.2200(4)
C1 C 0.0156(5) 0.3723(4) 0.1352(4)
C2 C 0.2472(5) 0.5717(4) 0.2230(4)
C3 C 0.4270(5) 0.0172(4) 0.2820(5)
C4 C -0.0314(4) 0.3490(4) 0.2803(5)
C5 C 0.2988(4) 0.5903(4) 0.3839(4)
C6 C 0.3390(4) -0.0161(4) 0.1289(5)
C7 C 0.0874(5) 0.2132(4) 0.4591(4)
C8 C 0.2103(6) 0.0982(4) 0.4510(4)
H1 H -0.140(8) -0.102(7) 0.197(7)
H2 H -0.153(9) -0.054(8) 0.087(8)
H3 H 0.535(6) 0.273(5) 0.138(5)
H4 H 0.596(9) 0.336(8) 0.303(8)
H5 H 0.514(6) 0.408(6) 0.184(5)
H6 H 0.228(5) 0.381(5) 0.052(5)
H7 H 0.042(5) 0.148(4) 0.246(4)
H8 H 0.436(6) 0.206(5) 0.457(5)
H9 H -0.043(5) 0.453(5) 0.107(5)
H10 H -0.007(5) 0.268(5) 0.053(5)
H11 H 0.336(5) 0.607(4) 0.179(4)
H12 H 0.164(5) 0.633(5) 0.215(5)
H13 H 0.533(6) 0.044(5) 0.265(5)
H14 H 0.423(6) -0.085(5) 0.327(5)
H15 H -0.007(5) 0.447(5) 0.367(4)
H16 H -0.144(5) 0.306(5) 0.269(5)
H17 H 0.119(5) 0.305(5) 0.533(5)
H18 H -0.020(6) 0.171(5) 0.485(5)
H19 H 0.157(6) -0.001(5) 0.379(5)
H20 H 0.245(6) 0.096(5) 0.552(5)
#END
