
#######################################################################
#
#                 Cambridge Crystallographic Data Centre
#                                CCDC
#
#######################################################################
#
# If this CIF has been generated from an entry in the Cambridge
# Structural Database, then it will include bibliographic, chemical,
# crystal, experimental, refinement or atomic coordinate data resulting
# from the CCDC's data processing and validation procedures.
#
#######################################################################

data_CSD_CIF_KIDHOX
_audit_creation_date 2018-04-18
_audit_creation_method CSD-ConQuest-V1
_database_code_CSD KIDHOX
_database_code_depnum_ccdc_archive 'CCDC 1583014'
_chemical_formula_sum 'C14 H12 Cl2 Co1 N4'
_chemical_formula_moiety
;
C14 H12 Cl2 Co1 N4
;
_journal_coeditor_code "xi2004"
_journal_coden_Cambridge 1828
_journal_volume 74
_journal_year 2018
_journal_page_first 600
_journal_name_full 'Acta Crystallogr.,Sect.E:Cryst.Commun. '
loop_
_publ_author_name
"S.K.Seth"
_chemical_name_systematic
;
dichloro-bis(imidazo[1,2-a]pyridine)-cobalt(ii)
;
_cell_volume    742.987
_exptl_crystal_colour 'pink'
_exptl_crystal_density_diffrn 1.636
_exptl_crystal_description 'block'
_diffrn_ambient_temperature 293
#These two values have been output from a single CSD field.
_refine_ls_R_factor_gt 0.0241
_refine_ls_wR_factor_gt 0.0241
_symmetry_cell_setting monoclinic
_symmetry_space_group_name_H-M 'P 2/n'
_symmetry_Int_Tables_number 13
loop_
_symmetry_equiv_pos_site_id
_symmetry_equiv_pos_as_xyz
1 x,y,z
2 1/2-x,y,1/2-z
3 -x,-y,-z
4 -1/2+x,-y,-1/2+z
_cell_length_a 7.712(2)
_cell_length_b 6.7898(18)
_cell_length_c 14.348(4)
_cell_angle_alpha 90
_cell_angle_beta 98.533(5)
_cell_angle_gamma 90
_cell_formula_units_Z 2
loop_
_atom_type_symbol
_atom_type_radius_bond
C 0.68
H 0.23
Cl 0.99
Co 1.26
N 0.68
loop_
_atom_site_label
_atom_site_type_symbol
_atom_site_fract_x
_atom_site_fract_y
_atom_site_fract_z
Co1 Co 0.25000 0.21247(5) 0.75000
Cl1 Cl 0.00699(6) 0.40150(8) 0.73557(4)
N1 N 0.2270(2) 0.0373(2) 0.63532(10)
N2 N 0.2373(2) -0.0539(2) 0.48712(11)
C1 C 0.3250(3) 0.2781(3) 0.52292(15)
H1 H 0.34107 0.38335 0.56480
C2 C 0.2664(2) 0.0958(3) 0.55145(12)
C3 C 0.1741(3) -0.2106(3) 0.53192(17)
H2 H 0.14122 -0.33262 0.50560
C4 C 0.2770(3) -0.0324(4) 0.39615(14)
H3 H 0.26130 -0.13680 0.35379
C5 C 0.1689(3) -0.1537(3) 0.62194(16)
H4 H 0.13128 -0.23235 0.66809
C6 C 0.3582(3) 0.2988(4) 0.43289(15)
H5 H 0.39497 0.41997 0.41279
C7 C 0.3379(3) 0.1406(5) 0.37060(15)
H6 H 0.36700 0.15551 0.31038
Cl1A Cl 0.49301(6) 0.40150(8) 0.76443(4)
N1A N 0.2730(2) 0.0373(2) 0.86468(10)
N2A N 0.2627(2) -0.0539(2) 1.01288(11)
C1A C 0.1750(3) 0.2781(3) 0.97708(15)
H1A H 0.15893 0.38335 0.93520
C2A C 0.2336(2) 0.0958(3) 0.94855(12)
C3A C 0.3259(3) -0.2106(3) 0.96808(17)
H2A H 0.35878 -0.33262 0.99440
C4A C 0.2230(3) -0.0324(4) 1.10385(14)
H3A H 0.23870 -0.13680 1.14621
C5A C 0.3311(3) -0.1537(3) 0.87806(16)
H4A H 0.36872 -0.23235 0.83191
C6A C 0.1418(3) 0.2988(4) 1.06711(15)
H5A H 0.10503 0.41997 1.08721
C7A C 0.1621(3) 0.1406(5) 1.12940(15)
H6A H 0.13300 0.15551 1.18962
#END
