
#######################################################################
#
#                 Cambridge Crystallographic Data Centre
#                                CCDC
#
#######################################################################
#
# If this CIF has been generated from an entry in the Cambridge
# Structural Database, then it will include bibliographic, chemical,
# crystal, experimental, refinement or atomic coordinate data resulting
# from the CCDC's data processing and validation procedures.
#
#######################################################################

data_CSD_CIF_KIGDUA
_audit_creation_date 2007-10-25
_audit_creation_method CSD-ConQuest-V1
_database_code_CSD KIGDUA
_database_code_depnum_ccdc_archive 'CCDC 631673'
_chemical_formula_sum 'C26 H34 Cl2 Co1 N12 O3'
_chemical_formula_moiety
;
C26 H32 Co1 N12 O2 2+,2(Cl1 1-),x(H2 O1)
;
_journal_coden_Cambridge 155
_journal_volume 360
_journal_year 2007
_journal_page_first 3132
_journal_name_full 'Inorg.Chim.Acta '
loop_
_publ_author_name
"B.A.Greiner"
"N.M.Marshall"
"A.A.N.Sarjeant"
"C.C.McLauchlan"
_chemical_name_systematic
;
bis(tris(N-Methylimidazol-2-yl)methanol-N,N',N'')-cobalt(ii) dichloride 
hydrate
;
_chemical_name_common
;
bis(tris(N-Methylimidazol-2-yl)carbinol-N,N',N'')-cobalt(ii) dichloride 
hydrate
;
_chemical_melting_point 375
_cell_volume    945.740
_exptl_crystal_colour 'yellow'
_exptl_special_details
;
Melts above 375K
magnetic properties

;
_exptl_crystal_description 'prism'
_exptl_crystal_preparation 'methanol/diethyl ether'
_diffrn_ambient_temperature 110
_refine_special_details
;
An unspecified number of water molecules were taken into account using 
PLATON/SQUEEZE.
;
#These two values have been output from a single CSD field.
_refine_ls_R_factor_gt 0.0563
_refine_ls_wR_factor_gt 0.0563
_symmetry_cell_setting triclinic
_symmetry_space_group_name_H-M 'P -1'
_symmetry_Int_Tables_number 2
loop_
_symmetry_equiv_pos_site_id
_symmetry_equiv_pos_as_xyz
1 x,y,z
2 -x,-y,-z
_cell_length_a 9.7734(7)
_cell_length_b 10.3101(7)
_cell_length_c 10.3636(7)
_cell_angle_alpha 104.242(1)
_cell_angle_beta 104.829(1)
_cell_angle_gamma 100.217(1)
_cell_formula_units_Z 1
loop_
_atom_type_symbol
_atom_type_radius_bond
C 0.68
H 0.23
Cl 0.99
Co 1.33
N 0.68
O 0.68
loop_
_atom_site_label
_atom_site_type_symbol
_atom_site_fract_x
_atom_site_fract_y
_atom_site_fract_z
C1 C 0.7562(3) 0.7159(3) 0.7376(3)
C2 C 0.6789(3) 0.5990(3) 0.7817(3)
C3 C 0.6021(3) 0.4622(3) 0.8946(3)
H1 H 0.59230 0.42400 0.96530
C4 C 0.5231(3) 0.4084(3) 0.7570(3)
H2 H 0.44900 0.32660 0.71620
C5 C 0.7949(4) 0.6798(3) 1.0477(3)
H3 H 0.78540 0.63920 1.12000
H4 H 0.76650 0.76530 1.06440
H5 H 0.89490 0.69730 1.04820
C6 C 0.7977(3) 0.6483(3) 0.6094(3)
C7 C 0.8996(3) 0.5933(3) 0.4442(3)
H6 H 0.96710 0.59170 0.39530
C8 C 0.7633(3) 0.5106(3) 0.3999(3)
H7 H 0.71960 0.44130 0.31440
C9 C 1.0535(3) 0.7970(3) 0.6538(3)
H8 H 1.12290 0.79250 0.60300
H9 H 1.09620 0.78970 0.74520
H10 H 1.02760 0.88360 0.66300
C10 C 0.6331(3) 0.7780(3) 0.6770(3)
C11 C 0.4875(3) 0.9079(3) 0.6181(3)
H11 H 0.44910 0.98390 0.61550
C12 C 0.4256(3) 0.7758(3) 0.5338(3)
H12 H 0.33650 0.74480 0.46230
C13 C 0.7181(3) 1.0314(3) 0.8234(3)
H13 H 0.67930 1.11030 0.82020
H14 H 0.81340 1.04840 0.81170
H15 H 0.72580 1.01580 0.91220
N1 N 0.5720(3) 0.4960(2) 0.6887(2)
N2 N 0.7003(3) 0.5844(3) 0.9110(2)
N3 N 0.6994(2) 0.5465(2) 0.5034(2)
N4 N 0.9212(3) 0.6823(3) 0.5774(3)
N5 N 0.5176(3) 0.6949(2) 0.5722(2)
N6 N 0.6193(3) 0.9078(2) 0.7093(2)
O1 O 0.8699(2) 0.8149(2) 0.8442(2)
H16 H 0.93740 0.78040 0.86920
Cl1 Cl 0.10173(9) 0.65142(8) 0.92007(8)
Co1 Co 0.50000 0.50000 0.50000
C1A C 0.2438(3) 0.2841(3) 0.2624(3)
C2A C 0.3211(3) 0.4010(3) 0.2183(3)
C3A C 0.3979(3) 0.5378(3) 0.1054(3)
H1A H 0.40770 0.57600 0.03470
C4A C 0.4769(3) 0.5916(3) 0.2430(3)
H2A H 0.55100 0.67340 0.28380
C5A C 0.2051(4) 0.3202(3) -0.0477(3)
H3A H 0.21460 0.36080 -0.12000
H4A H 0.23350 0.23470 -0.06440
H5A H 0.10510 0.30270 -0.04820
C6A C 0.2023(3) 0.3517(3) 0.3906(3)
C7A C 0.1004(3) 0.4067(3) 0.5558(3)
H6A H 0.03290 0.40830 0.60470
C8A C 0.2367(3) 0.4894(3) 0.6001(3)
H7A H 0.28040 0.55870 0.68560
C9A C -0.0535(3) 0.2030(3) 0.3462(3)
H8A H -0.12290 0.20750 0.39700
H9A H -0.09620 0.21030 0.25480
H10A H -0.02760 0.11640 0.33700
C10A C 0.3669(3) 0.2220(3) 0.3230(3)
C11A C 0.5125(3) 0.0921(3) 0.3819(3)
H11A H 0.55090 0.01610 0.38450
C12A C 0.5744(3) 0.2242(3) 0.4662(3)
H12A H 0.66350 0.25520 0.53770
C13A C 0.2819(3) -0.0314(3) 0.1766(3)
H13A H 0.32070 -0.11030 0.17980
H14A H 0.18660 -0.04840 0.18830
H15A H 0.27420 -0.01580 0.08780
N1A N 0.4280(3) 0.5040(2) 0.3113(2)
N2A N 0.2997(3) 0.4156(3) 0.0890(2)
N3A N 0.3006(2) 0.4535(2) 0.4966(2)
N4A N 0.0788(3) 0.3177(3) 0.4226(3)
N5A N 0.4824(3) 0.3051(2) 0.4278(2)
N6A N 0.3807(3) 0.0922(2) 0.2907(2)
O1A O 0.1301(2) 0.1851(2) 0.1558(2)
H16A H 0.06260 0.21960 0.13080
#END
