
#######################################################################
#
#                 Cambridge Crystallographic Data Centre
#                                CCDC
#
#######################################################################
#
# If this CIF has been generated from an entry in the Cambridge
# Structural Database, then it will include bibliographic, chemical,
# crystal, experimental, refinement or atomic coordinate data resulting
# from the CCDC's data processing and validation procedures.
#
#######################################################################

data_CSD_CIF_KIJQAY
_audit_creation_date 2018-09-12
_audit_creation_method CSD-ConQuest-V1
_database_code_CSD KIJQAY
_database_code_depnum_ccdc_archive 'CCDC 1851988'
_chemical_formula_sum 'C14 H14 Co1 N4 O2 S2'
_chemical_formula_moiety
;
C14 H14 Co1 N4 O2 S2
;
_journal_coden_Cambridge 580
_journal_volume 154
_journal_year 2018
_journal_page_first 436
_journal_name_full 'Polyhedron '
loop_
_publ_author_name
"F.A.Mautner"
"M.Traber"
"R.C.Fischer"
"A.Torvisco"
"K.Reichmann"
"S.Speed"
"R.Vicente"
"S.S.Massoud"
_chemical_name_systematic
;
bis(4-methoxypyridine)-bis(isothiocyanato)-cobalt(ii)
;
_cell_volume    861.177
_exptl_crystal_colour 'blue'
_exptl_crystal_density_diffrn 1.517
_exptl_crystal_description 'prism'
_diffrn_ambient_temperature 100
#These two values have been output from a single CSD field.
_refine_ls_R_factor_gt 0.0313
_refine_ls_wR_factor_gt 0.0313
_symmetry_cell_setting triclinic
_symmetry_space_group_name_H-M 'P -1'
_symmetry_Int_Tables_number 2
loop_
_symmetry_equiv_pos_site_id
_symmetry_equiv_pos_as_xyz
1 x,y,z
2 -x,-y,-z
_cell_length_a 5.3699(3)
_cell_length_b 10.6495(4)
_cell_length_c 15.5863(6)
_cell_angle_alpha 93.817(2)
_cell_angle_beta 97.929(2)
_cell_angle_gamma 101.450(2)
_cell_formula_units_Z 2
loop_
_atom_type_symbol
_atom_type_radius_bond
C 0.68
H 0.23
Co 1.26
N 0.68
O 0.68
S 1.02
loop_
_atom_site_label
_atom_site_type_symbol
_atom_site_fract_x
_atom_site_fract_y
_atom_site_fract_z
Co1 Co 0.55176(4) 0.15975(2) 0.26701(2)
N1 N 0.7809(2) 0.05136(12) 0.31175(8)
C1 C 0.9262(3) -0.00337(13) 0.34688(9)
S1 S 1.13147(10) -0.07815(5) 0.39410(3)
N2 N 0.7098(3) 0.29995(12) 0.20415(8)
C2 C 0.8515(3) 0.37680(13) 0.17491(9)
S2 S 1.05467(9) 0.48119(4) 0.13420(3)
N3 N 0.4444(2) 0.24463(11) 0.37117(8)
N4 N 0.2591(2) 0.04896(11) 0.18298(8)
O1 O 0.2190(2) 0.41252(11) 0.58644(7)
O2 O -0.4050(2) -0.17097(11) 0.03803(7)
C3 C 0.2746(3) 0.32200(14) 0.36522(10)
H1 H 0.20459 0.33921 0.30893
C4 C 0.1968(3) 0.37764(15) 0.43625(11)
H2 H 0.07467 0.43102 0.42876
C5 C 0.2989(3) 0.35477(14) 0.51892(10)
C6 C 0.4755(4) 0.2765(2) 0.52621(11)
H3 H 0.55091 0.25922 0.58179
C7 C 0.5403(4) 0.2240(2) 0.45144(11)
H4 H 0.66093 0.16959 0.45732
C8 C 0.3210(4) 0.38876(19) 0.67273(11)
H5 H 0.27835 0.29624 0.67871
H6 H 0.24577 0.43499 0.71556
H7 H 0.50823 0.41887 0.68272
C9 C 0.0836(3) 0.10117(14) 0.13508(9)
H8 H 0.11503 0.19213 0.13486
C10 C -0.1381(3) 0.02927(15) 0.08668(9)
H9 H -0.25792 0.06980 0.05443
C11 C -0.1840(3) -0.10469(14) 0.08579(9)
C12 C -0.0017(3) -0.16016(14) 0.13295(10)
H10 H -0.02504 -0.25101 0.13245
C13 C 0.2137(3) -0.08000(14) 0.18043(9)
H11 H 0.33685 -0.11810 0.21314
C14 C -0.4581(4) -0.30898(16) 0.03730(12)
H12 H -0.32597 -0.34325 0.01152
H13 H -0.62720 -0.34521 0.00284
H14 H -0.45745 -0.33245 0.09706
#END
