
#######################################################################
#
#                 Cambridge Crystallographic Data Centre
#                                CCDC
#
#######################################################################
#
# If this CIF has been generated from an entry in the Cambridge
# Structural Database, then it will include bibliographic, chemical,
# crystal, experimental, refinement or atomic coordinate data resulting
# from the CCDC's data processing and validation procedures.
#
#######################################################################

data_CSD_CIF_KIJXIL
_audit_creation_date 2007-10-25
_audit_creation_method CSD-ConQuest-V1
_database_code_CSD KIJXIL
_database_code_depnum_ccdc_archive 'CCDC 660095'
_chemical_formula_sum 'C12 H12 Co1 N2 O8'
_chemical_formula_moiety
;
C12 H12 Co1 N2 O8
;
_journal_coeditor_code "IUCr PV2023"
_journal_coden_Cambridge 1370
_journal_volume 63
_journal_year 2007
_journal_page_first m2326
_journal_name_full 'Acta Crystallogr.,Sect.E:Struct.Rep.Online '
loop_
_publ_author_name
"Huai-Yi Yan"
"Tai-Qiu Hu"
_chemical_name_systematic
;
Diaqua-bis(2-oxidopyridinium-3-carboxylato-O,O')-cobalt(ii)
;
_cell_volume    680.557
_exptl_crystal_colour 'red'
_exptl_crystal_density_diffrn 1.811
_exptl_crystal_description 'prism'
_diffrn_ambient_temperature 298
#These two values have been output from a single CSD field.
_refine_ls_R_factor_gt 0.0335
_refine_ls_wR_factor_gt 0.0335
_symmetry_cell_setting monoclinic
_symmetry_space_group_name_H-M 'P 21/c'
_symmetry_Int_Tables_number 14
loop_
_symmetry_equiv_pos_site_id
_symmetry_equiv_pos_as_xyz
1 x,y,z
2 -x,1/2+y,1/2-z
3 -x,-y,-z
4 x,-1/2-y,-1/2+z
_cell_length_a 7.4216(19)
_cell_length_b 12.330(3)
_cell_length_c 7.550(2)
_cell_angle_alpha 90
_cell_angle_beta 99.921(4)
_cell_angle_gamma 90
_cell_formula_units_Z 2
loop_
_atom_type_symbol
_atom_type_radius_bond
C 0.68
H 0.23
Co 1.33
N 0.68
O 0.68
loop_
_atom_site_label
_atom_site_type_symbol
_atom_site_fract_x
_atom_site_fract_y
_atom_site_fract_z
O1 O -0.0608(2) 0.84059(13) -0.0153(2)
C1 C 0.0373(3) 0.7569(2) 0.0071(3)
Co1 Co 0.00000 1.00000 0.00000
O2 O 0.2707(2) 0.95557(14) -0.0135(2)
N1 N 0.5220(3) 0.86194(17) 0.1087(3)
H1 H 0.58270 0.92110 0.10470
O3 O -0.0295(2) 0.66277(14) -0.0126(2)
C2 C 0.2408(3) 0.7664(2) 0.0610(3)
C3 C 0.3400(4) 0.6753(2) 0.1223(3)
H2 H 0.27830 0.60980 0.12460
O4 O 0.0769(3) 0.99441(13) 0.2817(2)
H3 H 0.05450 1.05470 0.33800
H4 H 0.03720 0.94110 0.34440
C4 C 0.3378(3) 0.8659(2) 0.0496(3)
C5 C 0.6169(4) 0.7728(2) 0.1729(3)
H5 H 0.74270 0.77690 0.21150
C6 C 0.5282(4) 0.6769(2) 0.1809(4)
H6 H 0.59130 0.61450 0.22410
O1B O 0.0608(2) 1.15941(13) 0.0153(2)
C1B C -0.0373(3) 1.2431(2) -0.0071(3)
O2B O -0.2707(2) 1.04443(14) 0.0135(2)
N1B N -0.5220(3) 1.13806(17) -0.1087(3)
H1B H -0.58270 1.07890 -0.10470
O3B O 0.0295(2) 1.33723(14) 0.0126(2)
C2B C -0.2408(3) 1.2336(2) -0.0610(3)
C3B C -0.3400(4) 1.3247(2) -0.1223(3)
H2B H -0.27830 1.39020 -0.12460
O4B O -0.0769(3) 1.00559(13) -0.2817(2)
H3B H -0.05450 0.94530 -0.33800
H4B H -0.03720 1.05890 -0.34440
C4B C -0.3378(3) 1.1341(2) -0.0496(3)
C5B C -0.6169(4) 1.2272(2) -0.1729(3)
H5B H -0.74270 1.22310 -0.21150
C6B C -0.5282(4) 1.3231(2) -0.1809(4)
H6B H -0.59130 1.38550 -0.22410
#END
