
#######################################################################
#
#                 Cambridge Crystallographic Data Centre
#                                CCDC
#
#######################################################################
#
# If this CIF has been generated from an entry in the Cambridge
# Structural Database, then it will include bibliographic, chemical,
# crystal, experimental, refinement or atomic coordinate data resulting
# from the CCDC's data processing and validation procedures.
#
#######################################################################

data_CSD_CIF_KISCUK
_audit_creation_date 2000-07-13
_audit_creation_method CSD-ConQuest-V1
_database_code_CSD KISCUK
_database_code_depnum_ccdc_archive 'CCDC 137185'
_chemical_formula_sum 'C18 H14 Fe1 O3'
_chemical_formula_moiety
;
C18 H14 Fe1 O3
;
_journal_coden_Cambridge 1088
_journal_year 2000
_journal_page_first 185
_journal_name_full 'Synlett '
loop_
_publ_author_name
"M.Mikulas"
"S.Rust"
"D.Schollmeyer"
"K.Ruck-Braun"
_chemical_name_systematic
;
Dicarbonyl-(\h^5^-cyclopentadienyl)-(1,2,3,4-tetrahydronaphthalene-2-methyleny
l-1-one)-iron
;
_chemical_melting_point 367.15
_cell_volume    745.940
_exptl_crystal_colour 'yellow brown'
_exptl_crystal_density_diffrn 1.488
_exptl_special_details
;
Melting point range 367.15-368.15K

;
_exptl_crystal_description 'rectangular plate'
_diffrn_ambient_temperature ?
_diffrn_special_details
;
The study was carried out at room temperature,in the range 283-303K

;
#These two values have been output from a single CSD field.
_refine_ls_R_factor_gt 0.0766
_refine_ls_wR_factor_gt 0.0766
_symmetry_cell_setting triclinic
_symmetry_space_group_name_H-M 'P -1'
_symmetry_Int_Tables_number 2
loop_
_symmetry_equiv_pos_site_id
_symmetry_equiv_pos_as_xyz
1 x,y,z
2 -x,-y,-z
_cell_length_a 7.2600(5)
_cell_length_b 9.4880(5)
_cell_length_c 11.9648(8)
_cell_angle_alpha 102.738(5)
_cell_angle_beta 95.405(6)
_cell_angle_gamma 109.332(5)
_cell_formula_units_Z 2
loop_
_atom_type_symbol
_atom_type_radius_bond
C 0.68
H 0.23
Fe 1.34
O 0.68
loop_
_atom_site_label
_atom_site_type_symbol
_atom_site_fract_x
_atom_site_fract_y
_atom_site_fract_z
Fe1 Fe -0.11096(7) -0.31059(5) 0.36656(4)
C1 C -0.0420(7) -0.4141(4) 0.2476(4)
O1 O -0.0033(7) -0.4832(4) 0.1688(4)
C2 C 0.1272(6) -0.2087(5) 0.4504(3)
O2 O 0.2814(5) -0.1396(5) 0.5035(3)
C3 C -0.0606(5) -0.1310(4) 0.3004(3)
H1 H -0.1491(5) -0.0826(4) 0.3201(3)
C4 C 0.0771(4) -0.0635(4) 0.2426(3)
C5 C 0.2445(5) -0.1148(4) 0.2099(3)
H2 H 0.2047(5) -0.1821(4) 0.1311(3)
H3 H 0.2712(5) -0.1741(4) 0.2616(3)
C6 C 0.4346(5) 0.0225(4) 0.2171(3)
H4 H 0.4836(5) 0.0839(4) 0.2974(3)
H5 H 0.5358(5) -0.0155(4) 0.1905(3)
C7 C 0.3947(5) 0.1216(4) 0.1435(3)
C8 C 0.5360(6) 0.1932(4) 0.0817(4)
H6 H 0.6725(6) 0.1879(4) 0.1000(4)
C9 C 0.4947(7) 0.2830(5) 0.0137(4)
H7 H 0.6100(7) 0.3386(5) -0.0187(4)
C10 C 0.3144(7) 0.3040(4) 0.0054(3)
H8 H 0.2470(7) 0.3670(4) -0.0397(3)
C11 C 0.1746(6) 0.2349(4) 0.0661(3)
H9 H 0.0316(6) 0.2469(4) 0.0599(3)
C12 C 0.2140(5) 0.1425(3) 0.1350(3)
C13 C 0.0616(5) 0.0709(4) 0.2017(3)
O3 O -0.0677(4) 0.1236(4) 0.2225(4)
C14 C -0.4058(7) -0.4665(6) 0.3259(5)
H10 H -0.4697(7) -0.5285(6) 0.2515(5)
C15 C -0.4016(7) -0.3177(6) 0.3745(5)
H11 H -0.4628(7) -0.2629(6) 0.3389(5)
C16 C -0.2872(8) -0.2653(6) 0.4881(5)
H12 H -0.2566(8) -0.1690(6) 0.5406(5)
C17 C -0.2294(8) -0.3852(8) 0.5061(5)
H13 H -0.1553(8) -0.3835(8) 0.5745(5)
C18 C -0.2981(9) -0.5063(6) 0.4076(6)
H14 H -0.2765(9) -0.5993(6) 0.3973(6)
#END
