
#######################################################################
#
#                 Cambridge Crystallographic Data Centre
#                                CCDC
#
#######################################################################
#
# If this CIF has been generated from an entry in the Cambridge
# Structural Database, then it will include bibliographic, chemical,
# crystal, experimental, refinement or atomic coordinate data resulting
# from the CCDC's data processing and validation procedures.
#
#######################################################################

data_CSD_CIF_KIWQAJ
_audit_creation_date 2008-04-24
_audit_creation_method CSD-ConQuest-V1
_database_code_CSD KIWQAJ
_database_code_depnum_ccdc_archive 'CCDC 680604'
_chemical_formula_sum 'C6 H14 Cl2 Mn1 N2 O4'
_chemical_formula_moiety
;
C6 H14 Cl2 Mn1 N2 O4
;
_journal_coeditor_code "IUCr IM2054"
_journal_coden_Cambridge 1370
_journal_volume 64
_journal_year 2008
_journal_page_first m471
_journal_name_full 'Acta Crystallogr.,Sect.E:Struct.Rep.Online '
loop_
_publ_author_name
"P.Lemoine"
"B.Viossat"
"J.D.Brion"
"A.Bekaert"
_chemical_name_systematic
;
Dichlorido-bis((S)-2-hydroxypropionamide-\k^2^O,O')-manganese(ii)
;
_chemical_name_common
;
Dichloro-bis((S)-lactamide-kappa$2!O,O')-manganese(ii)
;
_cell_volume    603.200
_exptl_crystal_colour 'pink'
_exptl_crystal_density_diffrn 1.674
_exptl_crystal_description 'parallelepiped'
_diffrn_ambient_temperature 293
#These two values have been output from a single CSD field.
_refine_ls_R_factor_gt 0.0223
_refine_ls_wR_factor_gt 0.0223
_symmetry_cell_setting monoclinic
_symmetry_space_group_name_H-M 'P 21'
_symmetry_Int_Tables_number 4
loop_
_symmetry_equiv_pos_site_id
_symmetry_equiv_pos_as_xyz
1 x,y,z
2 -x,1/2+y,-z
_cell_length_a 6.312(2)
_cell_length_b 11.718(3)
_cell_length_c 8.268(2)
_cell_angle_alpha 90
_cell_angle_beta 99.47(1)
_cell_angle_gamma 90
_cell_formula_units_Z 2
loop_
_atom_type_symbol
_atom_type_radius_bond
C 0.68
H 0.23
Cl 0.99
Mn 1.35
N 0.68
O 0.68
loop_
_atom_site_label
_atom_site_type_symbol
_atom_site_fract_x
_atom_site_fract_y
_atom_site_fract_z
Mn1 Mn 0.28185(4) 0.57573(2) 0.28850(3)
Cl1 Cl 0.43848(9) 0.40435(4) 0.43841(7)
Cl2 Cl 0.13344(8) 0.49119(5) 0.02244(5)
O1 O -0.0161(2) 0.56907(16) 0.39299(14)
N1 N -0.1127(4) 0.5206(3) 0.6322(2)
H1 H -0.228(6) 0.480(3) 0.576(4)
H2 H -0.079(6) 0.526(3) 0.729(4)
C1 C 0.0131(3) 0.5736(2) 0.54632(19)
O2 O 0.3440(2) 0.66403(14) 0.53298(18)
H3 H 0.406(6) 0.730(3) 0.563(4)
C2 C 0.1925(3) 0.6459(2) 0.6381(2)
H4 H 0.253(5) 0.609(3) 0.728(4)
C3 C 0.1005(7) 0.7558(4) 0.6897(6)
H5 H 0.21410 0.80230 0.74690
H6 H -0.00160 0.73960 0.76070
H7 H 0.03040 0.79580 0.59440
O3 O 0.2428(2) 0.74635(14) 0.1810(2)
O4 O 0.5940(2) 0.63077(16) 0.2395(2)
H8 H 0.726(6) 0.617(3) 0.278(4)
N2 N 0.3807(4) 0.89164(17) 0.0554(3)
H9 H 0.483(6) 0.919(4) 0.025(4)
H10 H 0.255(6) 0.924(4) 0.036(4)
C4 C 0.3966(3) 0.79133(17) 0.1305(2)
C5 C 0.6136(3) 0.73241(18) 0.1480(2)
H11 H 0.715(6) 0.786(4) 0.211(4)
C6 C 0.6730(4) 0.7018(2) -0.0168(3)
H12 H 0.81050 0.66470 -0.00060
H13 H 0.67950 0.77000 -0.08020
H14 H 0.56650 0.65130 -0.07410
#END
