
#######################################################################
#
#                 Cambridge Crystallographic Data Centre
#                                CCDC
#
#######################################################################
#
# If this CIF has been generated from an entry in the Cambridge
# Structural Database, then it will include bibliographic, chemical,
# crystal, experimental, refinement or atomic coordinate data resulting
# from the CCDC's data processing and validation procedures.
#
#######################################################################

data_CSD_CIF_KIXSOA
_audit_creation_date 2008-09-12
_audit_creation_method CSD-ConQuest-V1
_database_code_CSD KIXSOA
_database_code_depnum_ccdc_archive 'CCDC 664390'
_chemical_formula_sum 'C13 H12 Br1 Mn1 N2 O5'
_chemical_formula_moiety
;
C13 H12 Br1 Mn1 N2 O5
;
_journal_coden_Cambridge 36
_journal_volume 692
_journal_year 2007
_journal_page_first 5717
_journal_name_full 'J.Organomet.Chem. '
loop_
_publ_author_name
"C.M.Alvarez"
"R.Garcia-Rodriguez"
"D.Miguel"
_chemical_name_systematic
;
Bromo-tricarbonyl-(N-(3-carboxypropyl)-2-(iminomethyl)pyridine-N,N')-manganese
;
_cell_volume    918.716
_exptl_crystal_colour 'orange'
_exptl_crystal_density_diffrn 1.486
_exptl_crystal_description 'block'
_exptl_crystal_preparation 'tetrahydrofuran/hexane'
_diffrn_ambient_temperature 298
#These two values have been output from a single CSD field.
_refine_ls_R_factor_gt 0.056
_refine_ls_wR_factor_gt 0.056
_symmetry_cell_setting triclinic
_symmetry_space_group_name_H-M 'P -1'
_symmetry_Int_Tables_number 2
loop_
_symmetry_equiv_pos_site_id
_symmetry_equiv_pos_as_xyz
1 x,y,z
2 -x,-y,-z
_cell_length_a 7.0213(15)
_cell_length_b 9.770(2)
_cell_length_c 13.955(3)
_cell_angle_alpha 92.118(4)
_cell_angle_beta 100.150(4)
_cell_angle_gamma 102.082(3)
_cell_formula_units_Z 2
loop_
_atom_type_symbol
_atom_type_radius_bond
C 0.68
H 0.23
Br 1.21
Mn 1.35
N 0.68
O 0.68
loop_
_atom_site_label
_atom_site_type_symbol
_atom_site_fract_x
_atom_site_fract_y
_atom_site_fract_z
Mn1 Mn 0.52564(12) 0.77584(8) 0.81824(6)
Br1 Br 0.23267(8) 0.72238(6) 0.90460(5)
N1 N 0.7026(6) 0.7965(5) 0.9536(3)
N2 N 0.5540(6) 0.5743(4) 0.8363(3)
C1 C 0.7274(9) 0.8083(6) 0.7535(4)
O1 O 0.8521(7) 0.8282(6) 0.7099(4)
C2 C 0.3473(9) 0.7419(6) 0.7054(5)
O2 O 0.2359(8) 0.7233(6) 0.6331(4)
C3 C 0.5183(9) 0.9578(7) 0.8151(5)
O3 O 0.5215(8) 1.0761(5) 0.8093(4)
C4 C 0.7669(9) 0.9130(6) 1.0143(5)
H1 H 0.73460 0.99640 0.99430
C5 C 0.8785(9) 0.9122(7) 1.1048(5)
H2 H 0.92220 0.99470 1.14520
C6 C 0.9266(9) 0.7905(7) 1.1363(5)
H3 H 1.00320 0.78980 1.19780
C7 C 0.8598(8) 0.6701(7) 1.0758(5)
H4 H 0.88930 0.58580 1.09560
C8 C 0.7477(8) 0.6763(6) 0.9847(4)
C9 C 0.6622(8) 0.5564(6) 0.9159(4)
H5 H 0.68550 0.46820 0.92940
C10 C 0.4624(8) 0.4531(6) 0.7666(4)
H6 H 0.32100 0.44820 0.74930
H7 H 0.48080 0.36800 0.79710
C11 C 0.5520(9) 0.4616(7) 0.6733(5)
H8 H 0.47340 0.38810 0.62520
H9 H 0.54530 0.55110 0.64660
C12 C 0.7659(9) 0.4466(8) 0.6918(5)
H10 H 0.84210 0.51610 0.74330
H11 H 0.77090 0.35460 0.71460
C13 C 0.8594(9) 0.4638(7) 0.6046(5)
O4 O 0.8003(7) 0.5314(6) 0.5382(3)
O5 O 1.0133(7) 0.4097(6) 0.6085(4)
H12 H 1.06980 0.41380 0.56160
#END
