
#######################################################################
#
#                 Cambridge Crystallographic Data Centre
#                                CCDC
#
#######################################################################
#
# If this CIF has been generated from an entry in the Cambridge
# Structural Database, then it will include bibliographic, chemical,
# crystal, experimental, refinement or atomic coordinate data resulting
# from the CCDC's data processing and validation procedures.
#
#######################################################################

data_CSD_CIF_KODYUX08
_audit_creation_date 1992-04-14
_audit_creation_method CSD-ConQuest-V1
_database_code_CSD KODYUX08
_database_code_depnum_ccdc_archive 'CCDC 1198554'
_chemical_formula_sum 'C12 H16 Cr1 N2 O8'
_chemical_formula_moiety
;
C12 H16 Cr1 N2 O8
;
_journal_coden_Cambridge 29
_journal_volume 598
_journal_year 1991
_journal_page_first 53
_journal_name_full 'Z.Anorg.Allg.Chem. '
loop_
_publ_author_name
"F.A.Cotton"
"L.R.Falvello"
"E.L.Ohlhausen"
"C.A.Murillo"
"J.F.Quesada"
_chemical_name_systematic
;
bis(Nicotinato)-tetra-aqua-chromium-zinc
;
_cell_volume    740.459
_exptl_crystal_colour 'yellow'
_exptl_crystal_density_diffrn 1.667
_diffrn_ambient_temperature ?
_diffrn_special_details
;
The study was carried out at room temperature,in the range 283-303K

;
_refine_special_details
;
solid solution Cr:Zn 0.749:0.252, for end points see NICAZN03 and CIDVOA02.

;
#These two values have been output from a single CSD field.
_refine_ls_R_factor_gt 0.0293
_refine_ls_wR_factor_gt 0.0293
_symmetry_cell_setting monoclinic
_symmetry_space_group_name_H-M 'C 2/m'
_symmetry_Int_Tables_number 12
loop_
_symmetry_equiv_pos_site_id
_symmetry_equiv_pos_as_xyz
1 x,y,z
2 1/2+x,1/2+y,z
3 -x,y,-z
4 1/2-x,1/2+y,-z
5 -x,-y,-z
6 -1/2-x,-1/2-y,-z
7 x,-y,z
8 -1/2+x,-1/2-y,z
_cell_length_a 14.305(3)
_cell_length_b 6.9366(11)
_cell_length_c 8.512(2)
_cell_angle_alpha 90
_cell_angle_beta 118.757(16)
_cell_angle_gamma 90
_cell_formula_units_Z 2
loop_
_atom_type_symbol
_atom_type_radius_bond
C 0.68
H 0.23
Cr 1.35
N 0.68
O 0.68
loop_
_atom_site_label
_atom_site_type_symbol
_atom_site_fract_x
_atom_site_fract_y
_atom_site_fract_z
Cr1 Cr 0.00000 0.00000 0.00000
O1 O -0.05927(8) -0.2210(2) 0.1101(1)
O2 O 0.1374(1) 0.00000 0.7184(2)
O3 O 0.3138(1) 0.00000 0.8850(2)
N1 N 0.1476(1) 0.00000 0.2473(2)
C1 C 0.1470(1) 0.00000 0.4039(2)
C2 C 0.2391(1) 0.00000 0.5687(2)
C3 C 0.2298(2) 0.00000 0.7374(2)
C4 C 0.3366(1) 0.00000 0.5715(2)
C5 C 0.3382(1) 0.00000 0.4095(3)
C6 C 0.2430(1) 0.00000 0.2516(2)
H1 H -0.100(2) -0.302(3) 0.043(3)
H2 H -0.096(2) -0.173(3) 0.162(3)
H3 H 0.077(2) 0.00000 0.400(3)
H4 H 0.400(2) 0.00000 0.685(4)
H5 H 0.405(2) 0.00000 0.404(4)
H6 H 0.241(2) 0.00000 0.137(3)
O1B O 0.05927(8) -0.2210(2) -0.1101(1)
H1B H 0.100(2) -0.302(3) -0.043(3)
H2B H 0.096(2) -0.173(3) -0.162(3)
O1D O 0.05927(8) 0.2210(2) -0.1101(1)
H1D H 0.100(2) 0.302(3) -0.043(3)
H2D H 0.096(2) 0.173(3) -0.162(3)
O1F O -0.05927(8) 0.2210(2) 0.1101(1)
H1F H -0.100(2) 0.302(3) 0.043(3)
H2F H -0.096(2) 0.173(3) 0.162(3)
N1B N -0.1476(1) 0.00000 -0.2473(2)
C1B C -0.1470(1) 0.00000 -0.4039(2)
C2B C -0.2391(1) 0.00000 -0.5687(2)
C3B C -0.2298(2) 0.00000 -0.7374(2)
O2B O -0.1374(1) 0.00000 -0.7184(2)
O3B O -0.3138(1) 0.00000 -0.8850(2)
C4B C -0.3366(1) 0.00000 -0.5715(2)
C5B C -0.3382(1) 0.00000 -0.4095(3)
C6B C -0.2430(1) 0.00000 -0.2516(2)
H6B H -0.241(2) 0.00000 -0.137(3)
H5B H -0.405(2) 0.00000 -0.404(4)
H4B H -0.400(2) 0.00000 -0.685(4)
H3B H -0.077(2) 0.00000 -0.400(3)
#END
