
#######################################################################
#
#                 Cambridge Crystallographic Data Centre
#                                CCDC
#
#######################################################################
#
# If this CIF has been generated from an entry in the Cambridge
# Structural Database, then it will include bibliographic, chemical,
# crystal, experimental, refinement or atomic coordinate data resulting
# from the CCDC's data processing and validation procedures.
#
#######################################################################

data_CSD_CIF_KOJTIM
_audit_creation_date 1992-06-24
_audit_creation_method CSD-ConQuest-V1
_database_code_CSD KOJTIM
_chemical_formula_sum 'C14 H24 Co1 N6 O14'
_chemical_formula_moiety
;
C14 H24 Co1 N4 O8 2+,2(N1 O3 1-)
;
_journal_coden_Cambridge 367
_journal_volume 16
_journal_year 1990
_journal_page_first 1526
_journal_name_full 'Koord.Khim.(Russ.)(Coord.Chem.) '
loop_
_publ_author_name
"E.B.Shamuratov"
"A.S.Batsanov"
"Yu.T.Struchkov"
"A.N.Yunuskhodzhaev"
"A.F.Dusmatov"
"V.Kh.Sabirov"
_chemical_name_systematic
;
Tetra-aqua-bis(N-(hydroxymethyl)nicotinamide-N')-cobalt(ii) dinitrate
;
_chemical_melting_point 382.15
_cell_volume    566.755
_exptl_crystal_colour 'pink'
_exptl_special_details
;
Melting point range 382.15-384.15K
Isomorphous with the copper analogue

;
_diffrn_ambient_temperature ?
_diffrn_special_details
;
The study was carried out at room temperature,in the range 283-303K

;
#These two values have been output from a single CSD field.
_refine_ls_R_factor_gt 0.029
_refine_ls_wR_factor_gt 0.029
_symmetry_cell_setting triclinic
_symmetry_space_group_name_H-M 'P -1'
_symmetry_Int_Tables_number 2
loop_
_symmetry_equiv_pos_site_id
_symmetry_equiv_pos_as_xyz
1 x,y,z
2 -x,-y,-z
_cell_length_a 8.365(3)
_cell_length_b 8.787(3)
_cell_length_c 9.587(3)
_cell_angle_alpha 100.88(3)
_cell_angle_beta 103.41(3)
_cell_angle_gamma 118.14(2)
_cell_formula_units_Z 1
loop_
_atom_type_symbol
_atom_type_radius_bond
C 0.68
H 0.23
Co 1.33
N 0.68
O 0.68
loop_
_atom_site_label
_atom_site_type_symbol
_atom_site_fract_x
_atom_site_fract_y
_atom_site_fract_z
Co1 Co 0.00000 0.00000 0.00000
O1 O 0.9314(2) 0.5811(2) 0.1235(2)
O2 O 0.9788(2) 0.8320(2) 0.4213(2)
O3 O 0.0747(2) 0.2696(2) 0.0941(2)
O4 O 0.1299(2) 0.0098(2) 0.2196(2)
N1 N 0.2697(2) 0.1031(2) -0.0388(2)
N2 N 0.8207(2) 0.5091(2) 0.3082(2)
C1 C 0.4383(2) 0.2509(2) 0.0646(2)
C2 C 0.6145(2) 0.3140(2) 0.0443(2)
C3 C 0.6159(3) 0.2238(3) -0.0903(2)
C4 C 0.4432(3) 0.0713(3) -0.1965(2)
C5 C 0.2745(3) 0.0154(3) -0.1666(2)
C6 C 0.8008(2) 0.4787(2) 0.1616(2)
C7 C 0.9873(3) 0.6768(3) 0.4257(2)
H1 H 0.889(5) 0.812(4) 0.446(4)
H2 H 0.075(4) 0.329(4) 0.038(3)
H3 H 0.140(4) 0.344(4) 0.181(3)
H4 H 0.238(3) 0.082(3) 0.281(3)
H5 H 0.076(4) -0.043(4) 0.257(3)
H6 H 0.731(3) 0.443(3) 0.332(3)
H7 H 0.438(3) 0.314(3) 0.156(2)
H8 H 0.729(3) 0.256(3) -0.110(2)
H9 H 0.440(3) 0.011(3) -0.290(2)
H10 H 0.149(3) -0.089(3) -0.238(2)
H11 H 1.111(3) 0.698(3) 0.405(2)
H12 H 0.993(3) 0.660(3) 0.523(2)
O5 O 0.5097(2) 0.2578(2) 0.4143(2)
O6 O 0.4364(3) 0.3373(3) 0.6061(2)
O7 O 0.7292(2) 0.4883(2) 0.6150(2)
N3 N 0.5541(2) 0.3592(2) 0.5465(2)
O3A O -0.0747(2) -0.2696(2) -0.0941(2)
O4A O -0.1299(2) -0.0098(2) -0.2196(2)
N1A N -0.2697(2) -0.1031(2) 0.0388(2)
H2A H -0.075(4) -0.329(4) -0.038(3)
H3A H -0.140(4) -0.344(4) -0.181(3)
H4A H -0.238(3) -0.082(3) -0.281(3)
H5A H -0.076(4) 0.043(4) -0.257(3)
C1A C -0.4383(2) -0.2509(2) -0.0646(2)
C5A C -0.2745(3) -0.0154(3) 0.1666(2)
C2A C -0.6145(2) -0.3140(2) -0.0443(2)
H7A H -0.438(3) -0.314(3) -0.156(2)
C4A C -0.4432(3) -0.0713(3) 0.1965(2)
H10A H -0.149(3) 0.089(3) 0.238(2)
C3A C -0.6159(3) -0.2238(3) 0.0903(2)
C6A C -0.8008(2) -0.4787(2) -0.1616(2)
H9A H -0.440(3) -0.011(3) 0.290(2)
H8A H -0.729(3) -0.256(3) 0.110(2)
O1A O -0.9314(2) -0.5811(2) -0.1235(2)
N2A N -0.8207(2) -0.5091(2) -0.3082(2)
C7A C -0.9873(3) -0.6768(3) -0.4257(2)
H6A H -0.731(3) -0.443(3) -0.332(3)
O2A O -0.9788(2) -0.8320(2) -0.4213(2)
H11A H -1.111(3) -0.698(3) -0.405(2)
H12A H -0.993(3) -0.660(3) -0.523(2)
H1A H -0.889(5) -0.812(4) -0.446(4)
#END
