
#######################################################################
#
#                 Cambridge Crystallographic Data Centre
#                                CCDC
#
#######################################################################
#
# If this CIF has been generated from an entry in the Cambridge
# Structural Database, then it will include bibliographic, chemical,
# crystal, experimental, refinement or atomic coordinate data resulting
# from the CCDC's data processing and validation procedures.
#
#######################################################################

data_CSD_CIF_KOMBIX
_audit_creation_date 1992-08-09
_audit_creation_method CSD-ConQuest-V1
_database_code_CSD KOMBIX
_database_code_depnum_ccdc_archive 'CCDC 1199127'
_database_code_depnum_ccdc_fiz 'CSD 55456'
_chemical_formula_sum 'C19 H16 Cr1 O3'
_chemical_formula_moiety
;
C19 H16 Cr1 O3
;
_journal_coden_Cambridge 48
_journal_volume 124
_journal_year 1991
_journal_page_first 2797
_journal_name_full 'Chem.Ber. '
loop_
_publ_author_name
"J.Schulz"
"M.Nieger"
"F.Vogtle"
_chemical_name_systematic
;
anti-Tricarbonyl-(\h^6^-(2.2)metacyclophane)-chromium
;
_cell_volume   1576.387
_exptl_crystal_colour 'yellow'
_exptl_crystal_density_diffrn 1.45
_diffrn_ambient_temperature ?
_diffrn_special_details
;
The study was carried out at room temperature,in the range 283-303K

;
#These two values have been output from a single CSD field.
_refine_ls_R_factor_gt 0.022
_refine_ls_wR_factor_gt 0.022
_symmetry_cell_setting orthorhombic
_symmetry_space_group_name_H-M 'C m c 21'
_symmetry_Int_Tables_number 36
loop_
_symmetry_equiv_pos_site_id
_symmetry_equiv_pos_as_xyz
1 x,y,z
2 1/2+x,1/2+y,z
3 -x,y,z
4 1/2-x,1/2+y,z
5 x,-y,1/2+z
6 1/2+x,1/2-y,1/2+z
7 -x,-y,1/2+z
8 1/2-x,1/2-y,1/2+z
_cell_length_a 12.372(1)
_cell_length_b 10.122(1)
_cell_length_c 12.588(1)
_cell_angle_alpha 90
_cell_angle_beta 90
_cell_angle_gamma 90
_cell_formula_units_Z 4
loop_
_atom_type_symbol
_atom_type_radius_bond
C 0.68
H 0.23
Cr 1.35
O 0.68
loop_
_atom_site_label
_atom_site_type_symbol
_atom_site_fract_x
_atom_site_fract_y
_atom_site_fract_z
Cr1 Cr 0.00000 0.0755(1) 0.00000
C1 C 0.1970(3) 0.4116(3) -0.1826(3)
C2 C 0.1990(2) 0.2662(3) -0.1411(3)
C3 C 0.0995(2) 0.2401(2) -0.0763(2)
C4 C 0.0972(3) 0.2583(3) 0.0346(2)
C5 C 0.00000 0.2633(3) 0.0908(3)
C6 C 0.00000 0.2196(3) -0.1280(3)
C7 C 0.00000 0.3851(4) -0.4098(4)
C8 C 0.0968(3) 0.3996(3) -0.3570(3)
C9 C 0.0986(3) 0.4341(2) -0.2503(3)
C10 C 0.00000 0.4614(3) -0.2014(3)
C11 C 0.1027(2) -0.0204(2) 0.0696(2)
O1 O 0.1669(2) -0.0830(2) 0.1126(3)
C12 C 0.00000 -0.0543(4) -0.0993(3)
O2 O 0.00000 -0.1424(4) -0.1596(3)
H1 H 0.26120 0.43010 -0.22270
H2 H 0.19470 0.47070 -0.12310
H3 H 0.26230 0.25160 -0.09860
H4 H 0.20100 0.20670 -0.20050
H5 H 0.16420 0.26630 0.07260
H6 H 0.00000 0.27100 0.16680
H7 H 0.00000 0.18970 -0.20040
H8 H 0.00000 0.36440 -0.48420
H9 H 0.16360 0.38600 -0.39440
H10 H 0.00000 0.50040 -0.13190
C3B C -0.0995(2) 0.2401(2) -0.0763(2)
C4B C -0.0972(3) 0.2583(3) 0.0346(2)
C11B C -0.1027(2) -0.0204(2) 0.0696(2)
C8B C -0.0968(3) 0.3996(3) -0.3570(3)
C9B C -0.0986(3) 0.4341(2) -0.2503(3)
C2B C -0.1990(2) 0.2662(3) -0.1411(3)
H5B H -0.16420 0.26630 0.07260
O1B O -0.1669(2) -0.0830(2) 0.1126(3)
H9B H -0.16360 0.38600 -0.39440
C1B C -0.1970(3) 0.4116(3) -0.1826(3)
H3B H -0.26230 0.25160 -0.09860
H4B H -0.20100 0.20670 -0.20050
H1B H -0.26120 0.43010 -0.22270
H2B H -0.19470 0.47070 -0.12310
#END
