
#######################################################################
#
#                 Cambridge Crystallographic Data Centre
#                                CCDC
#
#######################################################################
#
# If this CIF has been generated from an entry in the Cambridge
# Structural Database, then it will include bibliographic, chemical,
# crystal, experimental, refinement or atomic coordinate data resulting
# from the CCDC's data processing and validation procedures.
#
#######################################################################

data_CSD_CIF_KOXPIY
_audit_creation_date 2014-11-30
_audit_creation_method CSD-ConQuest-V1
_database_code_CSD KOXPIY
_database_code_depnum_ccdc_archive 'CCDC 961423'
_chemical_formula_sum 'C18 H20 Fe1 N14 S2'
_chemical_formula_moiety
;
C18 H20 Fe1 N14 S2
;
_journal_coden_Cambridge 580
_journal_volume 87
_journal_year 2015
_journal_page_first 147
_journal_name_full 'Polyhedron '
loop_
_publ_author_name
"S.I.Shylin"
"I.A.Guralskiy"
"D.Bykov"
"S.Demeshko"
"S.Dechert"
"F.Meyer"
"M.Hauka"
"I.O.Fritsky"
_chemical_name_systematic
;
tetrakis(pyrazin-2-amine)-bis(isothiocyanato)-iron(ii)
;
_cell_volume    583.028
_exptl_crystal_colour 'yellow'
_exptl_crystal_density_diffrn 1.573
_exptl_crystal_description 'block'
_diffrn_ambient_temperature 133
#These two values have been output from a single CSD field.
_refine_ls_R_factor_gt 0.032
_refine_ls_wR_factor_gt 0.032
_symmetry_cell_setting triclinic
_symmetry_space_group_name_H-M 'P -1'
_symmetry_Int_Tables_number 2
loop_
_symmetry_equiv_pos_site_id
_symmetry_equiv_pos_as_xyz
1 x,y,z
2 -x,-y,-z
_cell_length_a 8.0483(6)
_cell_length_b 8.8012(6)
_cell_length_c 9.8497(7)
_cell_angle_alpha 73.184(6)
_cell_angle_beta 71.400(6)
_cell_angle_gamma 63.543(5)
_cell_formula_units_Z 1
loop_
_atom_type_symbol
_atom_type_radius_bond
C 0.68
H 0.23
Fe 1.52
N 0.68
S 1.02
loop_
_atom_site_label
_atom_site_type_symbol
_atom_site_fract_x
_atom_site_fract_y
_atom_site_fract_z
Fe1 Fe 0.50000 0.50000 0.50000
S1 S -0.03503(6) 0.95819(7) 0.31454(6)
N1 N 0.2684(2) 0.43914(19) 0.68337(17)
N2 N -0.0157(2) 0.3590(2) 0.90538(19)
N3 N 0.2098(2) 0.1719(2) 1.03887(18)
N4 N 0.2960(2) 0.7062(2) 0.40009(18)
N5 N 0.4934(2) 0.32398(19) 0.37238(17)
N6 N 0.4839(2) 0.1125(2) 0.21167(18)
N7 N 0.6883(2) 0.2033(2) 0.01431(19)
C1 C 0.3080(2) 0.3272(2) 0.8037(2)
H1 H 0.43630 0.27200 0.81380
C2 C 0.1658(3) 0.2874(2) 0.9172(2)
C3 C -0.0532(3) 0.4699(3) 0.7824(2)
H2 H -0.18050 0.52130 0.77030
C4 C 0.0835(3) 0.5131(2) 0.6726(2)
H3 H 0.04820 0.59510 0.58900
C5 C 0.1585(3) 0.8123(2) 0.3639(2)
C6 C 0.5903(2) 0.3155(2) 0.2358(2)
H4 H 0.66320 0.38420 0.19120
C7 C 0.5891(2) 0.2083(2) 0.1542(2)
C8 C 0.3864(3) 0.1221(2) 0.3500(2)
H5 H 0.31090 0.05550 0.39410
C9 C 0.3907(3) 0.2238(2) 0.4308(2)
H6 H 0.32080 0.22400 0.52880
H7 H 0.108(6) 0.164(5) 1.118(4)
H8 H 0.316(6) 0.141(5) 1.060(4)
H9 H 0.784(6) 0.242(5) -0.019(4)
H10 H 0.714(6) 0.114(5) -0.024(4)
S1A S 1.03503(6) 0.04181(7) 0.68546(6)
N1A N 0.7316(2) 0.56086(19) 0.31663(17)
N2A N 1.0157(2) 0.6410(2) 0.09462(19)
N3A N 0.7902(2) 0.8281(2) -0.03887(18)
N4A N 0.7040(2) 0.2938(2) 0.59991(18)
N5A N 0.5066(2) 0.67602(19) 0.62762(17)
N6A N 0.5161(2) 0.8875(2) 0.78833(18)
N7A N 0.3117(2) 0.7967(2) 0.98569(19)
C1A C 0.6920(2) 0.6728(2) 0.1963(2)
H1A H 0.56370 0.72800 0.18620
C2A C 0.8342(3) 0.7126(2) 0.0828(2)
C3A C 1.0532(3) 0.5301(3) 0.2176(2)
H2A H 1.18050 0.47870 0.22970
C4A C 0.9165(3) 0.4869(2) 0.3274(2)
H3A H 0.95180 0.40490 0.41100
C5A C 0.8415(3) 0.1877(2) 0.6361(2)
C6A C 0.4097(2) 0.6845(2) 0.7642(2)
H4A H 0.33680 0.61580 0.80880
C7A C 0.4109(2) 0.7917(2) 0.8458(2)
C8A C 0.6136(3) 0.8779(2) 0.6500(2)
H5A H 0.68910 0.94450 0.60590
C9A C 0.6093(3) 0.7762(2) 0.5692(2)
H6A H 0.67920 0.77600 0.47120
H7A H 0.892(6) 0.836(5) -0.118(4)
H8A H 0.684(6) 0.859(5) -0.060(4)
H9A H 0.216(6) 0.758(5) 1.019(4)
H10A H 0.286(6) 0.886(5) 1.024(4)
#END
