
#######################################################################
#
#                 Cambridge Crystallographic Data Centre
#                                CCDC
#
#######################################################################
#
# If this CIF has been generated from an entry in the Cambridge
# Structural Database, then it will include bibliographic, chemical,
# crystal, experimental, refinement or atomic coordinate data resulting
# from the CCDC's data processing and validation procedures.
#
#######################################################################

data_CSD_CIF_KOZROG
_audit_creation_date 1992-12-16
_audit_creation_method CSD-ConQuest-V1
_database_code_CSD KOZROG
_chemical_formula_sum 'C9 H7 Cr1 N1 O3'
_chemical_formula_moiety
;
C9 H7 Cr1 N1 O3
;
_journal_coden_Cambridge 579
_journal_volume 11
_journal_year 1992
_journal_page_first 1550
_journal_name_full 'Organometallics '
loop_
_publ_author_name
"A.D.Hunter"
"L.Shilliday"
"W.S.Furey"
"M.J.Zaworotko"
_chemical_name_systematic
;
(\h^6^-Aniline)-tricarbonyl-chromium
;
_cell_volume    470.708
_exptl_crystal_colour 'yellow'
_exptl_crystal_density_diffrn 1.62
_exptl_special_details
;
monoclinic polymorph
z(C4) is 0.3338 not 0.3383

;
_diffrn_ambient_temperature ?
_diffrn_special_details
;
The study was carried out at room temperature,in the range 283-303K

;
#These two values have been output from a single CSD field.
_refine_ls_R_factor_gt 0.029
_refine_ls_wR_factor_gt 0.029
_symmetry_cell_setting monoclinic
_symmetry_space_group_name_H-M 'P 21/m'
_symmetry_Int_Tables_number 11
loop_
_symmetry_equiv_pos_site_id
_symmetry_equiv_pos_as_xyz
1 x,y,z
2 -x,1/2+y,-z
3 -x,-y,-z
4 x,-1/2-y,z
_cell_length_a 7.0425(12)
_cell_length_b 9.572(4)
_cell_length_c 7.4694(11)
_cell_angle_alpha 90
_cell_angle_beta 110.798(12)
_cell_angle_gamma 90
_cell_formula_units_Z 2
loop_
_atom_type_symbol
_atom_type_radius_bond
C 0.68
H 0.23
Cr 1.35
N 0.68
O 0.68
loop_
_atom_site_label
_atom_site_type_symbol
_atom_site_fract_x
_atom_site_fract_y
_atom_site_fract_z
Cr1 Cr 0.97106(8) 0.25000 0.16669(7)
C1 C 1.1623(4) 0.3793(3) 0.2907(3)
O1 O 1.2880(4) 0.4567(3) 0.3726(3)
C2 C 1.0623(5) 0.25000 -0.0342(5)
O2 O 1.1200(5) 0.25000 -0.1615(4)
C3 C 0.6443(5) 0.25000 -0.0689(5)
C4 C 0.6862(4) 0.3759(4) 0.0324(4)
C5 C 0.7450(5) 0.3746(4) 0.2344(4)
C6 C 0.7676(7) 0.25000 0.3338(6)
N1 N 0.5696(6) 0.25000 -0.2650(5)
H1 H 0.553(5) 0.324(3) -0.308(4)
H2 H 0.688(4) 0.460(3) -0.014(4)
H3 H 0.776(5) 0.458(3) 0.292(4)
H4 H 0.807(8) 0.25000 0.455(7)
C1C C 1.1623(4) 0.1207(3) 0.2907(3)
C4C C 0.6862(4) 0.1241(4) 0.0324(4)
C5C C 0.7450(5) 0.1254(4) 0.2344(4)
H1C H 0.553(5) 0.176(3) -0.308(4)
O1C O 1.2880(4) 0.0433(3) 0.3726(3)
H2C H 0.688(4) 0.040(3) -0.014(4)
H3C H 0.776(5) 0.042(3) 0.292(4)
#END
