
#######################################################################
#
#                 Cambridge Crystallographic Data Centre
#                                CCDC
#
#######################################################################
#
# If this CIF has been generated from an entry in the Cambridge
# Structural Database, then it will include bibliographic, chemical,
# crystal, experimental, refinement or atomic coordinate data resulting
# from the CCDC's data processing and validation procedures.
#
#######################################################################

data_CSD_CIF_KOZROG01
_audit_creation_date 2000-05-08
_audit_creation_method CSD-ConQuest-V1
_database_code_CSD KOZROG01
_database_code_depnum_ccdc_archive 'CCDC 141510'
_database_code_depnum_ccdc_journal 182/1522
_chemical_formula_sum 'C9 H7 Cr1 N1 O3'
_chemical_formula_moiety
;
C9 H7 Cr1 N1 O3
;
_journal_coden_Cambridge 182
_journal_year 2000
_journal_page_first 275
_journal_name_full 'Chem.Commun. '
loop_
_publ_author_name
"S.Camiolo"
"S.J.Coles"
"P.A.Gale"
"M.B.Hursthouse"
"T.A.Mayer"
"M.A.Paver"
_chemical_name_systematic
;
(\h^6^-Aniline)-tricarbonyl-chromium
;
_cell_volume    455.491
_exptl_crystal_colour 'yellow'
_exptl_crystal_density_diffrn 1.671
_exptl_special_details
;
triclinic polymorph
Cell alpha value is 86.089, as in the supplementary data, not 86.069, as 
published
;
_exptl_crystal_description 'needle'
_exptl_crystal_preparation 'dichloromethane'
_diffrn_ambient_temperature 150
#These two values have been output from a single CSD field.
_refine_ls_R_factor_gt 0.0774
_refine_ls_wR_factor_gt 0.0774
_symmetry_cell_setting triclinic
_symmetry_space_group_name_H-M 'P -1'
_symmetry_Int_Tables_number 2
loop_
_symmetry_equiv_pos_site_id
_symmetry_equiv_pos_as_xyz
1 x,y,z
2 -x,-y,-z
_cell_length_a 7.0198(10)
_cell_length_b 7.3940(11)
_cell_length_c 9.4002(12)
_cell_angle_alpha 86.089(7)
_cell_angle_beta 86.591(8)
_cell_angle_gamma 69.457(7)
_cell_formula_units_Z 2
loop_
_atom_type_symbol
_atom_type_radius_bond
C 0.68
H 0.23
Cr 1.35
N 0.68
O 0.68
loop_
_atom_site_label
_atom_site_type_symbol
_atom_site_fract_x
_atom_site_fract_y
_atom_site_fract_z
Cr1 Cr 0.02682(18) 0.16760(17) 0.25141(12)
O1 O -0.3119(10) 0.3615(9) 0.0566(6)
O2 O -0.2766(10) 0.3788(9) 0.4718(6)
O3 O -0.1173(10) -0.1709(9) 0.2878(7)
N1 N 0.4369(10) -0.2609(10) 0.2293(7)
H1 H 0.45210 -0.31890 0.15090
H2 H 0.47280 -0.32720 0.30820
C1 C -0.1768(13) 0.2844(12) 0.1298(9)
C2 C -0.1565(12) 0.2939(11) 0.3891(8)
C3 C -0.0605(12) -0.0388(13) 0.2743(8)
C4 C 0.3562(11) -0.0652(12) 0.2285(8)
C5 C 0.2969(12) 0.0452(12) 0.1018(9)
H3 H 0.29790 -0.01610 0.01840
C6 C 0.2351(13) 0.2493(14) 0.0986(10)
H4 H 0.20280 0.31970 0.01210
C7 C 0.2215(13) 0.3476(13) 0.2235(10)
H5 H 0.18600 0.48130 0.22120
C8 C 0.2642(13) 0.2343(14) 0.3534(10)
H6 H 0.25250 0.29590 0.43820
C9 C 0.3232(12) 0.0340(12) 0.3576(9)
H7 H 0.34110 -0.03560 0.44500
#END
