
#######################################################################
#
#                 Cambridge Crystallographic Data Centre
#                                CCDC
#
#######################################################################
#
# If this CIF has been generated from an entry in the Cambridge
# Structural Database, then it will include bibliographic, chemical,
# crystal, experimental, refinement or atomic coordinate data resulting
# from the CCDC's data processing and validation procedures.
#
#######################################################################

data_CSD_CIF_KUJTOY
_audit_creation_date 1993-03-04
_audit_creation_method CSD-ConQuest-V1
_database_code_CSD KUJTOY
_chemical_formula_sum 'C13 H11 Cr1 N1 O5'
_chemical_formula_moiety
;
C13 H11 Cr1 N1 O5
;
_journal_coden_Cambridge 36
_journal_volume 431
_journal_year 1992
_journal_page_first C6
_journal_name_full 'J.Organomet.Chem. '
loop_
_publ_author_name
"F.Cohen"
"R.Goumont"
"H.Rudler"
"J.C.Daran"
"R.A.Toscano"
_chemical_name_systematic
;
(1-(4-Methylpyridylium)ethyl)-pentacarbonyl-chromium
;
_cell_volume    696.035
_diffrn_ambient_temperature ?
_diffrn_special_details
;
The study was carried out at room temperature,in the range 283-303K

;
#These two values have been output from a single CSD field.
_refine_ls_R_factor_gt 0.0526
_refine_ls_wR_factor_gt 0.0526
_symmetry_cell_setting triclinic
_symmetry_space_group_name_H-M 'P -1'
_symmetry_Int_Tables_number 2
loop_
_symmetry_equiv_pos_site_id
_symmetry_equiv_pos_as_xyz
1 x,y,z
2 -x,-y,-z
_cell_length_a 8.078(3)
_cell_length_b 8.724(2)
_cell_length_c 10.688(1)
_cell_angle_alpha 105.85(2)
_cell_angle_beta 100.45(2)
_cell_angle_gamma 98.80(2)
_cell_formula_units_Z 2
loop_
_atom_type_symbol
_atom_type_radius_bond
C 0.68
H 0.23
Cr 1.35
N 0.68
O 0.68
loop_
_atom_site_label
_atom_site_type_symbol
_atom_site_fract_x
_atom_site_fract_y
_atom_site_fract_z
Cr1 Cr 0.1927(1) 0.1952(1) 0.32989(9)
O1 O -0.1105(5) 0.0998(6) 0.4386(5)
O2 O -0.0678(5) 0.1733(6) 0.0801(4)
O3 O 0.2026(7) -0.1616(6) 0.2226(5)
O4 O 0.1969(7) 0.5503(6) 0.4590(6)
O5 O 0.4455(7) 0.2062(7) 0.5822(5)
N1 N 0.3596(5) 0.3133(5) 0.1225(4)
C1 C 0.4180(7) 0.2753(7) 0.2489(6)
C2 C 0.5422(8) 0.1607(9) 0.2316(7)
C3 C 0.3283(8) 0.2006(7) 0.0015(6)
C4 C 0.2657(8) 0.2324(7) -0.1141(6)
C5 C 0.2284(7) 0.3828(7) -0.1118(6)
C6 C 0.2626(8) 0.4979(7) 0.0139(6)
C7 C 0.3290(8) 0.4624(7) 0.1277(6)
C8 C 0.157(1) 0.419(1) -0.2359(7)
C9 C 0.0083(7) 0.1351(7) 0.3992(6)
C10 C 0.0333(7) 0.1806(7) 0.1740(6)
C11 C 0.2003(7) -0.0267(7) 0.2595(6)
C12 C 0.1958(8) 0.4168(8) 0.4080(6)
C13 C 0.3543(8) 0.2034(7) 0.4862(6)
H1 H 0.488(9) 0.380(8) 0.310(7)
H2 H 0.346(9) 0.104(8) 0.001(7)
H3 H 0.238(9) 0.154(8) -0.188(7)
H4 H 0.247(9) 0.602(8) 0.025(7)
H5 H 0.357(9) 0.533(8) 0.205(7)
H6 H 0.627(9) 0.210(8) 0.188(7)
H7 H 0.492(6) 0.047(6) 0.186(5)
H8 H 0.606(9) 0.156(8) 0.318(7)
H9 H 0.094(9) 0.338(9) -0.282(7)
H10 H 0.248(9) 0.512(9) -0.235(7)
H11 H 0.053(9) 0.478(9) -0.244(7)
#END
