
#######################################################################
#
#                 Cambridge Crystallographic Data Centre
#                                CCDC
#
#######################################################################
#
# If this CIF has been generated from an entry in the Cambridge
# Structural Database, then it will include bibliographic, chemical,
# crystal, experimental, refinement or atomic coordinate data resulting
# from the CCDC's data processing and validation procedures.
#
#######################################################################

data_CSD_CIF_KULMOT
_audit_creation_date 1993-03-24
_audit_creation_method CSD-ConQuest-V1
_database_code_CSD KULMOT
_chemical_formula_sum 'C11 H19 Fe1 I1 N6 S2'
_chemical_formula_moiety
;
C11 H19 Fe1 I1 N6 S2
;
_journal_coden_Cambridge 9
_journal_volume 31
_journal_year 1992
_journal_page_first 3264
_journal_name_full 'Inorg.Chem. '
loop_
_publ_author_name
"N.V.Gerbeleu"
"Yu.A.Simonov"
"V.B.Arion"
"V.M.Leovac"
"K.I.Turta"
"K.M.Indrichan"
"D.I.Gradinaru"
"V.E.Zavodnik"
"T.I.Malinovskii"
_chemical_name_systematic
;
Iodo-(2,4-pentanedione bis(S-ethylisothiosemicarbazonato))-iron(iv)
;
_cell_volume    881.238
_exptl_crystal_colour 'black-brown'
_exptl_crystal_density_diffrn 1.805
_diffrn_ambient_temperature ?
_diffrn_special_details
;
The study was carried out at room temperature,in the range 283-303K

;
#These two values have been output from a single CSD field.
_refine_ls_R_factor_gt 0.022
_refine_ls_wR_factor_gt 0.022
_symmetry_cell_setting triclinic
_symmetry_space_group_name_H-M 'P -1'
_symmetry_Int_Tables_number 2
loop_
_symmetry_equiv_pos_site_id
_symmetry_equiv_pos_as_xyz
1 x,y,z
2 -x,-y,-z
_cell_length_a 8.622(1)
_cell_length_b 8.764(1)
_cell_length_c 13.058(1)
_cell_angle_alpha 73.30(1)
_cell_angle_beta 85.87(1)
_cell_angle_gamma 68.91(1)
_cell_formula_units_Z 2
loop_
_atom_type_symbol
_atom_type_radius_bond
C 0.68
H 0.23
Fe 1.34
I 1.40
N 0.68
S 1.02
loop_
_atom_site_label
_atom_site_type_symbol
_atom_site_fract_x
_atom_site_fract_y
_atom_site_fract_z
I1 I 0.36282(2) 0.65019(3) 0.69644(2)
Fe1 Fe 0.22117(5) 0.49234(5) 0.61843(3)
S1 S 0.4831(1) -0.0249(1) 0.81835(7)
S2 S 0.2116(1) 0.7911(1) 0.28564(6)
N1 N 0.3724(4) 0.2664(3) 0.6615(2)
N2 N 0.2024(3) 0.2413(3) 0.8022(2)
N3 N 0.1141(3) 0.4000(3) 0.7399(2)
N4 N 0.0197(3) 0.6709(3) 0.5575(2)
N5 N 0.0237(3) 0.7637(3) 0.4547(2)
N6 N 0.2775(3) 0.5445(3) 0.4727(2)
C1 C 0.3406(4) 0.1785(4) 0.7562(2)
C2 C -0.0314(4) 0.4845(4) 0.7770(2)
C3 C -0.1392(4) 0.6383(4) 0.7136(2)
C4 C -0.1208(4) 0.7270(4) 0.6086(3)
C5 C 0.1662(4) 0.6905(4) 0.4151(2)
C6 C 0.0315(5) 0.9866(5) 0.2530(3)
C7 C 0.0470(6) 1.0921(6) 0.1406(3)
C8 C -0.2586(5) 0.8836(5) 0.5517(3)
C9 C -0.0768(5) 0.4102(5) 0.8878(3)
C10 C 0.3789(5) -0.0967(5) 0.9371(3)
C11 C 0.4905(7) -0.2694(6) 1.0023(4)
H1 H 0.440(5) 0.231(5) 0.638(3)
H2 H 0.402(7) 0.475(8) 0.445(4)
H3 H -0.257(5) 0.693(5) 0.739(3)
H4 H 0.042(7) 1.027(9) 0.326(5)
H5 H -0.050(5) 0.955(5) 0.250(3)
H6 H 0.074(7) 1.032(9) 0.077(6)
H7 H -0.062(6) 1.202(6) 0.133(3)
H8 H 0.161(7) 1.122(7) 0.153(4)
H9 H -0.340(5) 0.909(4) 0.588(3)
H10 H -0.283(9) 0.875(10) 0.485(7)
H11 H -0.238(4) 0.970(5) 0.535(3)
H12 H -0.054(6) 0.282(8) 0.926(4)
H13 H -0.162(6) 0.480(6) 0.899(4)
H14 H 0.014(6) 0.397(5) 0.936(4)
H15 H 0.367(6) -0.013(7) 1.003(4)
H16 H 0.264(5) -0.105(5) 0.911(3)
H17 H 0.523(5) -0.344(6) 0.969(3)
H18 H 0.421(6) -0.311(6) 1.073(4)
H19 H 0.612(8) -0.269(8) 1.014(5)
#END
