
#######################################################################
#
#                 Cambridge Crystallographic Data Centre
#                                CCDC
#
#######################################################################
#
# If this CIF has been generated from an entry in the Cambridge
# Structural Database, then it will include bibliographic, chemical,
# crystal, experimental, refinement or atomic coordinate data resulting
# from the CCDC's data processing and validation procedures.
#
#######################################################################

data_CSD_CIF_LAMWUR
_audit_creation_date 1994-02-15
_audit_creation_method CSD-ConQuest-V1
_database_code_CSD LAMWUR
_chemical_formula_sum 'C13 H15 Mn1 N2 O3 Si1'
_chemical_formula_moiety
;
C13 H15 Mn1 N2 O3 Si1
;
_journal_coden_Cambridge 579
_journal_volume 12
_journal_year 1993
_journal_page_first 1501
_journal_name_full 'Organometallics '
loop_
_publ_author_name
"R.Reau"
"R.W.Reed"
"F.Dahan"
"G.Bertrand"
_chemical_name_systematic
;
(\h^5^-1-(Trimethylsilyl)diazomethyl-2,4-cyclohexadienyl)-tricarbonyl-manganes
e
;
_cell_volume    787.828
_exptl_crystal_density_diffrn 1.392
_diffrn_ambient_temperature ?
_diffrn_special_details
;
The study was carried out at room temperature,in the range 283-303K

;
#These two values have been output from a single CSD field.
_refine_ls_R_factor_gt 0.022
_refine_ls_wR_factor_gt 0.022
_symmetry_cell_setting triclinic
_symmetry_space_group_name_H-M 'P -1'
_symmetry_Int_Tables_number 2
loop_
_symmetry_equiv_pos_site_id
_symmetry_equiv_pos_as_xyz
1 x,y,z
2 -x,-y,-z
_cell_length_a 8.852(1)
_cell_length_b 12.497(2)
_cell_length_c 7.315(1)
_cell_angle_alpha 95.17(1)
_cell_angle_beta 90.47(1)
_cell_angle_gamma 102.06(1)
_cell_formula_units_Z 2
loop_
_atom_type_symbol
_atom_type_radius_bond
C 0.68
H 0.23
Mn 1.35
N 0.68
O 0.68
Si 1.20
loop_
_atom_site_label
_atom_site_type_symbol
_atom_site_fract_x
_atom_site_fract_y
_atom_site_fract_z
Mn1 Mn 0.24271(3) 0.44923(2) 0.15219(4)
C1 C 0.1094(2) 0.5240(2) 0.2604(3)
O1 O 0.0249(2) 0.5714(1) 0.3294(2)
C2 C 0.2722(2) 0.5282(2) -0.0430(3)
O2 O 0.2922(2) 0.5806(1) -0.1648(2)
C3 C 0.4085(2) 0.5410(2) 0.2620(3)
O3 O 0.5124(2) 0.6023(1) 0.3312(2)
C4 C 0.0251(2) 0.2764(1) 0.2586(3)
C5 C 0.1810(2) 0.3230(2) 0.3495(2)
C6 C 0.3154(2) 0.3137(2) 0.2587(3)
C7 C 0.3152(2) 0.3019(2) 0.0647(3)
C8 C 0.1754(2) 0.3022(1) -0.0294(2)
C9 C 0.0439(2) 0.3107(1) 0.0662(2)
C10 C -0.0351(2) 0.1534(2) 0.2687(3)
N1 N 0.0571(2) 0.0913(1) 0.2075(2)
N2 N 0.1403(3) 0.0382(2) 0.1559(3)
Si1 Si -0.23108(7) 0.08970(5) 0.34182(9)
C11 C -0.2419(3) -0.0604(2) 0.3446(4)
C12 C -0.3757(3) 0.1175(2) 0.1757(5)
C13 C -0.2602(3) 0.1553(2) 0.5739(4)
H1 H -0.052(1) 0.312(1) 0.318(2)
H2 H 0.18800 0.36000 0.47300
H3 H 0.41000 0.31500 0.32800
H4 H 0.40700 0.29400 -0.00100
H5 H 0.17200 0.29600 -0.16300
H6 H -0.03700 0.33900 0.00900
H7 H -0.34400 -0.09600 0.38300
H8 H -0.16400 -0.07200 0.43000
H9 H -0.22400 -0.09200 0.22300
H10 H -0.47900 0.08500 0.21200
H11 H -0.35800 0.08600 0.05400
H12 H -0.36600 0.19600 0.17500
H13 H -0.36200 0.12300 0.61500
H14 H -0.25100 0.23400 0.56800
H15 H -0.18200 0.14300 0.65900
#END
