
#######################################################################
#
#                 Cambridge Crystallographic Data Centre
#                                CCDC
#
#######################################################################
#
# If this CIF has been generated from an entry in the Cambridge
# Structural Database, then it will include bibliographic, chemical,
# crystal, experimental, refinement or atomic coordinate data resulting
# from the CCDC's data processing and validation procedures.
#
#######################################################################

data_CSD_CIF_LARZAH
_audit_creation_date 2012-05-09
_audit_creation_method CSD-ConQuest-V1
_database_code_CSD LARZAH
_database_code_depnum_ccdc_archive 'CCDC 724750'
_chemical_formula_sum 'C11 H20 Co1 N2 O9 S1'
_chemical_formula_moiety
;
C11 H16 Co1 N2 O7 S1,2(H2 O1)
;
_journal_coden_Cambridge 155
_journal_volume 384
_journal_year 2012
_journal_page_first 345
_journal_name_full 'Inorg.Chim.Acta '
loop_
_publ_author_name
"Na Wang"
"Qiu-Yue Lin"
"Yi-Hang Wen"
"Li-Chun Kong"
"Shi-Kun Li"
"Fan Zhang"
_chemical_name_systematic
;
Diaqua-(7-oxabicyclo[2.2.1]heptane-2,3-dicarboxylato)-(1,3-thiazol-2-amine)-co
balt(ii) dihydrate
;
_cell_volume    778.694
_exptl_crystal_colour 'red'
_exptl_crystal_density_diffrn 1.771
_exptl_crystal_description 'block'
_diffrn_ambient_temperature 296
#These two values have been output from a single CSD field.
_refine_ls_R_factor_gt 0.0881
_refine_ls_wR_factor_gt 0.0881
_symmetry_cell_setting monoclinic
_symmetry_space_group_name_H-M 'P 21/m'
_symmetry_Int_Tables_number 11
loop_
_symmetry_equiv_pos_site_id
_symmetry_equiv_pos_as_xyz
1 x,y,z
2 -x,1/2+y,-z
3 -x,-y,-z
4 x,-1/2-y,z
_cell_length_a 6.6669(8)
_cell_length_b 9.5997(12)
_cell_length_c 12.2212(13)
_cell_angle_alpha 90
_cell_angle_beta 84.604(7)
_cell_angle_gamma 90
_cell_formula_units_Z 2
loop_
_atom_type_symbol
_atom_type_radius_bond
C 0.68
H 0.23
Co 1.26
N 0.68
O 0.68
S 1.02
loop_
_atom_site_label
_atom_site_type_symbol
_atom_site_fract_x
_atom_site_fract_y
_atom_site_fract_z
Co1 Co 0.4684(3) 0.25000 0.42704(13)
S1 S 0.6323(7) 0.25000 0.7838(3)
N1 N 0.5063(19) 0.25000 0.5947(9)
N2 N 0.855(2) 0.25000 0.5912(12)
H1 H 0.93440 0.17610 0.60150
O1 O 0.7045(11) 0.1045(7) 0.3926(5)
O2 O 0.2507(12) 0.0971(10) 0.4483(6)
H2 H 0.26(2) 0.035(10) 0.496(9)
H3 H 0.157(16) 0.063(13) 0.414(9)
O3 O 0.9814(11) 0.0410(9) 0.2912(5)
O4 O 0.9734(14) 0.1026(10) 0.9231(7)
H4 H 0.856(8) 0.10(2) 0.957(8)
H5 H 0.944(17) 0.11(2) 0.857(3)
O5 O 0.4118(15) 0.25000 0.2598(7)
C1 C 0.343(3) 0.25000 0.6718(14)
H6 H 0.21180 0.25000 0.65180
C2 C 0.381(3) 0.25000 0.7753(13)
H7 H 0.28400 0.25000 0.83510
C3 C 0.674(2) 0.25000 0.6416(11)
C4 C 0.4498(18) 0.1708(12) 0.0807(8)
H8 H 0.54730 0.13380 0.02420
H9 H 0.31750 0.13380 0.07050
C5 C 0.5101(15) 0.1394(9) 0.1958(7)
H10 H 0.46850 0.04640 0.22220
C6 C 0.7332(15) 0.1681(10) 0.2032(7)
H11 H 0.81020 0.13460 0.13610
C7 C 0.8154(15) 0.1004(11) 0.3028(7)
H1C H 0.93440 0.32390 0.60150
O1C O 0.7045(11) 0.3955(7) 0.3926(5)
O2C O 0.2507(12) 0.4029(10) 0.4483(6)
H2C H 0.26(2) 0.465(10) 0.496(9)
H3C H 0.157(16) 0.437(13) 0.414(9)
O3C O 0.9814(11) 0.4590(9) 0.2912(5)
C4C C 0.4498(18) 0.3292(12) 0.0807(8)
H8C H 0.54730 0.36620 0.02420
H9C H 0.31750 0.36620 0.07050
C5C C 0.5101(15) 0.3606(9) 0.1958(7)
H10C H 0.46850 0.45360 0.22220
C6C C 0.7332(15) 0.3319(10) 0.2032(7)
H11C H 0.81020 0.36540 0.13610
C7C C 0.8154(15) 0.3996(11) 0.3028(7)
#END
