
#######################################################################
#
#                 Cambridge Crystallographic Data Centre
#                                CCDC
#
#######################################################################
#
# If this CIF has been generated from an entry in the Cambridge
# Structural Database, then it will include bibliographic, chemical,
# crystal, experimental, refinement or atomic coordinate data resulting
# from the CCDC's data processing and validation procedures.
#
#######################################################################

data_CSD_CIF_LAWXOW
_audit_creation_date 1994-04-11
_audit_creation_method CSD-ConQuest-V1
_database_code_CSD LAWXOW
_chemical_formula_sum 'C14 H13 Cr1 N1 O4'
_chemical_formula_moiety
;
C14 H13 Cr1 N1 O4
;
_journal_coden_Cambridge 579
_journal_volume 12
_journal_year 1993
_journal_page_first 3724
_journal_name_full 'Organometallics '
loop_
_publ_author_name
"E.P.Kundig"
"A.Ripa"
"R.Liu"
"D.Amurrio"
"G.Bernardinelli"
_chemical_name_systematic
;
(4,5-Dihydro-4,4-dimethyl-2-(\h^6^-phenyl)oxazole)-tricarbonyl-chromium
;
_cell_volume    703.166
_exptl_crystal_colour 'yellow'
_exptl_crystal_density_diffrn 1.47
_diffrn_ambient_temperature ?
_diffrn_special_details
;
The study was carried out at room temperature,in the range 283-303K

;
#These two values have been output from a single CSD field.
_refine_ls_R_factor_gt 0.034
_refine_ls_wR_factor_gt 0.034
_symmetry_cell_setting triclinic
_symmetry_space_group_name_H-M 'P -1'
_symmetry_Int_Tables_number 2
loop_
_symmetry_equiv_pos_site_id
_symmetry_equiv_pos_as_xyz
1 x,y,z
2 -x,-y,-z
_cell_length_a 6.5708(12)
_cell_length_b 10.4928(12)
_cell_length_c 10.611(1)
_cell_angle_alpha 102.19(1)
_cell_angle_beta 94.92(1)
_cell_angle_gamma 97.97(1)
_cell_formula_units_Z 2
loop_
_atom_type_symbol
_atom_type_radius_bond
C 0.68
H 0.23
Cr 1.35
N 0.68
O 0.68
loop_
_atom_site_label
_atom_site_type_symbol
_atom_site_fract_x
_atom_site_fract_y
_atom_site_fract_z
Cr1 Cr -0.0342(1) 0.26412(7) 0.20413(6)
O1 O -0.2643(4) 0.0263(2) 0.4250(2)
N1 N -0.3006(5) -0.1113(3) 0.2268(3)
C1 C -0.2929(5) 0.1233(4) 0.2405(4)
C2 C -0.2967(6) 0.2470(4) 0.3192(4)
C3 C -0.3035(7) 0.3565(4) 0.2634(5)
C4 C -0.3031(7) 0.3422(5) 0.1295(5)
C5 C -0.3006(6) 0.2178(5) 0.0488(4)
C6 C -0.2948(6) 0.1083(4) 0.1037(4)
C7 C -0.2860(5) 0.0049(4) 0.2932(4)
C8 C -0.2856(6) -0.1986(4) 0.3198(4)
C9 C -0.2730(6) -0.1031(4) 0.4538(4)
C10 C -0.0882(7) -0.2590(4) 0.3045(4)
C11 C -0.4766(7) -0.3034(4) 0.2913(5)
C12 C 0.1315(6) 0.1353(4) 0.1977(4)
C13 C 0.1357(7) 0.3670(4) 0.3472(4)
C14 C 0.1286(7) 0.3490(4) 0.1045(4)
O2 O 0.2288(5) 0.0531(3) 0.1973(3)
O3 O 0.2435(5) 0.4322(4) 0.4347(3)
O4 O 0.2326(5) 0.4042(4) 0.0444(3)
H1 H -0.29450 0.25880 0.42400
H2 H -0.30940 0.45320 0.32490
H3 H -0.30460 0.42840 0.08740
H4 H -0.30320 0.20680 -0.05600
H5 H -0.29170 0.01140 0.04190
H6 H -0.40940 -0.12680 0.50140
H7 H -0.13440 -0.10780 0.51580
H8 H -0.07720 -0.32410 0.37150
H9 H -0.09670 -0.31590 0.20520
H10 H 0.04900 -0.18340 0.32520
H11 H -0.48430 -0.36020 0.19190
H12 H -0.46480 -0.36840 0.35820
H13 H -0.61710 -0.26010 0.30220
#END
