
#######################################################################
#
#                 Cambridge Crystallographic Data Centre
#                                CCDC
#
#######################################################################
#
# If this CIF has been generated from an entry in the Cambridge
# Structural Database, then it will include bibliographic, chemical,
# crystal, experimental, refinement or atomic coordinate data resulting
# from the CCDC's data processing and validation procedures.
#
#######################################################################

data_CSD_CIF_LAYSEJ
_audit_creation_date 1994-05-24
_audit_creation_method CSD-ConQuest-V1
_database_code_CSD LAYSEJ
_database_code_depnum_ccdc_archive 'CCDC 110764'
_database_code_depnum_ccdc_fiz 'CSD 400151'
_chemical_formula_sum 'C12 H15 Cr1 N1 O3'
_chemical_formula_moiety
;
C12 H15 Cr1 N1 O3
;
_journal_coden_Cambridge 36
_journal_volume 458
_journal_year 1993
_journal_page_first 125
_journal_name_full 'J.Organomet.Chem. '
loop_
_publ_author_name
"N.Kuhn"
"J.Kreutzberg"
"E.-M.Lampe"
"D.Blaser"
"R.Boese"
_chemical_name_systematic
;
(\h^5^-1,2,3,4,5-Pentamethylpyrrole)-tricarbonyl-chromium(0)
;
_chemical_melting_point 438.15
_cell_volume    645.048
_exptl_crystal_colour 'ochre-yellow'
_exptl_crystal_density_diffrn 1.407
_exptl_special_details
;
Melts with decomposition.

;
_diffrn_ambient_temperature ?
_diffrn_special_details
;
The study was carried out at room temperature,in the range 283-303K

;
#These two values have been output from a single CSD field.
_refine_ls_R_factor_gt 0.066
_refine_ls_wR_factor_gt 0.066
_symmetry_cell_setting triclinic
_symmetry_space_group_name_H-M 'P -1'
_symmetry_Int_Tables_number 2
loop_
_symmetry_equiv_pos_site_id
_symmetry_equiv_pos_as_xyz
1 x,y,z
2 -x,-y,-z
_cell_length_a 6.913(1)
_cell_length_b 7.661(2)
_cell_length_c 12.730(4)
_cell_angle_alpha 84.50(2)
_cell_angle_beta 87.02(2)
_cell_angle_gamma 74.06(2)
_cell_formula_units_Z 2
loop_
_atom_type_symbol
_atom_type_radius_bond
C 0.68
H 0.23
Cr 1.35
N 0.68
O 0.68
loop_
_atom_site_label
_atom_site_type_symbol
_atom_site_fract_x
_atom_site_fract_y
_atom_site_fract_z
Cr1 Cr 0.00829(16) 0.31950(15) 0.25552(9)
O1 O -0.3751(10) 0.60133(97) 0.21439(73)
O2 O -0.1832(11) 0.1574(12) 0.44056(50)
O3 O -0.12611(93) 0.07604(87) 0.12470(49)
N1 N 0.33024(90) 0.21046(88) 0.27848(55)
C1 C -0.2259(12) 0.4901(11) 0.23199(73)
C2 C -0.1077(12) 0.2206(12) 0.36850(64)
C3 C -0.0733(11) 0.17431(99) 0.17566(58)
C4 C 0.2615(10) 0.3552(10) 0.34351(55)
C5 C 0.1873(10) 0.51304(92) 0.27830(54)
C6 C 0.21230(99) 0.4672(10) 0.17353(53)
C7 C 0.3015(10) 0.2806(12) 0.17271(59)
C8 C 0.4465(13) 0.0230(11) 0.31692(88)
H1 H 0.4393(13) -0.0481(11) 0.25985(88)
H2 H 0.3810(13) -0.0187(11) 0.37879(88)
H3 H 0.5849(13) 0.0100(11) 0.33129(88)
C9 C 0.2867(14) 0.3351(16) 0.45984(65)
H4 H 0.2094(14) 0.4417(16) 0.49194(65)
H5 H 0.4274(14) 0.3201(16) 0.46931(65)
H6 H 0.2498(14) 0.2300(16) 0.49231(65)
C10 C 0.1120(14) 0.7016(12) 0.31044(83)
H7 H 0.0807(14) 0.7044(12) 0.38472(83)
H8 H -0.0103(14) 0.7421(12) 0.27186(83)
H9 H 0.1964(14) 0.7805(12) 0.28988(83)
C11 C 0.1765(14) 0.6018(16) 0.08036(72)
H10 H 0.1902(14) 0.5307(16) 0.02093(72)
H11 H 0.2657(14) 0.6788(16) 0.07058(72)
H12 H 0.0403(14) 0.6758(16) 0.08635(72)
C12 C 0.3731(14) 0.1736(15) 0.08044(75)
H13 H 0.3075(14) 0.2314(15) 0.01657(75)
H14 H 0.3463(14) 0.0573(15) 0.09655(75)
H15 H 0.5156(14) 0.1568(15) 0.07131(75)
#END
