
#######################################################################
#
#                 Cambridge Crystallographic Data Centre
#                                CCDC
#
#######################################################################
#
# If this CIF has been generated from an entry in the Cambridge
# Structural Database, then it will include bibliographic, chemical,
# crystal, experimental, refinement or atomic coordinate data resulting
# from the CCDC's data processing and validation procedures.
#
#######################################################################

data_CSD_CIF_LDHPCR10
_audit_creation_date 1978-01-26
_audit_creation_method CSD-ConQuest-V1
_database_code_CSD LDHPCR10
_chemical_formula_sum 'C11 H19 Cr1 N4 O5 S1'
_chemical_formula_moiety
;
C11 H17 Cr1 N4 O4 S1,H2 O1
;
_journal_coden_Cambridge 186
_journal_year 1977
_journal_page_first 1604
_journal_name_full 'J.Chem.Soc.,Dalton Trans. '
loop_
_publ_author_name
"P.de Meester"
"D.J.Hodgson"
_chemical_name_systematic
;
L-Histidinato-D-penicillaminato-chromium(iii) monohydrate
;
_cell_volume    780.606
_exptl_crystal_density_diffrn 1.58
_exptl_special_details
;
Possible error in the coordinate of C11

;
_diffrn_ambient_temperature ?
_diffrn_special_details
;
The study was carried out at room temperature,in the range 283-303K

;
#These two values have been output from a single CSD field.
_refine_ls_R_factor_gt 0.035
_refine_ls_wR_factor_gt 0.035
_symmetry_cell_setting monoclinic
_symmetry_space_group_name_H-M 'P 21'
_symmetry_Int_Tables_number 4
loop_
_symmetry_equiv_pos_site_id
_symmetry_equiv_pos_as_xyz
1 x,y,z
2 -x,1/2+y,-z
_cell_length_a 7.235(4)
_cell_length_b 12.150(8)
_cell_length_c 8.929(6)
_cell_angle_alpha 90
_cell_angle_beta 96.00(3)
_cell_angle_gamma 90
_cell_formula_units_Z 2
loop_
_atom_type_symbol
_atom_type_radius_bond
C 0.68
H 0.23
Cr 1.35
N 0.68
O 0.68
S 1.02
loop_
_atom_site_label
_atom_site_type_symbol
_atom_site_fract_x
_atom_site_fract_y
_atom_site_fract_z
Cr1 Cr 0.14110 0.25000 0.19920
S1 S 0.07330 0.36080 -0.01270
N1 N 0.42280 0.28140 0.22420
C1 C 0.48440 0.26480 0.38640
C2 C 0.45340 0.37020 0.47500
C3 C 0.37500 0.17120 0.44790
C4 C 0.25830 0.41110 0.46070
C5 C 0.18210 0.48530 0.54830
C6 C -0.03210 0.42980 0.37300
N2 N 0.12400 0.37510 0.35230
N3 N -0.00100 0.49550 0.49110
O1 O 0.22470 0.14320 0.36490
O2 O 0.42830 0.12760 0.56780
O3 O -0.12260 0.20580 0.20660
O4 O -0.35870 0.12540 0.07200
N4 N 0.11940 0.12480 0.03720
C7 C -0.19500 0.15940 0.08790
C8 C -0.07230 0.15060 -0.03880
C9 C -0.06620 0.25850 -0.12770
C10 C 0.01970 0.23800 -0.27510
C11 C -0.26280 0.30520 -0.16310
O5 O 0.43590 0.01420 -0.15720
H1 H 0.45600 0.34400 0.19100
H2 H 0.48900 0.24300 0.17000
H3 H 0.61500 0.24700 0.40800
H4 H 0.53000 0.42500 0.46100
H5 H 0.47500 0.36100 0.58600
H6 H 0.22900 0.53300 0.62500
H7 H -0.03800 0.54300 0.50800
H8 H -0.14600 0.42200 0.31800
H9 H 0.13400 0.04900 0.07000
H10 H 0.21500 0.13300 -0.03100
H11 H -0.11100 0.09600 -0.11400
H12 H 0.05300 0.30900 -0.32200
H13 H 0.13200 0.22100 -0.23900
H14 H -0.03400 0.19000 -0.35000
H15 H -0.25600 0.36400 -0.22100
H16 H -0.33400 0.24500 -0.25500
H17 H -0.30900 0.35400 -0.06000
H18 H 0.52300 0.05500 -0.08600
H19 H 0.45800 0.05000 -0.23300
#END
