
#######################################################################
#
#                 Cambridge Crystallographic Data Centre
#                                CCDC
#
#######################################################################
#
# If this CIF has been generated from an entry in the Cambridge
# Structural Database, then it will include bibliographic, chemical,
# crystal, experimental, refinement or atomic coordinate data resulting
# from the CCDC's data processing and validation procedures.
#
#######################################################################

data_CSD_CIF_LEFYAX
_audit_creation_date 2006-07-10
_audit_creation_method CSD-ConQuest-V1
_database_code_CSD LEFYAX
_database_code_depnum_ccdc_archive 'CCDC 284917'
_chemical_formula_sum 'C14 H32 B2 Mn1 O18'
_chemical_formula_moiety
;
H12 Mn1 O6 2+,2(C7 H6 B1 O4 1-),4(H2 O1)
;
_journal_coden_Cambridge 9
_journal_volume 45
_journal_year 2006
_journal_page_first 2400
_journal_name_full 'Inorg.Chem. '
loop_
_publ_author_name
"N.SeethaLekshmi"
"V.R.Pedireddi"
_chemical_name_systematic
;
hexa-aqua-manganese(ii) bis(4-carboxylatophenylboronic acid) tetrahydrate
;
_cell_volume    611.304
_exptl_crystal_colour 'yellow'
_exptl_crystal_density_diffrn 1.535
_exptl_special_details
;
Isostructural and isomorphous with Co and Ni analogues

;
_exptl_crystal_description 'Blocks'
_diffrn_ambient_temperature 133
#These two values have been output from a single CSD field.
_refine_ls_R_factor_gt 0.034
_refine_ls_wR_factor_gt 0.034
_symmetry_cell_setting triclinic
_symmetry_space_group_name_H-M 'P -1'
_symmetry_Int_Tables_number 2
loop_
_symmetry_equiv_pos_site_id
_symmetry_equiv_pos_as_xyz
1 x,y,z
2 -x,-y,-z
_cell_length_a 6.862(2)
_cell_length_b 9.705(3)
_cell_length_c 9.806(3)
_cell_angle_alpha 98.33(5)
_cell_angle_beta 92.21(5)
_cell_angle_gamma 108.22(5)
_cell_formula_units_Z 1
loop_
_atom_type_symbol
_atom_type_radius_bond
C 0.68
H 0.23
B 0.83
Mn 1.35
O 0.68
loop_
_atom_site_label
_atom_site_type_symbol
_atom_site_fract_x
_atom_site_fract_y
_atom_site_fract_z
Mn1 Mn 0.00000 0.00000 0.00000
O1 O 0.1419(2) 0.12008(15) 0.20487(13)
O2 O 0.29698(19) 0.05369(14) -0.08753(14)
O3 O 0.0422(2) -0.19113(13) 0.06159(12)
H1 H 0.140(4) -0.214(2) 0.051(2)
H2 H -0.055(3) -0.274(2) 0.047(2)
H3 H 0.249(4) 0.037(3) -0.433(3)
H4 H 0.354(4) 0.155(3) -0.368(2)
H5 H 0.044(4) 0.894(3) -0.629(3)
H6 H 0.211(4) 0.862(3) -0.638(3)
O4 O 0.2667(2) 0.09267(17) -0.36164(14)
O5 O 0.1544(3) 0.92053(14) -0.61396(13)
C1 C 0.2782(2) 0.56464(16) -0.47171(14)
C2 C 0.2331(2) 0.43560(17) -0.41574(16)
C3 C 0.2405(2) 0.43758(17) -0.27425(15)
C4 C 0.2925(2) 0.57004(16) -0.18358(14)
C5 C 0.3354(2) 0.70008(17) -0.23685(16)
C6 C 0.3287(3) 0.69685(17) -0.37888(16)
C7 C 0.3013(2) 0.57109(16) -0.02946(14)
B1 B 0.2776(2) 0.56071(18) -0.63215(17)
O6 O 0.22578(17) 0.43021(12) -0.71758(12)
O7 O 0.33338(17) 0.69159(12) -0.68044(12)
O8 O 0.24716(17) 0.45055(11) 0.01491(10)
O9 O 0.36183(16) 0.69520(11) 0.05076(10)
H7 H 0.230(4) 0.438(2) -0.799(3)
H8 H 0.336(3) 0.686(2) -0.761(3)
H9 H 0.192(3) 0.341(2) -0.476(2)
H10 H 0.216(3) 0.3506(19) -0.2402(18)
H11 H 0.374(3) 0.794(2) -0.1773(19)
H12 H 0.363(3) 0.786(2) -0.416(2)
H13 H 0.183(3) 0.079(3) 0.264(3)
H14 H 0.176(4) 0.207(3) 0.240(3)
H15 H 0.399(5) 0.128(3) -0.063(3)
H16 H 0.282(3) 0.057(2) -0.173(3)
O1A O -0.1419(2) -0.12008(15) -0.20487(13)
O2A O -0.29698(19) -0.05369(14) 0.08753(14)
O3A O -0.0422(2) 0.19113(13) -0.06159(12)
H1A H -0.140(4) 0.214(2) -0.051(2)
H2A H 0.055(3) 0.274(2) -0.047(2)
H13A H -0.183(3) -0.079(3) -0.264(3)
H14A H -0.176(4) -0.207(3) -0.240(3)
H15A H -0.399(5) -0.128(3) 0.063(3)
H16A H -0.282(3) -0.057(2) 0.173(3)
#END
