
#######################################################################
#
#                 Cambridge Crystallographic Data Centre
#                                CCDC
#
#######################################################################
#
# If this CIF has been generated from an entry in the Cambridge
# Structural Database, then it will include bibliographic, chemical,
# crystal, experimental, refinement or atomic coordinate data resulting
# from the CCDC's data processing and validation procedures.
#
#######################################################################

data_CSD_CIF_LEHLER
_audit_creation_date 2012-09-04
_audit_creation_method CSD-ConQuest-V1
_database_code_CSD LEHLER
_database_code_depnum_ccdc_archive 'CCDC 896543'
_chemical_formula_sum 'C28 H26 Co1 N4 O10'
_chemical_formula_moiety
;
C28 H26 Co1 N4 O10
;
_journal_coeditor_code "IUCr XU5597"
_journal_coden_Cambridge 1370
_journal_volume 68
_journal_year 2012
_journal_page_first m1091
_journal_name_full 'Acta Crystallogr.,Sect.E:Struct.Rep.Online '
loop_
_publ_author_name
"M.Sertcelik"
"N.Caylak Delibas"
"H.Necefoglu"
"T.Hokelek"
_chemical_name_systematic
;
Diaqua-bis(4-formylbenzoato-O)-bis(nicotinamide-N)-cobalt(ii)
;
_cell_volume    699.481
_exptl_crystal_colour 'orange'
_exptl_crystal_density_diffrn 1.513
_exptl_crystal_description 'block'
_diffrn_ambient_temperature 100
#These two values have been output from a single CSD field.
_refine_ls_R_factor_gt 0.0257
_refine_ls_wR_factor_gt 0.0257
_symmetry_cell_setting triclinic
_symmetry_space_group_name_H-M 'P -1'
_symmetry_Int_Tables_number 2
loop_
_symmetry_equiv_pos_site_id
_symmetry_equiv_pos_as_xyz
1 x,y,z
2 -x,-y,-z
_cell_length_a 7.7784(2)
_cell_length_b 9.7988(3)
_cell_length_c 9.8970(3)
_cell_angle_alpha 78.080(3)
_cell_angle_beta 71.395(2)
_cell_angle_gamma 86.638(4)
_cell_formula_units_Z 1
loop_
_atom_type_symbol
_atom_type_radius_bond
C 0.68
H 0.23
Co 1.26
N 0.68
O 0.68
loop_
_atom_site_label
_atom_site_type_symbol
_atom_site_fract_x
_atom_site_fract_y
_atom_site_fract_z
Co1 Co 0.00000 0.00000 0.00000
O1 O 0.12202(11) 0.18006(9) 0.01007(10)
O2 O -0.11185(12) 0.27803(9) 0.15705(10)
O3 O 0.49561(15) 0.66922(13) 0.31971(16)
O4 O -0.43334(12) 0.00199(10) -0.33497(10)
O5 O 0.26433(12) -0.08141(10) -0.07947(10)
H1 H 0.345(3) -0.041(2) -0.147(2)
H2 H 0.236(3) -0.151(2) -0.110(2)
N1 N -0.00257(14) 0.09276(10) -0.21360(11)
N2 N -0.32789(16) 0.13287(12) -0.56018(12)
H3 H -0.244(3) 0.1859(19) -0.628(2)
H4 H -0.413(3) 0.1007(19) -0.584(2)
C1 C 0.05487(16) 0.26423(12) 0.09348(13)
C2 C 0.18468(16) 0.35171(12) 0.12577(13)
C3 C 0.12393(17) 0.47283(13) 0.18014(14)
H5 H 0.00670 0.50420 0.18770
C4 C 0.23769(17) 0.54602(13) 0.22256(15)
H6 H 0.19760 0.62700 0.25790
C5 C 0.41275(17) 0.49803(13) 0.21208(14)
C6 C 0.47496(17) 0.37952(13) 0.15538(14)
H7 H 0.59270 0.34890 0.14690
C7 C 0.36129(16) 0.30652(12) 0.11124(14)
H8 H 0.40330 0.22780 0.07210
C8 C 0.53655(19) 0.57111(16) 0.26075(18)
H9 H 0.658(2) 0.5327(18) 0.2431(19)
C9 C -0.14389(16) 0.06886(12) -0.25570(13)
H10 H -0.23890 0.01330 -0.18910
C10 C -0.15532(16) 0.12280(12) -0.39347(13)
C11 C -0.01388(18) 0.20716(14) -0.49194(14)
H11 H -0.01720 0.24540 -0.58520
C12 C 0.13220(18) 0.23343(14) -0.44905(14)
H12 H 0.22790 0.29000 -0.51300
C13 C 0.13331(16) 0.17428(13) -0.30981(14)
H13 H 0.23190 0.19160 -0.28170
C14 C -0.31771(16) 0.08278(12) -0.42778(13)
O1A O -0.12202(11) -0.18006(9) -0.01007(10)
O2A O 0.11185(12) -0.27803(9) -0.15705(10)
O3A O -0.49561(15) -0.66922(13) -0.31971(16)
O4A O 0.43334(12) -0.00199(10) 0.33497(10)
O5A O -0.26433(12) 0.08141(10) 0.07947(10)
H1A H -0.345(3) 0.041(2) 0.147(2)
H2A H -0.236(3) 0.151(2) 0.110(2)
N1A N 0.00257(14) -0.09276(10) 0.21360(11)
N2A N 0.32789(16) -0.13287(12) 0.56018(12)
H3A H 0.244(3) -0.1859(19) 0.628(2)
H4A H 0.413(3) -0.1007(19) 0.584(2)
C1A C -0.05487(16) -0.26423(12) -0.09348(13)
C2A C -0.18468(16) -0.35171(12) -0.12577(13)
C3A C -0.12393(17) -0.47283(13) -0.18014(14)
H5A H -0.00670 -0.50420 -0.18770
C4A C -0.23769(17) -0.54602(13) -0.22256(15)
H6A H -0.19760 -0.62700 -0.25790
C5A C -0.41275(17) -0.49803(13) -0.21208(14)
C6A C -0.47496(17) -0.37952(13) -0.15538(14)
H7A H -0.59270 -0.34890 -0.14690
C7A C -0.36129(16) -0.30652(12) -0.11124(14)
H8A H -0.40330 -0.22780 -0.07210
C8A C -0.53655(19) -0.57111(16) -0.26075(18)
H9A H -0.658(2) -0.5327(18) -0.2431(19)
C9A C 0.14389(16) -0.06886(12) 0.25570(13)
H10A H 0.23890 -0.01330 0.18910
C10A C 0.15532(16) -0.12280(12) 0.39347(13)
C11A C 0.01388(18) -0.20716(14) 0.49194(14)
H11A H 0.01720 -0.24540 0.58520
C12A C -0.13220(18) -0.23343(14) 0.44905(14)
H12A H -0.22790 -0.29000 0.51300
C13A C -0.13331(16) -0.17428(13) 0.30981(14)
H13A H -0.23190 -0.19160 0.28170
C14A C 0.31771(16) -0.08278(12) 0.42778(13)
#END
