
#######################################################################
#
#                 Cambridge Crystallographic Data Centre
#                                CCDC
#
#######################################################################
#
# If this CIF has been generated from an entry in the Cambridge
# Structural Database, then it will include bibliographic, chemical,
# crystal, experimental, refinement or atomic coordinate data resulting
# from the CCDC's data processing and validation procedures.
#
#######################################################################

data_CSD_CIF_LEHTEY
_audit_creation_date 2006-07-10
_audit_creation_method CSD-ConQuest-V1
_database_code_CSD LEHTEY
_database_code_depnum_ccdc_archive 'CCDC 605192'
_chemical_formula_sum 'C14 H15 Fe1 N1 O2'
_chemical_formula_moiety
;
C14 H15 Fe1 N1 O2
;
_journal_coeditor_code "IUCr SJ6194"
_journal_coden_Cambridge 1370
_journal_volume 62
_journal_year 2006
_journal_page_first m719
_journal_name_full 'Acta Crystallogr.,Sect.E:Struct.Rep.Online '
loop_
_publ_author_name
"M.H.Todd"
"M.Motevalli"
"S.El-Fayyoumy"
"C.Richards"
_chemical_name_systematic
;
(R)-2-Ferrocenyl-4-hydroxymethyl-4,5-dihydro-1,3-oxazole
;
_chemical_melting_point 390
_cell_volume    601.486
_exptl_crystal_colour 'orange'
_exptl_crystal_density_diffrn 1.574
_exptl_special_details
;
Melting point range 390-392K

;
_exptl_crystal_description 'prism'
_exptl_crystal_preparation 'dichloromethane/hexane'
_diffrn_ambient_temperature 160
#These two values have been output from a single CSD field.
_refine_ls_R_factor_gt 0.0353
_refine_ls_wR_factor_gt 0.0353
_symmetry_cell_setting monoclinic
_symmetry_space_group_name_H-M 'P 21'
_symmetry_Int_Tables_number 4
loop_
_symmetry_equiv_pos_site_id
_symmetry_equiv_pos_as_xyz
1 x,y,z
2 -x,1/2+y,-z
_cell_length_a 5.808(4)
_cell_length_b 7.557(3)
_cell_length_c 13.716(8)
_cell_angle_alpha 90
_cell_angle_beta 92.39(6)
_cell_angle_gamma 90
_cell_formula_units_Z 2
loop_
_atom_type_symbol
_atom_type_radius_bond
C 0.68
H 0.23
Fe 1.34
N 0.68
O 0.68
loop_
_atom_site_label
_atom_site_type_symbol
_atom_site_fract_x
_atom_site_fract_y
_atom_site_fract_z
C1 C 0.6839(10) 0.063(1) 0.6919(4)
C2 C 0.8278(11) -0.0481(10) 0.7527(5)
H1 H 0.98150 -0.08230 0.74090
C3 C 0.7001(17) -0.0974(13) 0.8332(7)
H2 H 0.75360 -0.17080 0.88570
C4 C 0.4774(12) -0.0190(11) 0.8232(5)
H3 H 0.35660 -0.03030 0.86740
C5 C 0.4693(10) 0.0788(9) 0.7353(4)
H4 H 0.34070 0.14410 0.70970
C6 C 0.7433(9) 0.1413(10) 0.5996(4)
C7 C 0.9844(10) 0.2045(11) 0.4816(4)
H5 H 1.04780 0.12240 0.43330
H6 H 1.08580 0.30950 0.48790
C8 C 0.7372(10) 0.2586(10) 0.4514(4)
H7 H 0.73140 0.38800 0.43620
C9 C 0.6402(11) 0.1529(12) 0.3645(4)
H8 H 0.47040 0.16590 0.36050
H9 H 0.70120 0.20200 0.30390
C10 C 1.0133(12) 0.3030(13) 0.8785(7)
H10 H 1.16790 0.26620 0.87080
C11 C 0.8812(19) 0.4114(13) 0.8152(6)
H11 H 0.93220 0.46230 0.75660
C12 C 0.664(2) 0.4326(15) 0.8517(9)
H12 H 0.53960 0.49820 0.82270
C13 C 0.6638(14) 0.3415(15) 0.9372(7)
H13 H 0.53670 0.33570 0.97850
C14 C 0.8715(16) 0.2591(12) 0.9560(6)
H14 H 0.91200 0.18660 1.01060
Fe1 Fe 0.72777(14) 0.1715(2) 0.82749(6)
N1 N 0.6050(8) 0.2214(7) 0.5395(3)
O1 O 0.9634(7) 0.1180(6) 0.5750(3)
O2 O 0.6970(8) -0.0304(7) 0.3711(4)
H15 H 0.610(11) -0.094(11) 0.408(5)
#END
