
#######################################################################
#
#                 Cambridge Crystallographic Data Centre
#                                CCDC
#
#######################################################################
#
# If this CIF has been generated from an entry in the Cambridge
# Structural Database, then it will include bibliographic, chemical,
# crystal, experimental, refinement or atomic coordinate data resulting
# from the CCDC's data processing and validation procedures.
#
#######################################################################

data_CSD_CIF_LEKJUH
_audit_creation_date 2006-11-23
_audit_creation_method CSD-ConQuest-V1
_database_code_CSD LEKJUH
_database_code_depnum_ccdc_archive 'CCDC 290117'
_chemical_formula_sum 'C11 H7 Fe1 N1 O4'
_chemical_formula_moiety
;
C11 H7 Fe1 N1 O4
;
_journal_coden_Cambridge 36
_journal_volume 691
_journal_year 2006
_journal_page_first 3232
_journal_name_full 'J.Organomet.Chem. '
loop_
_publ_author_name
"M.Palusiak"
"B.Rudolf"
"J.Zakrzewski"
"A.Pfitzner"
"M.Zabel"
"S.J.Grabowski"
_chemical_name_systematic
;
(\h^5^-Cyclopentadienyl)-dicarbonyl-(N-maleimidato)-iron
;
_cell_volume    531.312
_exptl_crystal_colour 'orange'
_exptl_crystal_density_diffrn 1.707
_exptl_crystal_description 'block'
_diffrn_ambient_temperature 173
#These two values have been output from a single CSD field.
_refine_ls_R_factor_gt 0.0425
_refine_ls_wR_factor_gt 0.0425
_symmetry_cell_setting triclinic
_symmetry_space_group_name_H-M 'P -1'
_symmetry_Int_Tables_number 2
loop_
_symmetry_equiv_pos_site_id
_symmetry_equiv_pos_as_xyz
1 x,y,z
2 -x,-y,-z
_cell_length_a 6.3896(11)
_cell_length_b 7.4671(16)
_cell_length_c 11.885(2)
_cell_angle_alpha 83.00(2)
_cell_angle_beta 88.10(2)
_cell_angle_gamma 70.74(2)
_cell_formula_units_Z 2
loop_
_atom_type_symbol
_atom_type_radius_bond
C 0.68
H 0.23
Fe 1.34
N 0.68
O 0.68
loop_
_atom_site_label
_atom_site_type_symbol
_atom_site_fract_x
_atom_site_fract_y
_atom_site_fract_z
C1 C 0.6665(7) 0.4795(7) 0.2389(4)
H1 H 0.62700 0.59180 0.18620
C2 C 0.6559(7) 0.4734(7) 0.3584(4)
H2 H 0.61230 0.58570 0.40260
C3 C 0.7274(7) 0.2783(7) 0.4039(4)
H3 H 0.73850 0.23120 0.48210
C4 C 0.7798(7) 0.1647(7) 0.3122(4)
H4 H 0.82880 0.02920 0.31760
C5 C 0.7443(7) 0.2934(8) 0.2119(4)
H5 H 0.76990 0.25800 0.13730
C6 C 0.3191(8) 0.2250(7) 0.4143(4)
C7 C 0.2080(8) 0.5498(7) 0.2853(4)
C8 C 0.3326(8) 0.0352(7) 0.1965(4)
C9 C 0.2467(8) 0.0075(8) 0.0852(5)
H6 H 0.22630 -0.10640 0.06750
C10 C 0.2049(8) 0.1681(9) 0.0170(4)
H7 H 0.14860 0.19000 -0.05820
C11 C 0.2620(7) 0.3124(8) 0.0791(4)
Fe1 Fe 0.44462(12) 0.33774(11) 0.30385(6)
N1 N 0.3356(6) 0.2241(5) 0.1866(3)
O1 O 0.2379(6) 0.1627(5) 0.4900(3)
O2 O 0.0548(6) 0.6860(5) 0.2768(3)
O3 O 0.3856(6) -0.0823(5) 0.2802(3)
O4 O 0.2468(6) 0.4764(6) 0.0438(3)
#END
