
#######################################################################
#
#                 Cambridge Crystallographic Data Centre
#                                CCDC
#
#######################################################################
#
# If this CIF has been generated from an entry in the Cambridge
# Structural Database, then it will include bibliographic, chemical,
# crystal, experimental, refinement or atomic coordinate data resulting
# from the CCDC's data processing and validation procedures.
#
#######################################################################

data_CSD_CIF_LELBEJ
_audit_creation_date 1994-08-07
_audit_creation_method CSD-ConQuest-V1
_database_code_CSD LELBEJ
_chemical_formula_sum 'C15 H21 Cr1 O1'
_chemical_formula_moiety
;
C15 H21 Cr1 O1
;
_journal_coden_Cambridge 580
_journal_volume 12
_journal_year 1993
_journal_page_first 2651
_journal_name_full 'Polyhedron '
loop_
_publ_author_name
"P.Betz"
"A.Dohring"
"R.Emrich"
"R.Goddard"
"P.W.Jolly"
"C.Kruger"
"C.C.Romao"
"K.U.Schonfelder"
"Y.-H.Tsay"
_chemical_name_systematic
;
(\h^2^,\h^2^-1,3-Butadiene)-carbonyl-(\h^5^-pentamethyl-cyclopentadienyl)-chro
mium
;
_cell_volume    704.342
_exptl_crystal_colour 'dark red'
_exptl_crystal_density_diffrn 1.27
_diffrn_ambient_temperature ?
_diffrn_special_details
;
The study was carried out at room temperature,in the range 283-303K

;
#These two values have been output from a single CSD field.
_refine_ls_R_factor_gt 0.045
_refine_ls_wR_factor_gt 0.045
_symmetry_cell_setting monoclinic
_symmetry_space_group_name_H-M 'P 21/m'
_symmetry_Int_Tables_number 11
loop_
_symmetry_equiv_pos_site_id
_symmetry_equiv_pos_as_xyz
1 x,y,z
2 -x,1/2+y,-z
3 -x,-y,-z
4 x,-1/2-y,z
_cell_length_a 7.097(1)
_cell_length_b 11.664(1)
_cell_length_c 8.567(1)
_cell_angle_alpha 90
_cell_angle_beta 96.69(1)
_cell_angle_gamma 90
_cell_formula_units_Z 2
loop_
_atom_type_symbol
_atom_type_radius_bond
C 0.68
H 0.23
Cr 1.35
O 0.68
loop_
_atom_site_label
_atom_site_type_symbol
_atom_site_fract_x
_atom_site_fract_y
_atom_site_fract_z
Cr1 Cr 0.0323(1) 0.25000 0.2354(1)
O1 O -0.2215(5) 0.25000 -0.0681(4)
C1 C -0.1730(4) 0.1295(2) 0.3129(4)
C2 C -0.0743(4) 0.1890(2) 0.4377(3)
C3 C 0.2522(3) 0.1883(2) 0.1004(2)
C4 C 0.2972(3) 0.1511(2) 0.2568(2)
C5 C 0.3274(4) 0.25000 0.3539(3)
C6 C 0.2344(5) 0.1142(3) -0.0446(3)
C7 C 0.3170(4) 0.0285(2) 0.3089(3)
C8 C 0.3954(5) 0.25000 0.5252(4)
C9 C -0.1255(6) 0.25000 0.0497(5)
H1 H -0.15090 0.04950 0.30220
H2 H -0.30470 0.14460 0.28580
H3 H -0.06400 0.15050 0.53620
H4 H 0.18000 0.04220 -0.02090
H5 H 0.15510 0.15060 -0.12620
H6 H 0.35630 0.10150 -0.07630
H7 H 0.23680 -0.01860 0.23860
H8 H 0.44500 0.00450 0.30830
H9 H 0.28170 0.02120 0.41170
H10 H 0.52810 0.25000 0.54070
H11 H 0.34690 0.18350 0.57200
C1C C -0.1730(4) 0.3705(2) 0.3129(4)
C2C C -0.0743(4) 0.3110(2) 0.4377(3)
C3C C 0.2522(3) 0.3117(2) 0.1004(2)
C4C C 0.2972(3) 0.3489(2) 0.2568(2)
H11C H 0.34690 0.31650 0.57200
H1C H -0.15090 0.45050 0.30220
H2C H -0.30470 0.35540 0.28580
H3C H -0.06400 0.34950 0.53620
C6C C 0.2344(5) 0.3858(3) -0.0446(3)
C7C C 0.3170(4) 0.4715(2) 0.3089(3)
H4C H 0.18000 0.45780 -0.02090
H5C H 0.15510 0.34940 -0.12620
H6C H 0.35630 0.39850 -0.07630
H7C H 0.23680 0.51860 0.23860
H8C H 0.44500 0.49550 0.30830
H9C H 0.28170 0.47880 0.41170
#END
