
#######################################################################
#
#                 Cambridge Crystallographic Data Centre
#                                CCDC
#
#######################################################################
#
# If this CIF has been generated from an entry in the Cambridge
# Structural Database, then it will include bibliographic, chemical,
# crystal, experimental, refinement or atomic coordinate data resulting
# from the CCDC's data processing and validation procedures.
#
#######################################################################

data_CSD_CIF_LELCEK
_audit_creation_date 1994-08-07
_audit_creation_method CSD-ConQuest-V1
_database_code_CSD LELCEK
_chemical_formula_sum 'C20 H31 Cr1'
_chemical_formula_moiety
;
C20 H31 Cr1
;
_journal_coden_Cambridge 580
_journal_volume 12
_journal_year 1993
_journal_page_first 2671
_journal_name_full 'Polyhedron '
loop_
_publ_author_name
"A.Dohring"
"R.Emrich"
"R.Goddard"
"P.W.Jolly"
"C.Kruger"
_chemical_name_systematic
;
(1,2,3,6,7,8-\h-(4-Methyl)nona-2,6-dienyl)-(\h^5^-pentamethyl-cyclopentadienyl
)-chromium
;
_cell_volume    893.468
_exptl_crystal_colour 'red'
_exptl_crystal_density_diffrn 1.2
_diffrn_ambient_temperature ?
_diffrn_special_details
;
The study was carried out at room temperature,in the range 283-303K

;
#These two values have been output from a single CSD field.
_refine_ls_R_factor_gt 0.048
_refine_ls_wR_factor_gt 0.048
_symmetry_cell_setting triclinic
_symmetry_space_group_name_H-M 'P -1'
_symmetry_Int_Tables_number 2
loop_
_symmetry_equiv_pos_site_id
_symmetry_equiv_pos_as_xyz
1 x,y,z
2 -x,-y,-z
_cell_length_a 8.270(1)
_cell_length_b 8.648(1)
_cell_length_c 14.284(1)
_cell_angle_alpha 75.96(1)
_cell_angle_beta 89.54(1)
_cell_angle_gamma 65.06(1)
_cell_formula_units_Z 2
loop_
_atom_type_symbol
_atom_type_radius_bond
C 0.68
H 0.23
Cr 1.35
loop_
_atom_site_label
_atom_site_type_symbol
_atom_site_fract_x
_atom_site_fract_y
_atom_site_fract_z
Cr1 Cr 0.0731(1) 0.4975(1) 0.2455(1)
C1 C 0.3167(3) 0.5465(3) 0.2105(2)
C2 C 0.3434(3) 0.3873(3) 0.1890(2)
C3 C 0.3459(3) 0.2657(3) 0.2757(2)
C4 C 0.3243(3) 0.3499(3) 0.3512(1)
C5 C 0.3074(3) 0.5218(3) 0.3112(2)
C6 C -0.0732(4) 0.6666(5) 0.3362(3)
C7 C -0.1608(4) 0.5671(5) 0.3225(2)
C8 C -0.0749(4) 0.3842(5) 0.3448(2)
C9 C -0.1707(5) 0.2924(5) 0.3050(3)
C10 C -0.1781(7) 0.1407(7) 0.3808(5)
C11 C -0.0932(5) 0.2461(5) 0.2140(3)
C12 C -0.0225(4) 0.3730(4) 0.1594(2)
C13 C -0.1263(4) 0.5567(5) 0.1316(2)
C14 C -0.0543(4) 0.6775(4) 0.1035(2)
C15 C -0.1695(7) 0.8718(6) 0.0845(4)
C16 C 0.3214(6) 0.7088(6) 0.1430(3)
C17 C 0.3869(5) 0.3481(7) 0.0924(2)
C18 C 0.3869(5) 0.0756(4) 0.2876(3)
C19 C 0.3400(5) 0.2639(5) 0.4581(2)
C20 C 0.3092(5) 0.6483(6) 0.3671(3)
H1 H -0.127(4) 0.785(4) 0.311(2)
H2 H 0.007(4) 0.625(4) 0.392(2)
H3 H -0.269(4) 0.626(3) 0.289(2)
H4 H 0.004(3) 0.317(3) 0.397(2)
H5 H -0.321(5) 0.401(5) 0.278(3)
H6 H -0.232(5) 0.081(5) 0.350(3)
H7 H -0.052(7) 0.068(6) 0.398(3)
H8 H -0.228(8) 0.162(7) 0.433(4)
H9 H 0.008(4) 0.119(4) 0.239(2)
H10 H -0.168(5) 0.231(4) 0.175(2)
H11 H 0.062(3) 0.334(3) 0.128(2)
H12 H -0.231(4) 0.595(4) 0.144(2)
H13 H 0.035(4) 0.647(4) 0.073(2)
H14 H -0.274(6) 0.896(6) 0.125(3)
H15 H -0.104(5) 0.925(5) 0.096(3)
H16 H -0.236(5) 0.922(5) 0.026(3)
H17 H 0.282(5) 0.714(5) 0.082(3)
H18 H 0.224(6) 0.813(5) 0.154(3)
H19 H 0.435(7) 0.698(6) 0.134(3)
H20 H 0.360(5) 0.246(5) 0.091(3)
H21 H 0.316(4) 0.442(4) 0.040(2)
H22 H 0.514(5) 0.305(4) 0.087(2)
H23 H 0.323(5) 0.042(4) 0.339(3)
H24 H 0.342(4) 0.064(4) 0.235(2)
H25 H 0.507(5) 0.001(5) 0.312(2)
H26 H 0.265(4) 0.348(4) 0.488(2)
H27 H 0.312(4) 0.167(4) 0.465(2)
H28 H 0.450(4) 0.221(4) 0.487(2)
H29 H 0.229(5) 0.768(5) 0.335(3)
H30 H 0.269(5) 0.610(5) 0.430(3)
H31 H 0.422(5) 0.631(4) 0.377(3)
#END
