
#######################################################################
#
#                 Cambridge Crystallographic Data Centre
#                                CCDC
#
#######################################################################
#
# If this CIF has been generated from an entry in the Cambridge
# Structural Database, then it will include bibliographic, chemical,
# crystal, experimental, refinement or atomic coordinate data resulting
# from the CCDC's data processing and validation procedures.
#
#######################################################################

data_CSD_CIF_LEMKIX
_audit_creation_date 1994-09-20
_audit_creation_method CSD-ConQuest-V1
_database_code_CSD LEMKIX
_database_code_depnum_ccdc_archive 'CCDC 1205389'
_chemical_formula_sum 'C14 H18 Co1 N4 O4 S2'
_chemical_formula_moiety
;
C14 H18 Co1 N4 O4 S2
;
_journal_coden_Cambridge 155
_journal_volume 215
_journal_year 1994
_journal_page_first 151
_journal_name_full 'Inorg.Chim.Acta '
loop_
_publ_author_name
"E.Bouwman"
"J.Reedijk"
_chemical_name_systematic
;
bis(4-(5-Methyl-4-imidazolyl)-3-thiabutanoato)-cobalt
;
_cell_volume    428.523
_exptl_crystal_colour 'pink'
_exptl_crystal_density_diffrn 1.65
_exptl_special_details
;
Isostructural with the Cu analogue

;
_diffrn_ambient_temperature ?
_diffrn_special_details
;
The study was carried out at room temperature,in the range 283-303K

;
#These two values have been output from a single CSD field.
_refine_ls_R_factor_gt 0.064
_refine_ls_wR_factor_gt 0.064
_symmetry_cell_setting triclinic
_symmetry_space_group_name_H-M 'P -1'
_symmetry_Int_Tables_number 2
loop_
_symmetry_equiv_pos_site_id
_symmetry_equiv_pos_as_xyz
1 x,y,z
2 -x,-y,-z
_cell_length_a 7.600(1)
_cell_length_b 7.697(1)
_cell_length_c 8.2696(5)
_cell_angle_alpha 86.745(8)
_cell_angle_beta 71.321(7)
_cell_angle_gamma 69.538(12)
_cell_formula_units_Z 1
loop_
_atom_type_symbol
_atom_type_radius_bond
C 0.68
H 0.23
Co 1.33
N 0.68
O 0.68
S 1.02
loop_
_atom_site_label
_atom_site_type_symbol
_atom_site_fract_x
_atom_site_fract_y
_atom_site_fract_z
Co1 Co 0.00000 0.00000 0.00000
O1 O -0.1304(8) -0.1882(9) 0.1190(7)
O2 O -0.3503(11) -0.2484(10) 0.3421(8)
C1 C -0.234(1) -0.166(1) 0.276(1)
C2 C -0.204(1) -0.042(1) 0.396(1)
S1 S -0.1059(3) 0.1336(4) 0.2990(2)
C3 C -0.326(1) 0.319(1) 0.292(1)
N1 N -0.5892(11) 0.2692(12) 0.0082(10)
C4 C -0.400(1) 0.172(1) -0.080(1)
N2 N -0.2858(9) 0.1792(10) 0.0083(8)
C5 C -0.406(1) 0.277(1) 0.161(1)
C6 C -0.600(1) 0.337(1) 0.158(1)
C7 C -0.791(1) 0.454(2) 0.287(1)
H1 H -0.30300 0.00200 0.47600
H2 H -0.10100 -0.12600 0.43300
H3 H -0.39400 0.33500 0.37200
H4 H -0.27400 0.41400 0.24700
H5 H -0.68180 0.27580 -0.03310
H6 H -0.34500 0.09000 -0.19900
H7 H -0.77300 0.45800 0.35600
H8 H -0.83400 0.57500 0.24700
H9 H -0.88800 0.39800 0.30300
O1A O 0.1304(8) 0.1882(9) -0.1190(7)
S1A S 0.1059(3) -0.1336(4) -0.2990(2)
N2A N 0.2858(9) -0.1792(10) -0.0083(8)
C1A C 0.234(1) 0.166(1) -0.276(1)
C2A C 0.204(1) 0.042(1) -0.396(1)
C3A C 0.326(1) -0.319(1) -0.292(1)
C4A C 0.400(1) -0.172(1) 0.080(1)
C5A C 0.406(1) -0.277(1) -0.161(1)
O2A O 0.3503(11) 0.2484(10) -0.3421(8)
H1A H 0.30300 -0.00200 -0.47600
H2A H 0.10100 0.12600 -0.43300
H3A H 0.39400 -0.33500 -0.37200
H4A H 0.27400 -0.41400 -0.24700
N1A N 0.5892(11) -0.2692(12) -0.0082(10)
H6A H 0.34500 -0.09000 0.19900
C6A C 0.600(1) -0.337(1) -0.158(1)
H5A H 0.68180 -0.27580 0.03310
C7A C 0.791(1) -0.454(2) -0.287(1)
H7A H 0.77300 -0.45800 -0.35600
H8A H 0.83400 -0.57500 -0.24700
H9A H 0.88800 -0.39800 -0.30300
#END
