
#######################################################################
#
#                 Cambridge Crystallographic Data Centre
#                                CCDC
#
#######################################################################
#
# If this CIF has been generated from an entry in the Cambridge
# Structural Database, then it will include bibliographic, chemical,
# crystal, experimental, refinement or atomic coordinate data resulting
# from the CCDC's data processing and validation procedures.
#
#######################################################################

data_CSD_CIF_LERWAI01
_audit_creation_date 2013-05-26
_audit_creation_method CSD-ConQuest-V1
_database_code_CSD LERWAI01
_database_code_depnum_ccdc_archive 'CCDC 828310'
_chemical_formula_sum 'C10 H12 Co1 N6 O6'
_chemical_formula_moiety
;
C10 H12 Co1 N6 O6
;
_journal_coden_Cambridge 1273
_journal_volume 23
_journal_year 2011
_journal_page_first 1209
_journal_name_full 'Huaxue Yanjiu Yu Yingyong(Chin.)(Chem.Res.Appln.) '
loop_
_publ_author_name
"Guang Fan"
"Zu-pei Yang"
_chemical_name_systematic
;
cis-bis(3-Aminopyrazine-2-carboxylato)-diaqua-cobalt(ii)
;
_cell_volume   1376.288
_exptl_crystal_density_diffrn 1.791
_diffrn_ambient_temperature 296
#These two values have been output from a single CSD field.
_refine_ls_R_factor_gt 0.0284
_refine_ls_wR_factor_gt 0.0284
_symmetry_cell_setting monoclinic
_symmetry_space_group_name_H-M 'C 2/c'
_symmetry_Int_Tables_number 15
loop_
_symmetry_equiv_pos_site_id
_symmetry_equiv_pos_as_xyz
1 x,y,z
2 -x,y,1/2-z
3 1/2+x,1/2+y,z
4 1/2-x,1/2+y,1/2-z
5 -x,-y,-z
6 x,-y,-1/2+z
7 -1/2-x,-1/2-y,-z
8 -1/2+x,-1/2-y,-1/2+z
_cell_length_a 7.8881(11)
_cell_length_b 12.7560(18)
_cell_length_c 13.686(2)
_cell_angle_alpha 90
_cell_angle_beta 91.960(2)
_cell_angle_gamma 90
_cell_formula_units_Z 4
loop_
_atom_type_symbol
_atom_type_radius_bond
C 0.68
H 0.23
Co 1.26
N 0.68
O 0.68
loop_
_atom_site_label
_atom_site_type_symbol
_atom_site_fract_x
_atom_site_fract_y
_atom_site_fract_z
Co1 Co 0.50000 0.19540(3) 0.25000
O1 O 0.6810(2) 0.07579(13) 0.23666(12)
O2 O 0.8130(3) -0.02313(15) 0.12885(14)
O3 O 0.6897(2) 0.30674(14) 0.26045(13)
N1 N 0.7651(3) 0.02052(17) -0.06340(16)
H1 H 0.78220 0.01410 -0.12480
H2 H 0.81090 -0.02300 -0.02240
N2 N 0.5307(2) 0.18866(13) 0.09607(13)
N3 N 0.5992(3) 0.16387(17) -0.09975(14)
C1 C 0.6679(3) 0.09780(18) -0.03182(17)
C2 C 0.6357(3) 0.11302(17) 0.06868(16)
C3 C 0.4596(3) 0.25145(19) 0.02804(17)
H3 H 0.38500 0.30390 0.04610
C4 C 0.7164(3) 0.05008(18) 0.15113(18)
C5 C 0.4971(3) 0.2384(2) -0.06889(18)
H4 H 0.44830 0.28410 -0.11480
H5 H 0.760(3) 0.319(2) 0.2138(16)
H6 H 0.677(5) 0.3636(17) 0.295(2)
O1A O 0.3190(2) 0.07579(13) 0.26334(12)
O2A O 0.1870(3) -0.02313(15) 0.37115(14)
O3A O 0.3103(2) 0.30674(14) 0.23955(13)
N1A N 0.2349(3) 0.02052(17) 0.56340(16)
H1A H 0.21780 0.01410 0.62480
H2A H 0.18910 -0.02300 0.52240
N2A N 0.4693(2) 0.18866(13) 0.40393(13)
N3A N 0.4008(3) 0.16387(17) 0.59975(14)
C1A C 0.3321(3) 0.09780(18) 0.53182(17)
C2A C 0.3643(3) 0.11302(17) 0.43132(16)
C3A C 0.5404(3) 0.25145(19) 0.47196(17)
H3A H 0.61500 0.30390 0.45390
C4A C 0.2836(3) 0.05008(18) 0.34887(18)
C5A C 0.5029(3) 0.2384(2) 0.56889(18)
H4A H 0.55170 0.28410 0.61480
H5A H 0.240(3) 0.319(2) 0.2862(16)
H6A H 0.323(5) 0.3636(17) 0.205(2)
#END
