
#######################################################################
#
#                 Cambridge Crystallographic Data Centre
#                                CCDC
#
#######################################################################
#
# If this CIF has been generated from an entry in the Cambridge
# Structural Database, then it will include bibliographic, chemical,
# crystal, experimental, refinement or atomic coordinate data resulting
# from the CCDC's data processing and validation procedures.
#
#######################################################################

data_CSD_CIF_LEZBUP
_audit_creation_date 2013-05-26
_audit_creation_method CSD-ConQuest-V1
_database_code_CSD LEZBUP
_database_code_depnum_ccdc_archive 'CCDC 827855'
_chemical_formula_sum 'C24 H36 Mn1 N12 O10'
_chemical_formula_moiety
;
C12 H12 N2,H12 Mn1 O6 2+,2(C6 H6 N5 O2 1-)
;
_journal_coden_Cambridge 222
_journal_volume 41
_journal_year 2012
_journal_page_first 10390
_journal_name_full 'Dalton Trans. '
loop_
_publ_author_name
"C.R.Maldonado"
"M.Quiros"
"J.M.Salas"
_chemical_name_systematic
;
hexaaqua-manganese(ii) 
bis(4,6-dimethyl-5,7-dioxo-4,5,6,7-tetrahydro[1,2,3]triazolo[4,5-d]pyrimidin-3
-ide) 4,4'-ethane-1,2-diyldipyridine solvate
;
_cell_volume    794.059
_exptl_crystal_colour 'colorless'
_exptl_crystal_density_diffrn 1.48
_exptl_crystal_description 'irregular'
_diffrn_ambient_temperature 298
#These two values have been output from a single CSD field.
_refine_ls_R_factor_gt 0.0357
_refine_ls_wR_factor_gt 0.0357
_symmetry_cell_setting triclinic
_symmetry_space_group_name_H-M 'P -1'
_symmetry_Int_Tables_number 2
loop_
_symmetry_equiv_pos_site_id
_symmetry_equiv_pos_as_xyz
1 x,y,z
2 -x,-y,-z
_cell_length_a 8.5542(6)
_cell_length_b 10.5222(7)
_cell_length_c 10.7110(7)
_cell_angle_alpha 65.084(1)
_cell_angle_beta 71.622(1)
_cell_angle_gamma 67.507(1)
_cell_formula_units_Z 1
loop_
_atom_type_symbol
_atom_type_radius_bond
C 0.68
H 0.23
Mn 1.61
N 0.68
O 0.68
loop_
_atom_site_label
_atom_site_type_symbol
_atom_site_fract_x
_atom_site_fract_y
_atom_site_fract_z
Mn1 Mn 0.50000 0.50000 0.50000
O1 O 0.26454(14) 0.47948(15) 0.49319(13)
H1 H 0.1714(18) 0.506(2) 0.5480(19)
H2 H 0.237(3) 0.469(2) 0.4293(17)
O2 O 0.42107(14) 0.73674(13) 0.37362(12)
H3 H 0.3202(15) 0.776(2) 0.355(2)
H4 H 0.484(2) 0.759(2) 0.2929(13)
O3 O 0.62451(14) 0.45494(15) 0.30491(13)
H5 H 0.578(2) 0.428(2) 0.266(2)
H6 H 0.7333(13) 0.430(2) 0.275(2)
N1 N 0.18303(17) 0.43177(17) 0.28659(14)
N2 N 0.01936(17) 0.44038(18) 0.31152(15)
N3 N -0.01641(17) 0.38826(17) 0.23031(15)
C1 C 0.13510(18) 0.34462(17) 0.15217(15)
N4 N 0.17073(16) 0.28221(15) 0.05223(13)
C2 C 0.0353(2) 0.2610(2) 0.01335(19)
H7 H 0.04280 0.30430 -0.08640
H8 H -0.07560 0.30660 0.05860
H9 H 0.05020 0.15810 0.04190
C3 C 0.3367(2) 0.24103(18) -0.01459(15)
O4 O 0.37523(15) 0.18548(15) -0.10351(12)
N5 N 0.46325(16) 0.26413(16) 0.02449(14)
C4 C 0.6420(2) 0.2131(3) -0.0442(2)
H10 H 0.65530 0.13090 -0.06820
H11 H 0.71840 0.18450 0.01830
H12 H 0.66890 0.29100 -0.12770
C5 C 0.43619(19) 0.33357(17) 0.11828(15)
O5 O 0.55678(14) 0.35358(15) 0.13857(13)
C6 C 0.26033(18) 0.37034(17) 0.18463(15)
N6 N 0.08037(18) 0.87722(17) 0.32332(16)
C7 C -0.0222(3) 0.8088(2) 0.3236(2)
H13 H 0.02840 0.72190 0.30450
C8 C -0.1989(2) 0.8596(2) 0.3495(2)
H14 H -0.26430 0.80840 0.34610
C9 C -0.2787(2) 0.98765(19) 0.38007(17)
C10 C -0.1733(2) 1.0614(2) 0.3761(2)
H15 H -0.22050 1.14930 0.39340
C11 C 0.0031(2) 1.0031(2) 0.34694(19)
H16 H 0.07200 1.05520 0.34350
C12 C -0.4709(2) 1.0398(2) 0.4222(2)
H17 H -0.52610 1.02320 0.36620
H18 H -0.50650 1.14420 0.40450
O1A O 0.73546(14) 0.52052(15) 0.50681(13)
H1A H 0.8286(18) 0.494(2) 0.4520(19)
H2A H 0.763(3) 0.531(2) 0.5707(17)
O2A O 0.57893(14) 0.26326(13) 0.62638(12)
H3A H 0.6798(15) 0.224(2) 0.645(2)
H4A H 0.516(2) 0.241(2) 0.7071(13)
O3A O 0.37549(14) 0.54506(15) 0.69509(13)
H5A H 0.422(2) 0.572(2) 0.734(2)
H6A H 0.2667(13) 0.570(2) 0.725(2)
N6A N -1.08037(18) 1.12278(17) 0.67668(16)
C7A C -0.9778(3) 1.1912(2) 0.6764(2)
H13A H -1.02840 1.27810 0.69550
C8A C -0.8011(2) 1.1404(2) 0.6505(2)
H14A H -0.73570 1.19160 0.65390
C9A C -0.7213(2) 1.01235(19) 0.61993(17)
C10A C -0.8267(2) 0.9386(2) 0.6239(2)
H15A H -0.77950 0.85070 0.60660
C11A C -1.0031(2) 0.9969(2) 0.65306(19)
H16A H -1.07200 0.94480 0.65650
C12A C -0.5291(2) 0.9602(2) 0.5778(2)
H17A H -0.47390 0.97680 0.63380
H18A H -0.49350 0.85580 0.59550
#END
