
#######################################################################
#
#                 Cambridge Crystallographic Data Centre
#                                CCDC
#
#######################################################################
#
# If this CIF has been generated from an entry in the Cambridge
# Structural Database, then it will include bibliographic, chemical,
# crystal, experimental, refinement or atomic coordinate data resulting
# from the CCDC's data processing and validation procedures.
#
#######################################################################

data_CSD_CIF_LIGNOE
_audit_creation_date 1995-07-26
_audit_creation_method CSD-ConQuest-V1
_database_code_CSD LIGNOE
_database_code_depnum_ccdc_archive 'CCDC 1207032'
_chemical_formula_sum 'C8 H20 Cl1 Co1 N4 O8'
_chemical_formula_moiety
;
C8 H20 Co1 N4 O4 1+,Cl1 O4 1-
;
_journal_coden_Cambridge 211
_journal_volume 29
_journal_year 1993
_journal_page_first 287
_journal_name_full 'J.Coord.Chem. '
loop_
_publ_author_name
"I.Bernal"
"J.Myrczek"
"J.Cetrullo"
"S.S.Massoud"
_chemical_name_systematic
;
bis(1,3-Diaminopropane-N,N')-(oxalato-O,O')-cobalt(iii) perchlorate
;
_cell_volume    732.946
_exptl_crystal_density_diffrn 1.788
_diffrn_ambient_temperature ?
_diffrn_special_details
;
The study was carried out at room temperature,in the range 283-303K

;
#These two values have been output from a single CSD field.
_refine_ls_R_factor_gt 0.044
_refine_ls_wR_factor_gt 0.044
_symmetry_cell_setting triclinic
_symmetry_space_group_name_H-M 'P -1'
_symmetry_Int_Tables_number 2
loop_
_symmetry_equiv_pos_site_id
_symmetry_equiv_pos_as_xyz
1 x,y,z
2 -x,-y,-z
_cell_length_a 7.845
_cell_length_b 9.412
_cell_length_c 10.393
_cell_angle_alpha 73.06
_cell_angle_beta 88.53
_cell_angle_gamma 86.85
_cell_formula_units_Z 2
loop_
_atom_type_symbol
_atom_type_radius_bond
C 0.68
H 0.23
Cl 0.99
Co 1.33
N 0.68
O 0.68
loop_
_atom_site_label
_atom_site_type_symbol
_atom_site_fract_x
_atom_site_fract_y
_atom_site_fract_z
Co1 Co 0.36140(6) 0.02934(5) 0.24614(5)
O1 O 0.5451(3) 0.0804(3) 0.1172(3)
O2 O 0.5400(3) -0.0663(3) 0.3714(3)
O3 O 0.8265(3) 0.0349(3) 0.1007(3)
O4 O 0.8235(3) -0.0728(3) 0.3834(3)
N1 N 0.3416(4) -0.1511(3) 0.1908(3)
N2 N 0.1842(4) -0.0362(3) 0.3810(3)
N3 N 0.3965(4) 0.2052(3) 0.3066(3)
N4 N 0.2006(4) 0.1379(3) 0.1072(3)
C1 C 0.1832(5) -0.2330(4) 0.2264(4)
C2 C 0.1624(6) -0.2980(5) 0.3755(5)
C3 C 0.2027(5) -0.1969(5) 0.4588(4)
C4 C 0.2581(5) 0.3210(4) 0.3008(5)
C5 C 0.1818(6) 0.3770(5) 0.1623(5)
C6 C 0.0849(5) 0.2608(4) 0.1265(5)
C7 C 0.6943(5) 0.0284(4) 0.1655(4)
C8 C 0.6905(5) -0.0438(4) 0.3201(4)
H1 H 0.35280 -0.12330 0.09550
H2 H 0.43380 -0.21790 0.22990
H3 H 0.18680 -0.31120 0.18550
H4 H 0.08810 -0.16650 0.19320
H5 H 0.04710 -0.32440 0.39340
H6 H 0.23580 -0.38470 0.40300
H7 H 0.31670 -0.21890 0.48920
H8 H 0.12690 -0.21480 0.53390
H9 H 0.18670 0.02100 0.44250
H10 H 0.07710 -0.01890 0.33710
H11 H 0.42960 0.16870 0.39810
H12 H 0.48840 0.25450 0.25410
H13 H 0.17100 0.27970 0.36370
H14 H 0.30350 0.40190 0.32350
H15 H 0.10600 0.46010 0.15920
H16 H 0.27130 0.40660 0.09830
H17 H 0.00580 0.22070 0.19680
H18 H 0.02460 0.30580 0.04540
H19 H 0.26660 0.17940 0.02860
H20 H 0.12930 0.06620 0.09160
Cl1 Cl 0.6896(2) 0.5437(1) 0.2383(1)
O5 O 0.5824(6) 0.5387(6) 0.3494(5)
O6 O 0.6890(7) 0.4163(5) 0.1992(6)
O7 O 0.646(1) 0.6630(7) 0.1438(7)
O8 O 0.8516(7) 0.5520(9) 0.2630(8)
#END
