
#######################################################################
#
#                 Cambridge Crystallographic Data Centre
#                                CCDC
#
#######################################################################
#
# If this CIF has been generated from an entry in the Cambridge
# Structural Database, then it will include bibliographic, chemical,
# crystal, experimental, refinement or atomic coordinate data resulting
# from the CCDC's data processing and validation procedures.
#
#######################################################################

data_CSD_CIF_LILZAI
_audit_creation_date 2008-01-17
_audit_creation_method CSD-ConQuest-V1
_database_code_CSD LILZAI
_database_code_depnum_ccdc_archive 'CCDC 624573'
_chemical_formula_sum 'C36 H46 Co1 N4'
_chemical_formula_moiety
;
C36 H46 Co1 N4
;
_journal_coden_Cambridge 9
_journal_volume 46
_journal_year 2007
_journal_page_first 6880
_journal_name_full 'Inorg.Chem. '
loop_
_publ_author_name
"S.A.Carabineiro"
"L.C.Silva"
"P.T.Gomes"
"L.C.J.Pereira"
"L.F.Veiros"
"S.I.Pascu"
"M.T.Duarte"
"S.Namorado"
"R.T.Henriques"
_chemical_name_systematic
;
bis(2-(1-(2,6-Diisopropylphenylimino)ethyl)pyrrolato-N,N')-cobalt(ii)
;
_cell_volume    787.911
_exptl_crystal_colour 'black'
_exptl_crystal_density_diffrn 1.251
_exptl_crystal_description 'needle'
_diffrn_ambient_temperature 150
_diffrn_radiation_probe x-ray
_diffrn_source synchrotron
#These two values have been output from a single CSD field.
_refine_ls_R_factor_gt 0.0393
_refine_ls_wR_factor_gt 0.0393
_symmetry_cell_setting triclinic
_symmetry_space_group_name_H-M 'P -1'
_symmetry_Int_Tables_number 2
loop_
_symmetry_equiv_pos_site_id
_symmetry_equiv_pos_as_xyz
1 x,y,z
2 -x,-y,-z
_cell_length_a 8.1966(14)
_cell_length_b 9.0582(16)
_cell_length_c 11.615(2)
_cell_angle_alpha 69.060(2)
_cell_angle_beta 79.503(2)
_cell_angle_gamma 80.932(2)
_cell_formula_units_Z 1
loop_
_atom_type_symbol
_atom_type_radius_bond
C 0.68
H 0.23
Co 1.33
N 0.68
loop_
_atom_site_label
_atom_site_type_symbol
_atom_site_fract_x
_atom_site_fract_y
_atom_site_fract_z
C1 C -0.1425(2) -0.1094(2) -0.18498(16)
C2 C -0.2059(2) -0.2479(2) -0.17374(16)
C3 C -0.2002(2) -0.3493(2) -0.05135(16)
C4 C -0.1320(2) -0.26697(19) 0.00622(15)
C5 C -0.1040(2) -0.29962(19) 0.12994(15)
C6 C -0.1531(3) -0.4490(2) 0.23039(17)
C7 C -0.0205(2) -0.20365(19) 0.27160(14)
C8 C 0.1256(2) -0.2886(2) 0.32120(15)
C9 C 0.1448(2) -0.2912(2) 0.43828(16)
C10 C 0.0264(2) -0.2134(2) 0.50387(16)
C11 C -0.1173(2) -0.1342(2) 0.45485(16)
C12 C -0.1435(2) -0.1282(2) 0.33796(15)
C13 C 0.2556(2) -0.3722(2) 0.24770(18)
C14 C -0.3019(2) -0.0411(2) 0.28615(17)
C15 C -0.3123(3) 0.1376(3) 0.2630(2)
C16 C -0.4560(3) -0.1120(3) 0.3717(2)
C17 C 0.3655(3) -0.2556(3) 0.1457(2)
C18 C 0.3631(3) -0.5072(3) 0.3306(2)
Co1 Co 0.00000 0.00000 0.00000
N1 N -0.09567(19) -0.11887(17) -0.07624(13)
N2 N -0.04041(18) -0.18711(17) 0.14756(12)
H1 H -0.13390 -0.02010 -0.25790
H2 H -0.24520 -0.26780 -0.23810
H3 H -0.23450 -0.45220 -0.01580
H4 H 0.24150 -0.34760 0.47300
H5 H 0.04320 -0.21330 0.58270
H6 H -0.19970 -0.08390 0.50260
H7 H 0.19410 -0.41980 0.20540
H8 H -0.29800 -0.05570 0.20660
H9 H -0.41200 0.18970 0.22640
H10 H -0.31620 0.15440 0.34240
H11 H -0.21530 0.18310 0.20700
H12 H -0.55590 -0.05770 0.33530
H13 H -0.46430 -0.10010 0.45370
H14 H -0.44980 -0.22430 0.38330
H15 H 0.44370 -0.31230 0.10110
H16 H 0.42780 -0.20630 0.18310
H17 H 0.30090 -0.17300 0.08820
H18 H 0.43550 -0.56420 0.28030
H19 H 0.29350 -0.58100 0.39620
H20 H 0.43260 -0.46790 0.36960
H21 H -0.12240 -0.46070 0.30770
H22 H -0.09930 -0.53720 0.20960
H23 H -0.26800 -0.45660 0.23870
C1A C 0.1425(2) 0.1094(2) 0.18498(16)
C2A C 0.2059(2) 0.2479(2) 0.17374(16)
C3A C 0.2002(2) 0.3493(2) 0.05135(16)
C4A C 0.1320(2) 0.26697(19) -0.00622(15)
C5A C 0.1040(2) 0.29962(19) -0.12994(15)
C6A C 0.1531(3) 0.4490(2) -0.23039(17)
C7A C 0.0205(2) 0.20365(19) -0.27160(14)
C8A C -0.1256(2) 0.2886(2) -0.32120(15)
C9A C -0.1448(2) 0.2912(2) -0.43828(16)
C10A C -0.0264(2) 0.2134(2) -0.50387(16)
C11A C 0.1173(2) 0.1342(2) -0.45485(16)
C12A C 0.1435(2) 0.1282(2) -0.33796(15)
C13A C -0.2556(2) 0.3722(2) -0.24770(18)
C14A C 0.3019(2) 0.0411(2) -0.28615(17)
C15A C 0.3123(3) -0.1376(3) -0.2630(2)
C16A C 0.4560(3) 0.1120(3) -0.3717(2)
C17A C -0.3655(3) 0.2556(3) -0.1457(2)
C18A C -0.3631(3) 0.5072(3) -0.3306(2)
N1A N 0.09567(19) 0.11887(17) 0.07624(13)
N2A N 0.04041(18) 0.18711(17) -0.14756(12)
H1A H 0.13390 0.02010 0.25790
H2A H 0.24520 0.26780 0.23810
H3A H 0.23450 0.45220 0.01580
H4A H -0.24150 0.34760 -0.47300
H5A H -0.04320 0.21330 -0.58270
H6A H 0.19970 0.08390 -0.50260
H7A H -0.19410 0.41980 -0.20540
H8A H 0.29800 0.05570 -0.20660
H9A H 0.41200 -0.18970 -0.22640
H10A H 0.31620 -0.15440 -0.34240
H11A H 0.21530 -0.18310 -0.20700
H12A H 0.55590 0.05770 -0.33530
H13A H 0.46430 0.10010 -0.45370
H14A H 0.44980 0.22430 -0.38330
H15A H -0.44370 0.31230 -0.10110
H16A H -0.42780 0.20630 -0.18310
H17A H -0.30090 0.17300 -0.08820
H18A H -0.43550 0.56420 -0.28030
H19A H -0.29350 0.58100 -0.39620
H20A H -0.43260 0.46790 -0.36960
H21A H 0.12240 0.46070 -0.30770
H22A H 0.09930 0.53720 -0.20960
H23A H 0.26800 0.45660 -0.23870
#END
