
#######################################################################
#
#                 Cambridge Crystallographic Data Centre
#                                CCDC
#
#######################################################################
#
# If this CIF has been generated from an entry in the Cambridge
# Structural Database, then it will include bibliographic, chemical,
# crystal, experimental, refinement or atomic coordinate data resulting
# from the CCDC's data processing and validation procedures.
#
#######################################################################

data_CSD_CIF_LIMCRF01
_audit_creation_date 1994-12-05
_audit_creation_method CSD-ConQuest-V1
_database_code_CSD LIMCRF01
_chemical_formula_sum 'C24 H56 Cr2 Li4 O4'
_chemical_formula_moiety
;
C24 H56 Cr2 Li4 O4
;
_journal_coden_Cambridge 579
_journal_volume 13
_journal_year 1994
_journal_page_first 1326
_journal_name_full 'Organometallics '
loop_
_publ_author_name
"Shoukang Hao"
"Jae-Inh Song"
"P.Berno"
"S.Gambarotta"
_chemical_name_systematic
;
(octakis(\m~3~-Methylidyne)-tetrakis(tetrahydrofuran))-di-chromium-tetra-lithi
um
;
_cell_volume   1562.604
_exptl_crystal_colour 'yellow'
_exptl_crystal_density_diffrn 1.149
_exptl_special_details
;
Pyrophoric
P-4 polymorph

;
_diffrn_ambient_temperature 113.15
#These two values have been output from a single CSD field.
_refine_ls_R_factor_gt 0.03
_refine_ls_wR_factor_gt 0.03
_symmetry_cell_setting tetragonal
_symmetry_space_group_name_H-M 'P -4'
_symmetry_Int_Tables_number 81
loop_
_symmetry_equiv_pos_site_id
_symmetry_equiv_pos_as_xyz
1 x,y,z
2 -y,x,-z
3 -x,-y,z
4 y,-x,-z
_cell_length_a 11.476(3)
_cell_length_b 11.476(3)
_cell_length_c 11.865(4)
_cell_angle_alpha 90
_cell_angle_beta 90
_cell_angle_gamma 90
_cell_formula_units_Z 2
loop_
_atom_type_symbol
_atom_type_radius_bond
C 0.68
H 0.23
Cr 1.15
Li 1.25
O 0.68
loop_
_atom_site_label
_atom_site_type_symbol
_atom_site_fract_x
_atom_site_fract_y
_atom_site_fract_z
Cr1 Cr 0.00000 0.50000 0.16705(6)
O1 O -0.1249(2) 0.8575(2) 0.2519(9)
C1 C 0.165(1) 0.418(1) 0.111(1)
C2 C 0.074(1) 0.663(1) 0.114(1)
C3 C -0.159(1) 0.921(1) 0.154(1)
C4 C -0.160(1) 0.919(1) 0.351(1)
C5 C -0.194(2) 1.041(2) 0.192(2)
C6 C -0.231(2) 1.019(1) 0.308(2)
Li1 Li -0.0681(6) 0.6958(5) 0.250(2)
H1 H 0.07720 0.63740 0.01650
H2 H 0.00080 0.71690 0.08310
H3 H 0.15880 0.69090 0.12740
H4 H 0.24370 0.46630 0.11450
H5 H 0.14120 0.42150 0.02730
H6 H 0.18750 0.34120 0.13000
H7 H -0.31260 0.99460 0.31150
H8 H -0.22480 1.08620 0.35650
H9 H -0.10500 0.92030 0.10000
H10 H -0.23210 0.88310 0.12640
H11 H -0.19490 0.87140 0.40570
H12 H -0.08680 0.95080 0.38960
H13 H -0.12480 1.08980 0.19080
H14 H -0.25120 1.07500 0.14690
C1B C -0.165(1) 0.582(1) 0.111(1)
H4B H -0.24370 0.53370 0.11450
H5B H -0.14120 0.57850 0.02730
H6B H -0.18750 0.65880 0.13000
C2B C -0.074(1) 0.337(1) 0.114(1)
Li1B Li 0.0681(6) 0.3042(5) 0.250(2)
O1B O 0.1249(2) 0.1425(2) 0.2519(9)
C3B C 0.159(1) 0.079(1) 0.154(1)
C5B C 0.194(2) -0.041(2) 0.192(2)
C6B C 0.231(2) -0.019(1) 0.308(2)
C4B C 0.160(1) 0.081(1) 0.351(1)
H11B H 0.19490 0.12860 0.40570
H12B H 0.08680 0.04920 0.38960
H7B H 0.31260 0.00540 0.31150
H8B H 0.22480 -0.08620 0.35650
H13B H 0.12480 -0.08980 0.19080
H14B H 0.25120 -0.07500 0.14690
H9B H 0.10500 0.07970 0.10000
H10B H 0.23210 0.11690 0.12640
H1B H -0.07720 0.36260 0.01650
H2B H -0.00080 0.28310 0.08310
H3B H -0.15880 0.30910 0.12740
#END
