
#######################################################################
#
#                 Cambridge Crystallographic Data Centre
#                                CCDC
#
#######################################################################
#
# If this CIF has been generated from an entry in the Cambridge
# Structural Database, then it will include bibliographic, chemical,
# crystal, experimental, refinement or atomic coordinate data resulting
# from the CCDC's data processing and validation procedures.
#
#######################################################################

data_CSD_CIF_LIWKOR01
_audit_creation_date 2007-12-05
_audit_creation_method CSD-ConQuest-V1
_database_code_CSD LIWKOR01
_database_code_depnum_ccdc_archive 'CCDC 660991'
_chemical_formula_sum 'C8 H33 Fe1 N8 Sb1 Se4'
_chemical_formula_moiety
;
C6 H24 Fe1 N6 2+,C2 H9 N2 1+,Sb1 Se4 3-
;
_journal_coden_Cambridge 1273
_journal_volume 18
_journal_year 2006
_journal_page_first 823
_journal_name_full 'Huaxue Yanjiu Yu Yingyong(Chin.)(Chem.Res.Appln.) '
loop_
_publ_author_name
"Qian-xin Zhao"
"Jie Deng"
"Ding-xian Jia"
"Yong Zhang"
"Jie Dai"
_chemical_name_systematic
;
tris(Ethylenediamine)-iron(ii) 2-aminoethylammonium tetraselenoantimonate
;
_cell_volume   1098.243
_exptl_crystal_colour 'orange'
_exptl_crystal_density_diffrn 2.222
_exptl_crystal_description 'block'
_diffrn_ambient_temperature 193
#These two values have been output from a single CSD field.
_refine_ls_R_factor_gt 0.0236
_refine_ls_wR_factor_gt 0.0236
_symmetry_cell_setting triclinic
_symmetry_space_group_name_H-M 'P -1'
_symmetry_Int_Tables_number 2
loop_
_symmetry_equiv_pos_site_id
_symmetry_equiv_pos_as_xyz
1 x,y,z
2 -x,-y,-z
_cell_length_a 8.8755(15)
_cell_length_b 9.6315(18)
_cell_length_c 14.251(3)
_cell_angle_alpha 104.756(3)
_cell_angle_beta 92.651(3)
_cell_angle_gamma 109.587(4)
_cell_formula_units_Z 2
loop_
_atom_type_symbol
_atom_type_radius_bond
C 0.68
H 0.23
Fe 1.34
N 0.68
Sb 1.46
Se 1.22
loop_
_atom_site_label
_atom_site_type_symbol
_atom_site_fract_x
_atom_site_fract_y
_atom_site_fract_z
Sb1 Sb 0.11802(2) 0.92626(2) 0.772166(16)
Se1 Se 0.28625(4) 0.82086(4) 0.66236(3)
Se2 Se 0.10875(4) 0.81618(4) 0.91139(3)
Se3 Se 0.23680(4) 1.21111(4) 0.83519(3)
Se4 Se -0.16510(4) 0.83888(4) 0.69239(3)
Fe1 Fe 0.21318(5) 0.68455(5) 0.31637(3)
N1 N 0.4771(3) 0.8101(3) 0.3461(2)
H1 H 0.52610 0.76920 0.29650
H2 H 0.50020 0.91230 0.35030
N2 N 0.2809(3) 0.5819(3) 0.4262(2)
H3 H 0.24330 0.61400 0.48380
H4 H 0.23520 0.47640 0.40360
N3 N 0.1538(3) 0.8593(3) 0.4254(2)
H5 H 0.20600 0.87490 0.48650
H6 H 0.18880 0.95110 0.41000
N4 N -0.0500(3) 0.5655(3) 0.3097(2)
H7 H -0.10640 0.57830 0.25880
H8 H -0.07390 0.46190 0.30050
N5 N 0.1785(4) 0.7756(4) 0.1929(2)
H9 H 0.09530 0.81260 0.19920
H10 H 0.27120 0.85390 0.19050
N6 N 0.2368(3) 0.5047(3) 0.1951(2)
H11 H 0.32750 0.48430 0.21040
H12 H 0.14810 0.41560 0.18410
N7 N 0.2738(4) 0.1566(4) 0.0727(3)
N8 N 0.5410(4) 0.4179(4) 0.2046(3)
C1 C 0.5358(4) 0.7943(4) 0.4400(3)
H13 H 0.50900 0.86420 0.49500
H14 H 0.65480 0.82400 0.44730
C2 C 0.4593(4) 0.6303(4) 0.4439(3)
H15 H 0.49540 0.56140 0.39350
H16 H 0.49350 0.62290 0.50900
C3 C -0.0238(4) 0.8080(4) 0.4267(3)
H17 H -0.07520 0.84080 0.37740
H18 H -0.04640 0.85570 0.49210
C4 C -0.0927(4) 0.6354(4) 0.4040(3)
H19 H -0.04890 0.60340 0.45660
H20 H -0.21170 0.60000 0.40060
C5 C 0.1392(6) 0.6430(5) 0.1032(3)
H21 H 0.02580 0.57360 0.09740
H22 H 0.15070 0.68070 0.04450
C6 C 0.2491(5) 0.5570(4) 0.1079(3)
H23 H 0.22010 0.46740 0.04880
H24 H 0.36180 0.62440 0.10910
C7 C 0.4473(4) 0.1813(4) 0.0701(3)
H25 H 0.46240 0.13480 0.00240
H26 H 0.48180 0.12840 0.11330
C8 C 0.5523(4) 0.3491(4) 0.1024(3)
H27 H 0.66590 0.36040 0.09540
H28 H 0.51730 0.40320 0.06020
H29 H 0.247(4) 0.176(4) 0.130(3)
H30 H 0.244(5) 0.213(5) 0.032(3)
H31 H 0.196(6) 0.045(6) 0.038(3)
H32 H 0.592(5) 0.502(5) 0.218(3)
H33 H 0.573(5) 0.372(5) 0.242(3)
#END
