
#######################################################################
#
#                 Cambridge Crystallographic Data Centre
#                                CCDC
#
#######################################################################
#
# If this CIF has been generated from an entry in the Cambridge
# Structural Database, then it will include bibliographic, chemical,
# crystal, experimental, refinement or atomic coordinate data resulting
# from the CCDC's data processing and validation procedures.
#
#######################################################################

data_CSD_CIF_LOBNOF
_audit_creation_date 2000-08-04
_audit_creation_method CSD-ConQuest-V1
_database_code_CSD LOBNOF
_database_code_depnum_ccdc_archive 'CCDC 133942'
_chemical_formula_sum 'C15 H10 Cr1 N4 O4'
_chemical_formula_moiety
;
C15 H10 Cr1 N4 O4
;
_journal_coden_Cambridge 36
_journal_volume 596
_journal_year 2000
_journal_page_first 226
_journal_name_full 'J.Organomet.Chem. '
loop_
_publ_author_name
"Pang-Yen Yang"
"Fang-Chu Chang"
"Maw-Cherng Suen"
"Jhy-Der Chen"
"Tai-Chiun Keng"
"Ju-Chun Wang"
_chemical_name_systematic
;
(bis(2-Pyridyl)formamidine-N,N')-tetracarbonyl-chromium
;
_cell_volume    781.142
_exptl_crystal_colour 'yellow'
_exptl_crystal_density_diffrn 1.54
_exptl_special_details
;
isostructural with the tungsten analogue

;
_exptl_crystal_description 'plate'
_exptl_crystal_preparation 'ether/dichloromethane'
_diffrn_ambient_temperature ?
_diffrn_special_details
;
The study was carried out at room temperature,in the range 283-303K

;
#These two values have been output from a single CSD field.
_refine_ls_R_factor_gt 0.0698
_refine_ls_wR_factor_gt 0.0698
_symmetry_cell_setting triclinic
_symmetry_space_group_name_H-M 'P -1'
_symmetry_Int_Tables_number 2
loop_
_symmetry_equiv_pos_site_id
_symmetry_equiv_pos_as_xyz
1 x,y,z
2 -x,-y,-z
_cell_length_a 7.3392(8)
_cell_length_b 9.6178(10)
_cell_length_c 12.0622(13)
_cell_angle_alpha 80.022(2)
_cell_angle_beta 79.867(2)
_cell_angle_gamma 69.883(2)
_cell_formula_units_Z 2
loop_
_atom_type_symbol
_atom_type_radius_bond
C 0.68
H 0.23
Cr 1.35
N 0.68
O 0.68
loop_
_atom_site_label
_atom_site_type_symbol
_atom_site_fract_x
_atom_site_fract_y
_atom_site_fract_z
Cr1 Cr 0.56441(11) -0.42205(8) 0.70964(6)
O1 O 0.9477(7) -0.5586(6) 0.8093(5)
O2 O 0.1675(6) -0.3337(5) 0.6274(4)
O3 O 0.6392(7) -0.7206(4) 0.6382(4)
O4 O 0.3715(8) -0.5328(6) 0.9288(4)
N1 N 0.6884(5) -0.2986(4) 0.5695(3)
N2 N 0.5465(5) -0.1995(4) 0.7262(3)
N3 N 0.3856(6) -0.1354(5) 0.8979(4)
N4 N 0.2544(6) 0.1116(5) 0.9374(3)
C1 C 0.8056(8) -0.5023(6) 0.7705(5)
C2 C 0.3185(8) -0.3598(5) 0.6551(4)
C3 C 0.6125(8) -0.6033(6) 0.6622(4)
C4 C 0.4454(9) -0.4871(6) 0.8447(5)
C5 C 0.7841(8) -0.3063(6) 0.4648(5)
C6 C 0.8406(8) -0.1884(6) 0.4061(5)
C7 C 0.8033(8) -0.0632(6) 0.4570(5)
C8 C 0.7053(7) -0.0537(5) 0.5650(4)
C9 C 0.6480(6) -0.1737(5) 0.6188(4)
C10 C 0.4721(6) -0.0992(5) 0.7924(4)
C11 C 0.2852(6) -0.0329(6) 0.9747(4)
C12 C 0.2240(8) -0.0845(6) 1.0834(4)
C13 C 0.1236(8) 0.0194(8) 1.1569(5)
C14 C 0.0916(8) 0.1682(8) 1.1206(5)
C15 C 0.1573(8) 0.2089(6) 1.0131(5)
H1 H 0.3900(54) -0.2291(45) 0.9132(31)
H2 H 0.8156(66) -0.3962(54) 0.4356(38)
H3 H 0.8881(99) -0.1908(74) 0.3252(58)
H4 H 0.8424(75) 0.0165(58) 0.4207(43)
H5 H 0.6761(71) 0.0276(57) 0.6023(41)
H6 H 0.4521(66) 0.0020(57) 0.7719(38)
H7 H 0.2586(83) -0.1929(67) 1.1041(47)
H8 H 0.1050(87) -0.0154(67) 1.2382(53)
H9 H 0.0080(95) 0.2464(73) 1.1712(54)
H10 H 0.1432(89) 0.3099(70) 0.9815(49)
#END
