
#######################################################################
#
#                 Cambridge Crystallographic Data Centre
#                                CCDC
#
#######################################################################
#
# If this CIF has been generated from an entry in the Cambridge
# Structural Database, then it will include bibliographic, chemical,
# crystal, experimental, refinement or atomic coordinate data resulting
# from the CCDC's data processing and validation procedures.
#
#######################################################################

data_CSD_CIF_LOGLUR
_audit_creation_date 2019-07-02
_audit_creation_method CSD-ConQuest-V1
_database_code_CSD LOGLUR
_database_code_depnum_ccdc_archive 'CCDC 1548082'
_chemical_formula_sum 'C15 H9 Br1 Mn1 N3 O3'
_chemical_formula_moiety
;
C15 H9 Br1 Mn1 N3 O3
;
_journal_coden_Cambridge 1500
_journal_volume 9
_journal_year 2019
_journal_page_first 20505
_journal_name_full 'RSC Advances '
loop_
_publ_author_name
"Mixia Hu"
"YaLi Yan"
"Baohua Zhu"
"Fei Chang"
"Shiyong Yu"
"G.Alatan"
_chemical_name_systematic
;
bromo-(tricarbonyl)-[2-(pyridin-2-yl)-1H-benzimidazole]-manganese(i)
;
_cell_volume    775.142
_exptl_crystal_colour 'yellow'
_exptl_crystal_density_diffrn 1.774
_exptl_crystal_description 'block'
_diffrn_ambient_temperature 296
#These two values have been output from a single CSD field.
_refine_ls_R_factor_gt 0.044
_refine_ls_wR_factor_gt 0.044
_symmetry_cell_setting triclinic
_symmetry_space_group_name_H-M 'P -1'
_symmetry_Int_Tables_number 2
loop_
_symmetry_equiv_pos_site_id
_symmetry_equiv_pos_as_xyz
1 x,y,z
2 -x,-y,-z
_cell_length_a 6.8422(3)
_cell_length_b 10.6873(5)
_cell_length_c 11.6987(6)
_cell_angle_alpha 91.775(3)
_cell_angle_beta 105.866(3)
_cell_angle_gamma 108.240(3)
_cell_formula_units_Z 2
loop_
_atom_type_symbol
_atom_type_radius_bond
C 0.68
H 0.23
Br 1.21
Mn 1.61
N 0.68
O 0.68
loop_
_atom_site_label
_atom_site_type_symbol
_atom_site_fract_x
_atom_site_fract_y
_atom_site_fract_z
Br1 Br 0.32912(6) 0.64952(4) 0.21501(4)
Mn1 Mn 0.73868(8) 0.74751(5) 0.30115(4)
O1 O 1.2056(5) 0.8705(3) 0.4087(3)
O2 O 0.7144(7) 1.0166(3) 0.3233(3)
O3 O 0.6842(8) 0.7327(4) 0.5404(3)
N1 N 0.7520(4) 0.7333(2) 0.1300(2)
N2 N 0.7697(4) 0.6125(3) -0.0232(2)
H1 H 0.77810 0.54680 -0.06360
N3 N 0.7573(4) 0.5570(3) 0.2789(2)
C1 C 0.7464(5) 0.8060(3) 0.0338(3)
C2 C 0.7268(5) 0.9316(3) 0.0218(3)
H2 H 0.71760 0.98280 0.08460
C3 C 0.7220(6) 0.9756(4) -0.0883(3)
H3 H 0.70920 1.05870 -0.09970
C4 C 0.7356(6) 0.8994(4) -0.1830(3)
H4 H 0.73170 0.93340 -0.25550
C5 C 0.7544(6) 0.7765(4) -0.1727(3)
H5 H 0.76380 0.72600 -0.23590
C6 C 0.7589(5) 0.7314(3) -0.0632(3)
C7 C 0.7647(4) 0.6192(3) 0.0912(3)
C8 C 0.7702(5) 0.5184(3) 0.1720(3)
C9 C 0.7632(6) 0.4714(4) 0.3605(3)
H6 H 0.75340 0.49580 0.43520
C10 C 0.7832(7) 0.3488(4) 0.3384(4)
H7 H 0.78900 0.29290 0.39770
C11 C 0.7943(6) 0.3106(4) 0.2276(4)
H8 H 0.80630 0.22820 0.21050
C12 C 0.7873(5) 0.3972(3) 0.1424(3)
H9 H 0.79400 0.37410 0.06660
C13 C 1.0278(6) 0.8202(4) 0.3653(3)
C14 C 0.7204(7) 0.9118(4) 0.3108(3)
C15 C 0.7053(7) 0.7370(4) 0.4475(3)
#END
