
#######################################################################
#
#                 Cambridge Crystallographic Data Centre
#                                CCDC
#
#######################################################################
#
# If this CIF has been generated from an entry in the Cambridge
# Structural Database, then it will include bibliographic, chemical,
# crystal, experimental, refinement or atomic coordinate data resulting
# from the CCDC's data processing and validation procedures.
#
#######################################################################

data_CSD_CIF_LOKBEV
_audit_creation_date 2019-07-03
_audit_creation_method CSD-ConQuest-V1
_database_code_CSD LOKBEV
_database_code_depnum_ccdc_archive 'CCDC 1892441'
_chemical_formula_sum 'C14 H16 Cl3 Co1 N4'
_chemical_formula_moiety
;
C14 H16 Cl2 Co1 N4 1+,Cl1 1-
;
_journal_coden_Cambridge 182
_journal_volume 55
_journal_year 2019
_journal_page_first 8552
_journal_name_full 'Chem.Commun. '
loop_
_publ_author_name
"Y.Sakaguchi"
"A.Call"
"M.Cibian"
"K.Yamauchi"
"K.Sakai"
_chemical_name_systematic
;
dichloro-(3,11,17,18-tetraazatricyclo[11.3.1.1^5,9^]octadeca-1(17),5(18),6,8,1
3,15-hexaene)-cobalt(iii) chloride unknown solvate
;
_cell_volume    879.876
_exptl_crystal_colour 'brown'
_exptl_crystal_density_diffrn 1.531
_exptl_crystal_description 'block'
_exptl_crystal_preparation 'slow diffusion of diethyl ether into a solution of the compound in methanol'
_diffrn_ambient_temperature 100
_refine_special_details
;
Disordered solvent molecules were not modelled and the disordered density was 
taken into account using the SQUEEZE/PLATON procedure.
;
#These two values have been output from a single CSD field.
_refine_ls_R_factor_gt 0.0332
_refine_ls_wR_factor_gt 0.0332
_symmetry_cell_setting triclinic
_symmetry_space_group_name_H-M 'P -1'
_symmetry_Int_Tables_number 2
loop_
_symmetry_equiv_pos_site_id
_symmetry_equiv_pos_as_xyz
1 x,y,z
2 -x,-y,-z
_cell_length_a 9.1082(10)
_cell_length_b 9.8312(10)
_cell_length_c 9.9666(11)
_cell_angle_alpha 93.655(1)
_cell_angle_beta 98.898(1)
_cell_angle_gamma 90.006(1)
_cell_formula_units_Z 2
loop_
_atom_type_symbol
_atom_type_radius_bond
C 0.68
H 0.23
Cl 0.99
Co 1.26
N 0.68
loop_
_atom_site_label
_atom_site_type_symbol
_atom_site_fract_x
_atom_site_fract_y
_atom_site_fract_z
Co1 Co 0.27110(3) 0.12484(2) 0.12962(2)
Cl1 Cl 0.19407(5) 0.12792(5) -0.09723(5)
C1 C 0.2347(2) 0.09844(19) 0.39776(19)
N1 N 0.33447(18) 0.12733(16) 0.31798(17)
Cl2 Cl 0.32774(5) -0.09802(4) 0.10952(5)
N2 N 0.47416(19) 0.19694(17) 0.12609(17)
H1 H 0.518(3) 0.150(3) 0.062(3)
C2 C 0.2725(2) 0.1136(2) 0.5375(2)
H2 H 0.20233 0.09402 0.59508
N3 N 0.22100(19) 0.30912(16) 0.14751(16)
C3 C 0.4154(2) 0.1583(2) 0.5920(2)
H3 H 0.44277 0.17178 0.68787
C4 C 0.5185(2) 0.1833(2) 0.5070(2)
H4 H 0.61707 0.21170 0.54362
N4 N 0.07213(18) 0.09261(17) 0.17840(17)
H5 H 0.022(3) 0.026(3) 0.128(3)
C5 C 0.4742(2) 0.16592(19) 0.3677(2)
C6 C 0.5705(2) 0.1760(2) 0.2593(2)
H6 H 0.64123 0.25333 0.28366
H7 H 0.62835 0.09136 0.25168
C7 C 0.4630(2) 0.3440(2) 0.0944(2)
H8 H 0.45963 0.35192 -0.00450
H9 H 0.55129 0.39494 0.14285
C8 C 0.3246(2) 0.4030(2) 0.1384(2)
C9 C 0.2933(3) 0.5401(2) 0.1585(2)
H10 H 0.36666 0.60801 0.15556
C10 C 0.1518(3) 0.5755(2) 0.1832(2)
H11 H 0.12798 0.66888 0.19741
C11 C 0.0449(3) 0.4761(2) 0.1872(2)
H12 H -0.05252 0.50039 0.20197
C12 C 0.0833(2) 0.3411(2) 0.16924(19)
C13 C -0.0178(2) 0.2201(2) 0.1642(2)
H13 H -0.08641 0.21366 0.07670
H14 H -0.07793 0.23092 0.23882
C14 C 0.0912(2) 0.0431(2) 0.31951(19)
H15 H 0.00734 0.07428 0.36571
H16 H 0.09214 -0.05777 0.31490
Cl3 Cl 0.09984(6) 0.73551(5) 0.49171(6)
#END
