
#######################################################################
#
#                 Cambridge Crystallographic Data Centre
#                                CCDC
#
#######################################################################
#
# If this CIF has been generated from an entry in the Cambridge
# Structural Database, then it will include bibliographic, chemical,
# crystal, experimental, refinement or atomic coordinate data resulting
# from the CCDC's data processing and validation procedures.
#
#######################################################################

data_CSD_CIF_LOKXEQ
_audit_creation_date 2014-07-28
_audit_creation_method CSD-ConQuest-V1
_database_code_CSD LOKXEQ
_database_code_depnum_ccdc_archive 'CCDC 772999'
_chemical_formula_sum 'C14 H20 B2 Fe1 N2 O1'
_chemical_formula_moiety
;
C14 H20 B2 Fe1 N2 O1
;
_journal_coden_Cambridge 29
_journal_volume 636
_journal_year 2010
_journal_page_first 2329
_journal_name_full 'Z.Anorg.Allg.Chem. '
loop_
_publ_author_name
"A.Appel"
"H.Noth"
_chemical_name_systematic
;
1,1'-(1,3-bis(Di-isopropylamino)-2-oxa-1,3-diborane-1,3-diyl)ferrocene
;
_cell_volume    738.409
_exptl_crystal_colour 'orange'
_exptl_crystal_density_diffrn 1.393
_exptl_crystal_description 'cube'
_diffrn_ambient_temperature 222
#These two values have been output from a single CSD field.
_refine_ls_R_factor_gt 0.0309
_refine_ls_wR_factor_gt 0.0309
_symmetry_cell_setting monoclinic
_symmetry_space_group_name_H-M 'P 21'
_symmetry_Int_Tables_number 4
loop_
_symmetry_equiv_pos_site_id
_symmetry_equiv_pos_as_xyz
1 x,y,z
2 -x,1/2+y,-z
_cell_length_a 9.561(2)
_cell_length_b 7.522(1)
_cell_length_c 10.299(2)
_cell_angle_alpha 90
_cell_angle_beta 94.49(2)
_cell_angle_gamma 90
_cell_formula_units_Z 2
loop_
_atom_type_symbol
_atom_type_radius_bond
C 0.68
H 0.23
B 0.83
Fe 1.52
N 0.68
O 0.68
loop_
_atom_site_label
_atom_site_type_symbol
_atom_site_fract_x
_atom_site_fract_y
_atom_site_fract_z
Fe1 Fe 0.40074(3) 0.15486(5) 0.73820(3)
O1 O 0.0666(2) 0.1715(5) 0.8205(2)
N1 N 0.1229(3) 0.2111(3) 1.0472(2)
N2 N -0.0389(2) 0.1433(5) 0.6053(2)
B1 B 0.1653(3) 0.2165(5) 0.9206(3)
B2 B 0.0797(3) 0.1248(4) 0.6918(3)
C1 C 0.3185(3) 0.2744(4) 0.8915(3)
C2 C 0.3598(3) 0.4036(4) 0.7995(3)
H1 H 0.2982(3) 0.4871(4) 0.7536(3)
C3 C 0.5055(3) 0.3858(5) 0.7848(3)
H2 H 0.5586(3) 0.4547(5) 0.7275(3)
C4 C 0.5586(3) 0.2484(5) 0.8688(3)
H3 H 0.6537(3) 0.2065(5) 0.8781(3)
C5 C 0.4443(3) 0.1811(5) 0.9351(2)
H4 H 0.4499(3) 0.0849(5) 0.9965(2)
C6 C 0.2237(3) 0.0528(4) 0.6472(3)
C7 C 0.3080(3) 0.1316(5) 0.5536(2)
H5 H 0.2800(3) 0.2290(5) 0.4972(2)
C8 C 0.4416(3) 0.0474(5) 0.5604(3)
H6 H 0.5185(3) 0.0784(5) 0.5103(3)
C9 C 0.4422(3) -0.0862(5) 0.6552(3)
H7 H 0.5194(3) -0.1635(5) 0.6808(3)
C10 C 0.3085(3) -0.0843(4) 0.7098(3)
H8 H 0.2805(3) -0.1620(4) 0.7770(3)
C11 C 0.2080(4) 0.2723(5) 1.1618(3)
H9 H 0.2962(10) 0.3158(28) 1.1363(4)
H10 H 0.2243(19) 0.1754(9) 1.2218(10)
H11 H 0.1597(11) 0.3661(21) 1.2031(13)
C12 C -0.0182(3) 0.1561(8) 1.0767(3)
H12 H -0.0683(9) 0.257(1) 1.1065(23)
H13 H -0.0113(3) 0.0667(24) 1.1434(18)
H14 H -0.0675(10) 0.1087(32) 0.9996(7)
C13 C -0.1721(3) 0.2159(5) 0.6439(3)
H15 H -0.1588(7) 0.2622(29) 0.7309(9)
H16 H -0.2415(8) 0.1234(9) 0.6408(22)
H17 H -0.2030(13) 0.3096(22) 0.5852(14)
C14 C -0.0463(3) 0.0947(5) 0.4678(3)
H18 H 0.0411(9) 0.0424(27) 0.4479(6)
H19 H -0.0640(23) 0.1991(7) 0.4155(3)
H20 H -0.1208(16) 0.0107(23) 0.4496(5)
#END
