
#######################################################################
#
#                 Cambridge Crystallographic Data Centre
#                                CCDC
#
#######################################################################
#
# If this CIF has been generated from an entry in the Cambridge
# Structural Database, then it will include bibliographic, chemical,
# crystal, experimental, refinement or atomic coordinate data resulting
# from the CCDC's data processing and validation procedures.
#
#######################################################################

data_CSD_CIF_LOLKOO
_audit_creation_date 2014-07-28
_audit_creation_method CSD-ConQuest-V1
_database_code_CSD LOLKOO
_database_code_depnum_ccdc_archive 'CCDC 844528'
_chemical_formula_sum 'C16 H21 Fe1 I1 N2 O2'
_chemical_formula_moiety
;
C16 H21 Fe1 N2 O2 1+,I1 1-
;
_journal_coden_Cambridge 1303
_journal_volume 385
_journal_year 2014
_journal_page_first 98
_journal_name_full 'J.Mol.Catal.A:Chem. '
loop_
_publ_author_name
"M.D.Bala"
"M.I.Ikhile"
_chemical_name_systematic
;
(\h^5^-cyclopentadienyl)-(1,3-di(propan-2-yl)-1,3-dihydro-2H-imidazol-2-yliden
e)-dicarbonyl-iron iodide
;
_cell_volume    909.198
_exptl_crystal_colour 'colorless'
_exptl_crystal_density_diffrn 1.666
_exptl_crystal_description 'needle'
_diffrn_ambient_temperature 173
#These two values have been output from a single CSD field.
_refine_ls_R_factor_gt 0.0713
_refine_ls_wR_factor_gt 0.0713
_symmetry_cell_setting triclinic
_symmetry_space_group_name_H-M 'P -1'
_symmetry_Int_Tables_number 2
loop_
_symmetry_equiv_pos_site_id
_symmetry_equiv_pos_as_xyz
1 x,y,z
2 -x,-y,-z
_cell_length_a 9.0524(3)
_cell_length_b 10.2842(3)
_cell_length_c 10.2882(3)
_cell_angle_alpha 89.086(2)
_cell_angle_beta 75.128(2)
_cell_angle_gamma 79.328(2)
_cell_formula_units_Z 2
loop_
_atom_type_symbol
_atom_type_radius_bond
C 0.68
H 0.23
Fe 1.52
I 1.40
N 0.68
O 0.68
loop_
_atom_site_label
_atom_site_type_symbol
_atom_site_fract_x
_atom_site_fract_y
_atom_site_fract_z
C1 C 1.0295(11) 0.1518(8) 0.6757(10)
H1 H 0.99820 0.09450 0.62080
C2 C 1.0142(10) 0.1429(9) 0.8164(10)
H2 H 0.97170 0.07680 0.87140
C3 C 1.0710(11) 0.2459(10) 0.8611(9)
H3 H 1.07170 0.26380 0.95120
C4 C 1.1280(11) 0.3194(10) 0.7467(10)
H4 H 1.17630 0.39390 0.74650
C5 C 1.100(1) 0.2619(10) 0.6330(9)
H5 H 1.12440 0.29230 0.54370
C6 C 0.8253(10) 0.4311(8) 0.6533(8)
C7 C 0.8284(10) 0.4575(9) 0.9014(9)
C8 C 0.6931(9) 0.2572(7) 0.8324(7)
C9 C 0.4776(9) 0.1791(9) 0.8283(8)
H6 H 0.40190 0.14740 0.79490
C10 C 0.4748(9) 0.1949(8) 0.9576(8)
H7 H 0.39680 0.17710 1.03350
C11 C 0.6574(10) 0.2034(8) 0.6038(7)
H8 H 0.76110 0.23000 0.57070
C12 C 0.5410(12) 0.2953(11) 0.5445(9)
H9 H 0.53520 0.38700 0.57310
H10 H 0.43820 0.27130 0.57620
H11 H 0.57450 0.28690 0.44610
C13 C 0.6749(12) 0.0594(9) 0.5619(9)
H12 H 0.75260 0.00470 0.60070
H13 H 0.70870 0.04970 0.46360
H14 H 0.57470 0.03080 0.59440
C14 C 0.6527(10) 0.2620(8) 1.0864(7)
H15 H 0.75850 0.28560 1.06130
C15 C 0.5412(13) 0.3761(10) 1.1702(9)
H16 H 0.54040 0.45640 1.11770
H17 H 0.57460 0.39040 1.25140
H18 H 0.43630 0.35540 1.19600
C16 C 0.6635(12) 0.1332(9) 1.1606(9)
H19 H 0.74000 0.06410 1.10260
H20 H 0.56160 0.10670 1.18440
H21 H 0.69590 0.14580 1.24270
Fe1 Fe 0.88791(13) 0.32677(10) 0.77606(11)
O1 O 0.7872(9) 0.4993(7) 0.5756(7)
O2 O 0.7972(9) 0.5383(6) 0.9825(7)
N1 N 0.6110(8) 0.2176(6) 0.7523(6)
N2 N 0.6072(8) 0.2423(6) 0.9592(6)
I1 I 0.96675(11) 0.77459(8) 0.73693(8)
#END
