
#######################################################################
#
#                 Cambridge Crystallographic Data Centre
#                                CCDC
#
#######################################################################
#
# If this CIF has been generated from an entry in the Cambridge
# Structural Database, then it will include bibliographic, chemical,
# crystal, experimental, refinement or atomic coordinate data resulting
# from the CCDC's data processing and validation procedures.
#
#######################################################################

data_CSD_CIF_LOLSAG
_audit_creation_date 2000-12-08
_audit_creation_method CSD-ConQuest-V1
_database_code_CSD LOLSAG
_database_code_depnum_ccdc_archive 'CCDC 147520'
_database_code_depnum_ccdc_journal 186/1988
_chemical_formula_sum 'C10 H7 Br1 Cr1 O3'
_chemical_formula_moiety
;
C10 H7 Br1 Cr1 O3
;
_journal_coden_Cambridge 186
_journal_year 2000
_journal_page_first 2137
_journal_name_full 'J.Chem.Soc.,Dalton Trans. '
loop_
_publ_author_name
"A.M.Christofi"
"P.J.Garratt"
"G.Hogarth"
"J.W.Steed"
_chemical_name_systematic
;
Tricarbonyl-(\h^6^-bromomethylbenzene)-chromium
;
_chemical_melting_point 346.15
_cell_volume    552.409
_exptl_crystal_colour 'yellow'
_exptl_crystal_density_diffrn 1.846
_exptl_special_details
;
Melting point range 346.15-348.15K

;
_exptl_crystal_description 'Block'
_exptl_crystal_preparation 'diethyl ether/light petroleum'
_diffrn_ambient_temperature ?
_diffrn_special_details
;
The study was carried out at room temperature,in the range 283-303K

;
#These two values have been output from a single CSD field.
_refine_ls_R_factor_gt 0.0464
_refine_ls_wR_factor_gt 0.0464
_symmetry_cell_setting triclinic
_symmetry_space_group_name_H-M 'P -1'
_symmetry_Int_Tables_number 2
loop_
_symmetry_equiv_pos_site_id
_symmetry_equiv_pos_as_xyz
1 x,y,z
2 -x,-y,-z
_cell_length_a 6.772(1)
_cell_length_b 8.541(2)
_cell_length_c 9.622(2)
_cell_angle_alpha 83.31(3)
_cell_angle_beta 88.37(3)
_cell_angle_gamma 88.67(3)
_cell_formula_units_Z 2
loop_
_atom_type_symbol
_atom_type_radius_bond
C 0.74
H 0.23
Br 1.21
Cr 1.35
O 0.68
loop_
_atom_site_label
_atom_site_type_symbol
_atom_site_fract_x
_atom_site_fract_y
_atom_site_fract_z
Cr1 Cr -0.41460(9) -0.34152(8) 0.73458(6)
Br1 Br 0.04026(8) 0.10108(6) 0.78902(5)
O1 O -0.7134(6) -0.2199(6) 0.5250(5)
O2 O -0.6235(8) -0.6471(6) 0.7784(5)
O3 O -0.6763(7) -0.2322(6) 0.9607(5)
C1 C -0.5997(7) -0.2677(6) 0.6057(5)
C2 C -0.5436(8) -0.5298(7) 0.7623(5)
C3 C -0.5748(7) -0.2727(7) 0.8740(5)
C4 C -0.1520(7) -0.2996(6) 0.8551(5)
C5 C -0.1326(7) -0.4472(6) 0.8113(6)
C6 C -0.1481(7) -0.4692(6) 0.6705(6)
C7 C -0.1794(7) -0.3400(7) 0.5721(5)
C8 C -0.1971(7) -0.1899(5) 0.6141(5)
C9 C -0.1849(6) -0.1676(5) 0.7548(4)
C10 C -0.2118(8) -0.0076(6) 0.8000(6)
H1 H -0.09990 -0.28060 0.98640
H2 H -0.05180 -0.51420 0.86660
H3 H -0.12930 -0.57430 0.63760
H4 H -0.15400 -0.36000 0.50570
H5 H -0.19700 -0.08960 0.56530
H6 H -0.30880 0.05980 0.71620
H7 H -0.25160 -0.01210 0.87630
#END
