
#######################################################################
#
#                 Cambridge Crystallographic Data Centre
#                                CCDC
#
#######################################################################
#
# If this CIF has been generated from an entry in the Cambridge
# Structural Database, then it will include bibliographic, chemical,
# crystal, experimental, refinement or atomic coordinate data resulting
# from the CCDC's data processing and validation procedures.
#
#######################################################################

data_CSD_CIF_LOLTOV
_audit_creation_date 2000-12-08
_audit_creation_method CSD-ConQuest-V1
_database_code_CSD LOLTOV
_database_code_depnum_ccdc_archive 'CCDC 140665'
_chemical_formula_sum 'C10 H8 Br2 Mn1 N2 Se2'
_chemical_formula_moiety
;
C10 H8 Br2 Mn1 N2 Se2
;
_journal_coden_Cambridge 644
_journal_volume 55
_journal_year 2000
_journal_page_first 587
_journal_name_full 'Z.Naturforsch.,B:Chem.Sci. '
loop_
_publ_author_name
"C.O.Kienitz"
"C.Thone"
"P.G.Jones"
_chemical_name_systematic
;
Dibromo-(2,2'-dipyridyldiselenide-N,N')-manganese(ii)
;
_cell_volume    703.890
_exptl_crystal_colour 'yellow'
_exptl_crystal_density_diffrn 2.495
_exptl_special_details
;
isostructural with the zinc complex

;
_exptl_crystal_description 'block'
_exptl_crystal_preparation 'diethyl ether/acetone'
_diffrn_ambient_temperature 173
#These two values have been output from a single CSD field.
_refine_ls_R_factor_gt 0.035
_refine_ls_wR_factor_gt 0.035
_symmetry_cell_setting triclinic
_symmetry_space_group_name_H-M 'P -1'
_symmetry_Int_Tables_number 2
loop_
_symmetry_equiv_pos_site_id
_symmetry_equiv_pos_as_xyz
1 x,y,z
2 -x,-y,-z
_cell_length_a 8.1085(8)
_cell_length_b 8.4031(10)
_cell_length_c 12.2628(14)
_cell_angle_alpha 94.325(8)
_cell_angle_beta 108.283(8)
_cell_angle_gamma 114.111(8)
_cell_formula_units_Z 2
loop_
_atom_type_symbol
_atom_type_radius_bond
C 0.68
H 0.23
Br 1.21
Mn 1.35
N 0.68
Se 1.22
loop_
_atom_site_label
_atom_site_type_symbol
_atom_site_fract_x
_atom_site_fract_y
_atom_site_fract_z
Mn1 Mn 0.80959(15) 1.00923(14) 0.77617(9)
Br1 Br 0.50930(11) 0.74260(9) 0.76363(6)
Br2 Br 1.12649(11) 1.01385(10) 0.87817(7)
Se1 Se 1.00701(11) 1.41045(10) 0.73427(7)
Se2 Se 0.77281(12) 1.28034(10) 0.54352(6)
N1 N 0.7581(8) 1.2201(7) 0.8462(5)
C1 C 0.8467(9) 1.3831(9) 0.8250(6)
C2 C 0.8342(10) 1.5308(9) 0.8738(6)
H1 H 0.89560 1.64430 0.85740
C3 C 0.7301(11) 1.5088(10) 0.9469(6)
H2 H 0.72210 1.60840 0.98250
C4 C 0.638(1) 1.3418(10) 0.9682(6)
H3 H 0.56560 1.32410 1.01770
C5 C 0.6555(10) 1.2006(9) 0.9142(6)
H4 H 0.59080 1.08480 0.92680
N2 N 0.7710(8) 0.9511(7) 0.5905(5)
C6 C 0.7587(10) 1.0472(9) 0.5085(6)
C7 C 0.7312(10) 0.9811(10) 0.3929(6)
H5 H 0.72860 1.05410 0.33760
C8 C 0.7081(11) 0.8123(10) 0.3588(7)
H6 H 0.68660 0.76520 0.28000
C9 C 0.7172(11) 0.7134(10) 0.4426(7)
H7 H 0.69910 0.59470 0.42120
C10 C 0.7518(10) 0.7834(9) 0.5567(6)
H8 H 0.76280 0.71390 0.61370
#END
