
#######################################################################
#
#                 Cambridge Crystallographic Data Centre
#                                CCDC
#
#######################################################################
#
# If this CIF has been generated from an entry in the Cambridge
# Structural Database, then it will include bibliographic, chemical,
# crystal, experimental, refinement or atomic coordinate data resulting
# from the CCDC's data processing and validation procedures.
#
#######################################################################

data_CSD_CIF_LOPLUX
_audit_creation_date 2000-12-08
_audit_creation_method CSD-ConQuest-V1
_database_code_CSD LOPLUX
_database_code_depnum_ccdc_archive 'CCDC 150620'
_database_code_depnum_ccdc_journal 186/2093
_chemical_formula_sum 'C12 H7 Fe1 N1 O3 S3'
_chemical_formula_moiety
;
C12 H7 Fe1 N1 O3 S3
;
_journal_coden_Cambridge 186
_journal_year 2000
_journal_page_first 3016
_journal_name_full 'J.Chem.Soc.,Dalton Trans. '
loop_
_publ_author_name
"H.G.Raubenheimer"
"E.K.Marais"
"S.Cronje"
"C.Esterhuysen"
"G.J.Kruger"
_chemical_name_systematic
;
Tricarbonyl-(2-(methyldithiocarboxylato)-1,3-benzothiazole-N,S)-iron(0)
;
_chemical_melting_point 360.15
_cell_volume    729.710
_exptl_crystal_colour 'dark blue'
_exptl_crystal_density_diffrn 1.662
_exptl_special_details
;
Melts with decomposition.

;
_exptl_crystal_description 'plate'
_diffrn_ambient_temperature ?
_diffrn_special_details
;
The study was carried out at room temperature,in the range 283-303K

;
#These two values have been output from a single CSD field.
_refine_ls_R_factor_gt 0.031
_refine_ls_wR_factor_gt 0.031
_symmetry_cell_setting monoclinic
_symmetry_space_group_name_H-M 'P 21'
_symmetry_Int_Tables_number 4
loop_
_symmetry_equiv_pos_site_id
_symmetry_equiv_pos_as_xyz
1 x,y,z
2 -x,1/2+y,-z
_cell_length_a 9.312(2)
_cell_length_b 7.317(3)
_cell_length_c 10.741(4)
_cell_angle_alpha 90
_cell_angle_beta 94.38(2)
_cell_angle_gamma 90
_cell_formula_units_Z 2
loop_
_atom_type_symbol
_atom_type_radius_bond
C 0.68
H 0.23
Fe 1.34
N 0.68
O 0.68
S 1.02
loop_
_atom_site_label
_atom_site_type_symbol
_atom_site_fract_x
_atom_site_fract_y
_atom_site_fract_z
Fe1 Fe 0.7510(1) 0.2449(1) 0.7534(1)
S1 S 0.9358(1) 0.2473(2) 0.8925(1)
S2 S 1.1580(1) 0.2452(2) 0.5605(1)
S3 S 1.2553(2) 0.2383(1) 0.8571(1)
O1 O 0.5797(4) -0.0542(3) 0.6337(4)
O2 O 0.5884(3) 0.2794(3) 0.9718(3)
O3 O 0.5897(3) 0.5545(3) 0.6546(4)
N1 N 0.8980(4) 0.2540(4) 0.6326(4)
C1 C 0.6504(4) 0.0548(3) 0.6802(4)
C2 C 0.6481(4) 0.2635(4) 0.8835(5)
C3 C 0.6521(5) 0.4304(4) 0.6899(5)
C4 C 1.0370(4) 0.2511(4) 0.6744(4)
C5 C 1.0145(4) 0.2452(3) 0.4480(5)
C6 C 0.8834(5) 0.2448(4) 0.5018(5)
C7 C 0.7553(4) 0.2544(4) 0.4263(4)
H1 H 0.66760 0.26890 0.46110
C8 C 0.7615(4) 0.2421(3) 0.2999(4)
H2 H 0.67810 0.21850 0.24920
C9 C 0.8924(5) 0.2648(4) 0.2462(5)
H3 H 0.89310 0.28230 0.16050
C10 C 1.0204(4) 0.2614(3) 0.3195(5)
H4 H 1.10820 0.26970 0.28410
C11 C 1.0750(5) 0.2470(3) 0.8020(5)
C12 C 1.2462(4) 0.2585(4) 1.0184(5)
H5 H 1.33660 0.22270 1.06020
H6 H 1.17110 0.18090 1.04470
H7 H 1.22590 0.38310 1.03890
#END
