
#######################################################################
#
#                 Cambridge Crystallographic Data Centre
#                                CCDC
#
#######################################################################
#
# If this CIF has been generated from an entry in the Cambridge
# Structural Database, then it will include bibliographic, chemical,
# crystal, experimental, refinement or atomic coordinate data resulting
# from the CCDC's data processing and validation procedures.
#
#######################################################################

data_CSD_CIF_LORBUQ
_audit_creation_date 2009-06-04
_audit_creation_method CSD-ConQuest-V1
_database_code_CSD LORBUQ
_database_code_depnum_ccdc_archive 'CCDC 697290'
_chemical_formula_sum 'C8 H9 Cr1 O5 Sb1'
_chemical_formula_moiety
;
C8 H9 Cr1 O5 Sb1
;
_journal_coden_Cambridge 36
_journal_volume 694
_journal_year 2009
_journal_page_first 427
_journal_name_full 'J.Organomet.Chem. '
loop_
_publ_author_name
"H.J.Breunig"
"T.Borrmann"
"E.Lork"
"O.Moldovan"
"C.I.Rat"
"R.P.Wagner"
_chemical_name_systematic
;
Pentacarbonyl-trimethyl-antimony-chromium
;
_chemical_melting_point 347.15
_cell_volume    616.265
_exptl_crystal_colour 'yellow'
_exptl_crystal_density_diffrn 1.934
_exptl_crystal_description 'block'
_exptl_crystal_preparation 'sublimation'
_diffrn_ambient_temperature 173
#These two values have been output from a single CSD field.
_refine_ls_R_factor_gt 0.0197
_refine_ls_wR_factor_gt 0.0197
_symmetry_cell_setting monoclinic
_symmetry_space_group_name_H-M 'P 21'
_symmetry_Int_Tables_number 4
loop_
_symmetry_equiv_pos_site_id
_symmetry_equiv_pos_as_xyz
1 x,y,z
2 -x,1/2+y,-z
_cell_length_a 6.5688(11)
_cell_length_b 13.633(2)
_cell_length_c 6.8871(12)
_cell_angle_alpha 90
_cell_angle_beta 92.289(11)
_cell_angle_gamma 90
_cell_formula_units_Z 2
loop_
_atom_type_symbol
_atom_type_radius_bond
C 0.68
H 0.23
Cr 1.35
O 0.68
Sb 1.46
loop_
_atom_site_label
_atom_site_type_symbol
_atom_site_fract_x
_atom_site_fract_y
_atom_site_fract_z
C1 C 0.3899(6) 0.3433(3) 0.7438(5)
C2 C 0.0451(6) 0.4403(3) 0.6465(5)
C3 C 0.4088(6) 0.5096(3) 0.5316(5)
C4 C 0.5518(6) 0.5046(3) 0.9007(5)
C5 C 0.1888(6) 0.4408(3) 1.0143(5)
C6 C 0.0702(6) 0.6910(3) 1.0968(5)
H1 H 0.02700 0.75980 1.09510
H2 H 0.18290 0.68230 1.19290
H3 H -0.04430 0.64920 1.13130
C7 C -0.0876(6) 0.6919(3) 0.6336(6)
H4 H -0.10840 0.76290 0.64210
H5 H -0.20940 0.65780 0.67600
H6 H -0.06260 0.67390 0.49880
C8 C 0.3698(7) 0.7686(3) 0.7633(6)
H7 H 0.40460 0.76840 0.62620
H8 H 0.49420 0.76110 0.84530
H9 H 0.30360 0.83080 0.79410
O1 O 0.4456(6) 0.2640(2) 0.7292(5)
O2 O -0.1085(5) 0.4191(2) 0.5750(5)
O3 O 0.4754(5) 0.5325(3) 0.3865(4)
O4 O 0.7047(5) 0.5222(3) 0.9750(5)
O5 O 0.1192(5) 0.4220(2) 1.1598(4)
Cr1 Cr 0.29960(8) 0.47152(4) 0.77256(8)
Sb1 Sb 0.16847(3) 0.650660(15) 0.81593(2)
#END
