
#######################################################################
#
#                 Cambridge Crystallographic Data Centre
#                                CCDC
#
#######################################################################
#
# If this CIF has been generated from an entry in the Cambridge
# Structural Database, then it will include bibliographic, chemical,
# crystal, experimental, refinement or atomic coordinate data resulting
# from the CCDC's data processing and validation procedures.
#
#######################################################################

data_CSD_CIF_LORCEB
_audit_creation_date 2009-06-04
_audit_creation_method CSD-ConQuest-V1
_database_code_CSD LORCEB
_database_code_depnum_ccdc_archive 'CCDC 697292'
_chemical_formula_sum 'C8 H9 Bi1 Cr1 O5'
_chemical_formula_moiety
;
C8 H9 Bi1 Cr1 O5
;
_journal_coden_Cambridge 36
_journal_volume 694
_journal_year 2009
_journal_page_first 427
_journal_name_full 'J.Organomet.Chem. '
loop_
_publ_author_name
"H.J.Breunig"
"T.Borrmann"
"E.Lork"
"O.Moldovan"
"C.I.Rat"
"R.P.Wagner"
_chemical_name_systematic
;
Pentacarbonyl-trimethyl-bismuth-chromium
;
_chemical_melting_point 328.15
_cell_volume    625.942
_exptl_crystal_colour 'colorless'
_exptl_crystal_density_diffrn 2.367
_exptl_special_details
;
air-sensitive

;
_exptl_crystal_description 'block'
_exptl_crystal_preparation 'petroleum ether'
_diffrn_ambient_temperature 173
#These two values have been output from a single CSD field.
_refine_ls_R_factor_gt 0.0454
_refine_ls_wR_factor_gt 0.0454
_symmetry_cell_setting monoclinic
_symmetry_space_group_name_H-M 'P 21'
_symmetry_Int_Tables_number 4
loop_
_symmetry_equiv_pos_site_id
_symmetry_equiv_pos_as_xyz
1 x,y,z
2 -x,1/2+y,-z
_cell_length_a 6.544(2)
_cell_length_b 13.935(7)
_cell_length_c 6.868(3)
_cell_angle_alpha 90
_cell_angle_beta 91.93(3)
_cell_angle_gamma 90
_cell_formula_units_Z 2
loop_
_atom_type_symbol
_atom_type_radius_bond
C 0.68
H 0.23
Bi 1.54
Cr 1.35
O 0.68
loop_
_atom_site_label
_atom_site_type_symbol
_atom_site_fract_x
_atom_site_fract_y
_atom_site_fract_z
C1 C 0.0965(16) 0.883(1) 0.7694(19)
C2 C -0.0625(17) 0.7261(9) 0.6065(18)
C3 C 0.0845(17) 0.7168(9) 0.975(2)
C4 C 0.4474(18) 0.7905(10) 0.859(2)
C5 C 0.3008(18) 0.7928(9) 0.491(2)
C6 C 0.446(2) 0.5431(10) 0.3814(17)
H1 H 0.37300 0.58240 0.28300
H2 H 0.42020 0.47510 0.35420
H3 H 0.59270 0.55600 0.37740
C7 C 0.142(2) 0.4522(10) 0.727(3)
H4 H 0.22990 0.39590 0.74760
H5 H 0.05110 0.44150 0.61260
H6 H 0.06080 0.46280 0.84170
C8 C 0.608(2) 0.5394(11) 0.857(2)
H7 H 0.56470 0.51010 0.97890
H8 H 0.68910 0.59700 0.88710
H9 H 0.69050 0.49350 0.78590
O1 O 0.0392(17) 0.9606(7) 0.7822(18)
O2 O -0.2174(14) 0.7118(8) 0.5289(16)
O3 O 0.0151(17) 0.6975(8) 1.1199(16)
O4 O 0.5968(13) 0.8112(7) 0.9318(17)
O5 O 0.3651(15) 0.8147(8) 0.3480(15)
Cr1 Cr 0.1906(2) 0.75858(13) 0.7333(3)
Bi1 Bi 0.33464(4) 0.57949(5) 0.67650(5)
#END
