
#######################################################################
#
#                 Cambridge Crystallographic Data Centre
#                                CCDC
#
#######################################################################
#
# If this CIF has been generated from an entry in the Cambridge
# Structural Database, then it will include bibliographic, chemical,
# crystal, experimental, refinement or atomic coordinate data resulting
# from the CCDC's data processing and validation procedures.
#
#######################################################################

data_CSD_CIF_LORLOU
_audit_creation_date 2009-06-04
_audit_creation_method CSD-ConQuest-V1
_database_code_CSD LORLOU
_database_code_depnum_ccdc_archive 'CCDC 700001'
_chemical_formula_sum 'C12 H8 Cl3 Fe1 N2 S1'
_chemical_formula_moiety
;
C12 H8 Cl3 Fe1 N2 S1
;
_journal_coden_Cambridge 369
_journal_volume 34
_journal_year 2009
_journal_page_first 85
_journal_name_full 'Transition Met.Chem. '
loop_
_publ_author_name
"K.Marjani"
"M.Mousavi"
"D.L.Hughes"
_chemical_name_systematic
;
Trichloro-(2-(2-pyridyl-N)-1,3-benzothiazole-N)-iron(iii)
;
_chemical_melting_point 553.15
_cell_volume    711.571
_exptl_crystal_colour 'red'
_exptl_crystal_density_diffrn 1.748
_exptl_special_details
;
Melting point range 553.15-556.15K

;
_exptl_crystal_description 'block'
_diffrn_ambient_temperature 293
#These two values have been output from a single CSD field.
_refine_ls_R_factor_gt 0.0257
_refine_ls_wR_factor_gt 0.0257
_symmetry_cell_setting monoclinic
_symmetry_space_group_name_H-M 'P 21/m'
_symmetry_Int_Tables_number 11
loop_
_symmetry_equiv_pos_site_id
_symmetry_equiv_pos_as_xyz
1 x,y,z
2 -x,1/2+y,-z
3 -x,-y,-z
4 x,-1/2-y,z
_cell_length_a 8.8805(2)
_cell_length_b 7.1367(2)
_cell_length_c 11.5118(3)
_cell_angle_alpha 90
_cell_angle_beta 102.760(2)
_cell_angle_gamma 90
_cell_formula_units_Z 2
loop_
_atom_type_symbol
_atom_type_radius_bond
C 0.68
H 0.23
Cl 0.99
Fe 1.34
N 0.68
S 1.02
loop_
_atom_site_label
_atom_site_type_symbol
_atom_site_fract_x
_atom_site_fract_y
_atom_site_fract_z
Fe1 Fe 0.37782(4) 0.25000 0.80396(3)
N1 N 0.4521(2) 0.25000 0.63641(17)
C1 C 0.3732(3) 0.25000 0.5178(2)
C2 C 0.4703(3) 0.25000 0.4373(2)
C3 C 0.4112(3) 0.25000 0.3145(2)
H1 H 0.47580 0.25000 0.26100
C4 C 0.2533(3) 0.25000 0.2760(3)
H2 H 0.21050 0.25000 0.19470
C5 C 0.1552(3) 0.25000 0.3558(2)
H3 H 0.04890 0.25000 0.32650
C6 C 0.2132(3) 0.25000 0.4762(2)
H4 H 0.14770 0.25000 0.52910
C7 C 0.6019(3) 0.25000 0.6451(2)
S1 S 0.66209(7) 0.25000 0.51347(6)
N2 N 0.6267(2) 0.25000 0.85292(17)
C8 C 0.7038(3) 0.25000 0.7643(2)
C9 C 0.8627(3) 0.25000 0.7836(3)
H5 H 0.91180 0.25000 0.72010
C10 C 0.9475(3) 0.25000 0.9006(3)
H6 H 1.05490 0.25000 0.91710
C11 C 0.8704(3) 0.25000 0.9908(3)
H7 H 0.92510 0.25000 1.06960
C12 C 0.7105(3) 0.25000 0.9649(2)
H8 H 0.65970 0.25000 1.02740
Cl1 Cl 0.23892(6) -0.00428(7) 0.74692(5)
Cl2 Cl 0.36615(8) 0.25000 0.99776(6)
Cl1C Cl 0.23892(6) 0.50428(7) 0.74692(5)
#END
