
#######################################################################
#
#                 Cambridge Crystallographic Data Centre
#                                CCDC
#
#######################################################################
#
# If this CIF has been generated from an entry in the Cambridge
# Structural Database, then it will include bibliographic, chemical,
# crystal, experimental, refinement or atomic coordinate data resulting
# from the CCDC's data processing and validation procedures.
#
#######################################################################

data_CSD_CIF_LOVPIY
_audit_creation_date 2019-11-01
_audit_creation_method CSD-ConQuest-V1
_database_code_CSD LOVPIY
_database_code_depnum_ccdc_archive 'CCDC 1963114'
_chemical_formula_sum 'C11 H21 Cl3 Cr1 N1'
_chemical_formula_moiety
;
C6 H16 N1 1+,C5 H5 Cl3 Cr1 1-
;
_journal_coden_Cambridge 1078
_journal_year 2019
_journal_name_full 'CSD Communication(Private Communication) '
loop_
_publ_author_name
"A.L.Rheingold"
"K.H.Theopold"
_chemical_name_systematic
;
triethylammonium trichloro-(cyclopentadienyl)-chromium
;
_cell_volume    765.610
_exptl_crystal_colour 'blue'
_exptl_crystal_density_diffrn 1.413
_exptl_special_details
;
Department of Chemistry, University of California, San Diego, 9500 Gilman 
Drive, La Jolla, CA, 92093, USA
;
_exptl_crystal_description 'plate'
_diffrn_ambient_temperature 173.2
#These two values have been output from a single CSD field.
_refine_ls_R_factor_gt 0.0409
_refine_ls_wR_factor_gt 0.0409
_symmetry_cell_setting triclinic
_symmetry_space_group_name_H-M 'P -1'
_symmetry_Int_Tables_number 2
loop_
_symmetry_equiv_pos_site_id
_symmetry_equiv_pos_as_xyz
1 x,y,z
2 -x,-y,-z
_cell_length_a 8.8702(7)
_cell_length_b 9.1755(8)
_cell_length_c 11.1462(11)
_cell_angle_alpha 69.919(6)
_cell_angle_beta 74.388(6)
_cell_angle_gamma 65.296(5)
_cell_formula_units_Z 2
loop_
_atom_type_symbol
_atom_type_radius_bond
C 0.68
H 0.23
Cl 0.99
Cr 1.39
N 0.68
loop_
_atom_site_label
_atom_site_type_symbol
_atom_site_fract_x
_atom_site_fract_y
_atom_site_fract_z
Cr1 Cr 0.75004(5) 0.77159(6) 0.86888(4)
Cl1 Cl 0.96596(9) 0.65334(9) 0.72266(7)
Cl2 Cl 0.61800(8) 1.00299(9) 0.71538(7)
Cl3 Cl 0.89167(9) 0.88883(9) 0.93501(7)
C1 C 0.5836(4) 0.7423(4) 1.0581(3)
H1 H 0.54245 0.81774 1.11605
C2 C 0.7290(4) 0.5981(5) 1.0644(3)
H2 H 0.80918 0.55284 1.12786
C3 C 0.7337(4) 0.5228(4) 0.9735(3)
H3 H 0.81840 0.41379 0.96015
C4 C 0.5943(4) 0.6208(4) 0.9093(3)
H4 H 0.56126 0.59313 0.84322
C5 C 0.5000(4) 0.7542(4) 0.9636(3)
H5 H 0.38865 0.83983 0.94198
N1 N 0.9466(3) 0.8967(3) 0.3139(2)
H6 H 0.981(4) 0.946(4) 0.242(3)
C6 C 0.8418(4) 0.8159(4) 0.2948(3)
H7 H 0.74768 0.90306 0.24981
H8 H 0.91107 0.74104 0.23843
C7 C 0.7718(4) 0.7176(4) 0.4184(3)
H9 H 0.70495 0.66837 0.39929
H10 H 0.86416 0.62911 0.46270
H11 H 0.70063 0.79129 0.47409
C8 C 0.8519(4) 1.0220(4) 0.3895(3)
H12 H 0.92856 1.07141 0.39599
H13 H 0.81306 0.96508 0.47810
C9 C 0.7017(4) 1.1602(4) 0.3310(4)
H14 H 0.64492 1.23825 0.38500
H15 H 0.73927 1.21908 0.24397
H16 H 0.62367 1.11266 0.32615
C10 C 1.1010(4) 0.7763(4) 0.3716(3)
H17 H 1.06749 0.71239 0.45909
H18 H 1.16282 0.83916 0.38085
C11 C 1.2159(4) 0.6569(4) 0.2930(3)
H19 H 1.31438 0.58158 0.33574
H20 H 1.15653 0.59216 0.28517
H21 H 1.25193 0.71903 0.20686
#END
