
#######################################################################
#
#                 Cambridge Crystallographic Data Centre
#                                CCDC
#
#######################################################################
#
# If this CIF has been generated from an entry in the Cambridge
# Structural Database, then it will include bibliographic, chemical,
# crystal, experimental, refinement or atomic coordinate data resulting
# from the CCDC's data processing and validation procedures.
#
#######################################################################

data_CSD_CIF_LOVSOH
_audit_creation_date 2019-11-01
_audit_creation_method CSD-ConQuest-V1
_database_code_CSD LOVSOH
_database_code_depnum_ccdc_archive 'CCDC 1963153'
_chemical_formula_sum 'C13 H17 Cl2 Cr1 N2'
_chemical_formula_moiety
;
C13 H17 Cl2 Cr1 N2
;
_journal_coden_Cambridge 1078
_journal_year 2019
_journal_name_full 'CSD Communication(Private Communication) '
loop_
_publ_author_name
"A.L.Rheingold"
"K.H.Theopold"
_chemical_name_systematic
;
dichloro-(8-methyl-8-azabicyclo[3.2.1]oct-3-en-2-ido)-(pyridine)-chromium
;
_cell_volume    701.194
_exptl_crystal_colour 'red'
_exptl_crystal_density_diffrn 1.535
_exptl_special_details
;
Department of Chemistry, University of California, San Diego, 9500 Gilman 
Drive, La Jolla, CA, 92093, USA
;
_exptl_crystal_description 'plate'
_diffrn_ambient_temperature 173.2
#These two values have been output from a single CSD field.
_refine_ls_R_factor_gt 0.0361
_refine_ls_wR_factor_gt 0.0361
_symmetry_cell_setting triclinic
_symmetry_space_group_name_H-M 'P -1'
_symmetry_Int_Tables_number 2
loop_
_symmetry_equiv_pos_site_id
_symmetry_equiv_pos_as_xyz
1 x,y,z
2 -x,-y,-z
_cell_length_a 8.0948(3)
_cell_length_b 9.0099(3)
_cell_length_c 10.4563(4)
_cell_angle_alpha 67.635(1)
_cell_angle_beta 87.183(1)
_cell_angle_gamma 83.877(1)
_cell_formula_units_Z 2
loop_
_atom_type_symbol
_atom_type_radius_bond
C 0.68
H 0.23
Cl 0.99
Cr 1.39
N 0.68
loop_
_atom_site_label
_atom_site_type_symbol
_atom_site_fract_x
_atom_site_fract_y
_atom_site_fract_z
Cr1 Cr 0.31054(5) 1.28958(4) 0.26340(4)
Cl1 Cl 0.22047(8) 1.15046(8) 0.49003(6)
Cl2 Cl 0.13712(8) 1.52972(8) 0.19076(8)
N1 N 0.1644(3) 1.1769(3) 0.1799(2)
N2 N 0.5040(3) 1.3838(3) 0.3292(2)
C1 C 0.4403(3) 1.0677(3) 0.2404(3)
C2 C 0.4962(3) 1.2014(4) 0.1343(3)
C3 C 0.3828(3) 1.3128(4) 0.0432(3)
C4 C 0.2149(3) 1.2579(3) 0.0314(3)
C5 C 0.2243(4) 1.1247(4) -0.0276(3)
C6 C 0.2649(4) 0.9662(4) 0.0981(3)
C7 C 0.2711(3) 1.0195(3) 0.2214(3)
C8 C -0.0152(3) 1.1623(4) 0.2020(4)
C9 C 0.6383(3) 1.2849(3) 0.3918(3)
C10 C 0.7715(3) 1.3386(4) 0.4344(3)
C11 C 0.7656(4) 1.4989(4) 0.4159(3)
C12 C 0.6278(4) 1.6000(4) 0.3553(3)
C13 C 0.5009(3) 1.5397(3) 0.3121(3)
H1 H 0.512(4) 0.994(4) 0.314(4)
H2 H 0.600(4) 1.229(4) 0.133(3)
H3 H 0.412(4) 1.404(4) -0.023(4)
H4 H 0.141(4) 1.344(4) -0.010(3)
H5 H 0.308(5) 1.138(4) -0.093(4)
H6 H 0.123(5) 1.127(4) -0.070(4)
H7 H 0.366(5) 0.915(4) 0.088(4)
H8 H 0.187(4) 0.896(4) 0.112(3)
H9 H 0.231(3) 0.948(3) 0.306(3)
H10 H -0.037(5) 1.112(5) 0.292(4)
H11 H -0.071(5) 1.269(5) 0.177(4)
H12 H -0.055(5) 1.111(5) 0.149(4)
H13 H 0.636(3) 1.184(4) 0.409(3)
H14 H 0.858(5) 1.269(4) 0.474(4)
H15 H 0.848(5) 1.536(4) 0.442(4)
H16 H 0.621(4) 1.707(5) 0.347(4)
H17 H 0.407(4) 1.598(4) 0.270(3)
#END
