
#######################################################################
#
#                 Cambridge Crystallographic Data Centre
#                                CCDC
#
#######################################################################
#
# If this CIF has been generated from an entry in the Cambridge
# Structural Database, then it will include bibliographic, chemical,
# crystal, experimental, refinement or atomic coordinate data resulting
# from the CCDC's data processing and validation procedures.
#
#######################################################################

data_CSD_CIF_LOZHAL
_audit_creation_date 2015-01-12
_audit_creation_method CSD-ConQuest-V1
_database_code_CSD LOZHAL
_database_code_depnum_ccdc_archive 'CCDC 1026758'
_chemical_formula_sum 'C12 H24 Cl2 Mn1 N8 O4'
_chemical_formula_moiety
;
C12 H24 Cl2 Mn1 N8 O4
;
_journal_coden_Cambridge 580
_journal_volume 88
_journal_year 2015
_journal_page_first 19
_journal_name_full 'Polyhedron '
loop_
_publ_author_name
"D.J.DAmico"
"M.A.McDougal"
"D.S.Amenta"
"J.W.Gilje"
"Sida Wang"
"C.G.Hrib"
"F.T.Edelmann"
_chemical_name_systematic
;
Dichloro-bis(methanol)-bis(3-(1H-1,2,4-triazol-1-yl)propanamide)-manganese(ii)
;
_cell_volume    504.725
_exptl_crystal_density_diffrn 1.547
_exptl_crystal_description 'prism'
_diffrn_ambient_temperature 153
#These two values have been output from a single CSD field.
_refine_ls_R_factor_gt 0.0377
_refine_ls_wR_factor_gt 0.0377
_symmetry_cell_setting triclinic
_symmetry_space_group_name_H-M 'P -1'
_symmetry_Int_Tables_number 2
loop_
_symmetry_equiv_pos_site_id
_symmetry_equiv_pos_as_xyz
1 x,y,z
2 -x,-y,-z
_cell_length_a 7.2492(14)
_cell_length_b 7.7554(16)
_cell_length_c 10.110(2)
_cell_angle_alpha 102.92(3)
_cell_angle_beta 107.69(3)
_cell_angle_gamma 101.75(3)
_cell_formula_units_Z 1
loop_
_atom_type_symbol
_atom_type_radius_bond
C 0.68
H 0.23
Cl 0.99
Mn 1.61
N 0.68
O 0.68
loop_
_atom_site_label
_atom_site_type_symbol
_atom_site_fract_x
_atom_site_fract_y
_atom_site_fract_z
Mn1 Mn -0.50000 -1.00000 0.50000
Cl1 Cl -0.62930(7) -0.98470(6) 0.24708(5)
O1 O 0.2495(2) -0.4598(2) 0.96865(17)
O2 O -0.2500(2) -1.1101(2) 0.46804(17)
H1 H -0.223(5) -1.177(5) 0.525(4)
N1 N -0.1319(2) -0.4237(2) 0.72688(18)
N2 N -0.3074(3) -0.7009(2) 0.58114(19)
N3 N -0.1844(3) -0.4059(2) 0.59010(19)
N4 N 0.5044(3) -0.3214(3) 0.9089(2)
H2 H 0.552(5) -0.237(5) 0.872(4)
H3 H 0.574(4) -0.385(4) 0.942(3)
C1 C -0.2050(3) -0.5983(3) 0.7194(2)
H4 H -0.18680 -0.64350 0.80090
C2 C -0.2896(3) -0.5761(3) 0.5071(2)
H5 H -0.34830 -0.60890 0.40390
C3 C -0.0081(3) -0.2645(3) 0.8549(2)
H6 H -0.01600 -0.29440 0.94360
H7 H -0.06250 -0.15830 0.84800
C4 C 0.2103(3) -0.2111(3) 0.8680(2)
H8 H 0.27970 -0.08510 0.93760
H9 H 0.21550 -0.20750 0.77190
C5 C 0.3225(3) -0.3428(3) 0.9192(2)
C6 C -0.2284(4) -1.1871(3) 0.3334(3)
H10 H -0.33440 -1.30490 0.27900
H11 H -0.09520 -1.20810 0.35320
H12 H -0.24060 -1.10110 0.27570
Cl1A Cl -0.37070(7) -1.01530(6) 0.75292(5)
O1A O -1.2495(2) -1.5402(2) 0.03135(17)
O2A O -0.7500(2) -0.8899(2) 0.53196(17)
H1A H -0.777(5) -0.823(5) 0.475(4)
N1A N -0.8681(2) -1.5763(2) 0.27312(18)
N2A N -0.6926(3) -1.2991(2) 0.41886(19)
N3A N -0.8156(3) -1.5941(2) 0.40990(19)
N4A N -1.5044(3) -1.6786(3) 0.0911(2)
H2A H -1.552(5) -1.763(5) 0.128(4)
H3A H -1.574(4) -1.615(4) 0.058(3)
C1A C -0.7950(3) -1.4017(3) 0.2806(2)
H4A H -0.81320 -1.35650 0.19910
C2A C -0.7104(3) -1.4239(3) 0.4929(2)
H5A H -0.65170 -1.39110 0.59610
C3A C -0.9919(3) -1.7355(3) 0.1451(2)
H6A H -0.98400 -1.70560 0.05640
H7A H -0.93750 -1.84170 0.15200
C4A C -1.2103(3) -1.7889(3) 0.1320(2)
H8A H -1.27970 -1.91490 0.06240
H9A H -1.21550 -1.79250 0.22810
C5A C -1.3225(3) -1.6572(3) 0.0808(2)
C6A C -0.7716(4) -0.8129(3) 0.6666(3)
H10A H -0.66560 -0.69510 0.72100
H11A H -0.90480 -0.79190 0.64680
H12A H -0.75940 -0.89890 0.72430
#END
