
#######################################################################
#
#                 Cambridge Crystallographic Data Centre
#                                CCDC
#
#######################################################################
#
# If this CIF has been generated from an entry in the Cambridge
# Structural Database, then it will include bibliographic, chemical,
# crystal, experimental, refinement or atomic coordinate data resulting
# from the CCDC's data processing and validation procedures.
#
#######################################################################

data_CSD_CIF_LOZLOD
_audit_creation_date 2015-01-12
_audit_creation_method CSD-ConQuest-V1
_database_code_CSD LOZLOD
_database_code_depnum_ccdc_archive 'CCDC 752028'
_chemical_formula_sum 'C18 H22 Co1 N8 O10'
_chemical_formula_moiety
;
C12 H16 Co1 N8 O2 2+,2(C3 H3 O4 1-)
;
_journal_coden_Cambridge 580
_journal_volume 88
_journal_year 2015
_journal_page_first 199
_journal_name_full 'Polyhedron '
loop_
_publ_author_name
"Min Liu"
"Yu-Ping Yang"
"Yong-Sheng Yang"
"Qi-Ming Qiu"
"Qiong-Hua Jin"
"Qing-Xuan Meng"
"Hua Chen"
"Wei Yang"
"Yong-Cheng Dai"
"Li-Jun Xu"
_chemical_name_systematic
;
diaqua-bis(1H,1'H-2,2'-biimidazole)-cobalt(ii) bis(carboxyacetate)
;
_cell_volume    575.781
_diffrn_ambient_temperature ?
_diffrn_special_details
;
The study was carried out at room temperature,in the range 283-303K

;
#These two values have been output from a single CSD field.
_refine_ls_R_factor_gt 0.035
_refine_ls_wR_factor_gt 0.035
_symmetry_cell_setting triclinic
_symmetry_space_group_name_H-M 'P -1'
_symmetry_Int_Tables_number 2
loop_
_symmetry_equiv_pos_site_id
_symmetry_equiv_pos_as_xyz
1 x,y,z
2 -x,-y,-z
_cell_length_a 7.5290(8)
_cell_length_b 7.9971(9)
_cell_length_c 10.4439(10)
_cell_angle_alpha 80.685(2)
_cell_angle_beta 83.558(2)
_cell_angle_gamma 68.341(1)
_cell_formula_units_Z 1
loop_
_atom_type_symbol
_atom_type_radius_bond
C 0.68
H 0.23
Co 1.26
N 0.68
O 0.68
loop_
_atom_site_label
_atom_site_type_symbol
_atom_site_fract_x
_atom_site_fract_y
_atom_site_fract_z
Co1 Co 0.00000 1.00000 1.00000
N1 N 0.1507(2) 0.7084(2) 1.0058(2)
N2 N 0.3568(3) 0.4927(2) 0.8985(2)
H1 H 0.43920 0.44110 0.83980
N3 N 0.2145(2) 0.9893(2) 0.8476(2)
N4 N 0.4410(3) 0.8195(2) 0.7216(2)
H2 H 0.51770 0.72570 0.68800
O1 O 0.1872(2) 1.0133(2) 1.1337(1)
H3 H 0.24670 0.90720 1.17080
H4 H 0.14220 1.08330 1.19210
C1 C 0.2741(3) 0.6722(3) 0.9035(2)
C2 C 0.2851(3) 0.4074(3) 1.0048(2)
H5 H 0.31670 0.28300 1.02770
C3 C 0.1586(3) 0.5409(3) 1.0699(2)
H6 H 0.08800 0.52220 1.14620
C4 C 0.3106(3) 0.8209(3) 0.8211(2)
C5 C 0.4288(4) 0.9957(3) 0.6837(2)
H7 H 0.50250 1.03640 0.61760
C6 C 0.2886(3) 1.0989(3) 0.7615(2)
H8 H 0.24890 1.22440 0.75710
O2 O 0.6569(3) 0.5450(2) 0.5756(2)
O3 O 0.6311(2) 0.3154(2) 0.7181(2)
O4 O 0.8718(3) 0.4849(3) 0.3760(2)
H9 H 0.79330 0.53610 0.43140
O5 O 1.0581(3) 0.2079(3) 0.3474(2)
C7 C 0.7037(3) 0.3782(3) 0.6182(2)
C8 C 0.8627(4) 0.2441(3) 0.5427(2)
H10 H 0.96980 0.18670 0.59810
H11 H 0.81710 0.15000 0.52900
C9 C 0.9380(4) 0.3117(3) 0.4137(2)
N1A N -0.1507(2) 1.2916(2) 0.9942(2)
N2A N -0.3568(3) 1.5073(2) 1.1015(2)
H1A H -0.43920 1.55890 1.16020
N3A N -0.2145(2) 1.0107(2) 1.1524(2)
N4A N -0.4410(3) 1.1805(2) 1.2784(2)
H2A H -0.51770 1.27430 1.31200
O1A O -0.1872(2) 0.9867(2) 0.8663(1)
H3A H -0.24670 1.09280 0.82920
H4A H -0.14220 0.91670 0.80790
C1A C -0.2741(3) 1.3278(3) 1.0965(2)
C2A C -0.2851(3) 1.5926(3) 0.9952(2)
H5A H -0.31670 1.71700 0.97230
C3A C -0.1586(3) 1.4591(3) 0.9301(2)
H6A H -0.08800 1.47780 0.85380
C4A C -0.3106(3) 1.1791(3) 1.1789(2)
C5A C -0.4288(4) 1.0043(3) 1.3163(2)
H7A H -0.50250 0.96360 1.38240
C6A C -0.2886(3) 0.9011(3) 1.2385(2)
H8A H -0.24890 0.77560 1.24290
#END
