
#######################################################################
#
#                 Cambridge Crystallographic Data Centre
#                                CCDC
#
#######################################################################
#
# If this CIF has been generated from an entry in the Cambridge
# Structural Database, then it will include bibliographic, chemical,
# crystal, experimental, refinement or atomic coordinate data resulting
# from the CCDC's data processing and validation procedures.
#
#######################################################################

data_CSD_CIF_LUCZIS
_audit_creation_date 2003-01-08
_audit_creation_method CSD-ConQuest-V1
_database_code_CSD LUCZIS
_database_code_depnum_ccdc_archive 'CCDC 1208611'
_chemical_formula_sum 'C26 H28 Fe1 Ga2 N2'
_chemical_formula_moiety
;
(C26 H28 Fe1 Ga2 N2)n
;
_journal_coden_Cambridge 579
_journal_volume 21
_journal_year 2002
_journal_page_first 3018
_journal_name_full 'Organometallics '
loop_
_publ_author_name
"A.Althoff"
"P.Jutzi"
"N.Lenze"
"B.Neumann"
"A.Stammler"
"H.-G.Stammler"
_chemical_name_systematic
;
catena-(bis(\m~2~-\h^5^-cyclopentadienyl)-(\m~2~-phenazine)-tetramethyl-di-gal
lium-iron)
;
_chemical_name_common
;
catena-[(mu-ferrocene)-(mu-phenazine)-tetramethyl-di-gallium]
;
_cell_volume    563.810
_exptl_crystal_colour 'green'
_exptl_crystal_density_diffrn 1.66
_exptl_crystal_description 'plate'
_diffrn_ambient_temperature 100
#These two values have been output from a single CSD field.
_refine_ls_R_factor_gt 0.037
_refine_ls_wR_factor_gt 0.037
_symmetry_cell_setting triclinic
_symmetry_space_group_name_H-M 'P -1'
_symmetry_Int_Tables_number 2
loop_
_symmetry_equiv_pos_site_id
_symmetry_equiv_pos_as_xyz
1 x,y,z
2 -x,-y,-z
_cell_length_a 7.5320(5)
_cell_length_b 8.9050(5)
_cell_length_c 9.7850(6)
_cell_angle_alpha 64.861(4)
_cell_angle_beta 76.416(3)
_cell_angle_gamma 73.120(3)
_cell_formula_units_Z 1
loop_
_atom_type_symbol
_atom_type_radius_bond
C 0.68
H 0.23
Fe 1.34
Ga 1.33
N 0.68
loop_
_atom_site_label
_atom_site_type_symbol
_atom_site_fract_x
_atom_site_fract_y
_atom_site_fract_z
Ga1 Ga -0.1690(1) -0.1547(1) -0.2021(1)
Fe1 Fe 0.00000 0.00000 0.00000
N1 N -0.6043(5) 0.0583(4) -0.6248(4)
C1 C -0.1710(6) 0.0404(5) -0.1554(4)
C2 C 0.2766(6) -0.0839(5) 0.0290(5)
C3 C -0.2097(6) 0.2118(5) -0.0203(5)
C4 C -0.0605(6) 0.2517(5) -0.1400(5)
C5 C -0.0376(6) 0.1472(5) -0.2217(5)
C6 C -0.0582(6) 0.2092(6) 0.3375(5)
C7 C 0.2786(6) 0.3375(5) 0.0342(5)
C8 C -0.6084(5) 0.1593(5) -0.5527(4)
C9 C -0.7129(6) 0.3279(5) -0.6012(4)
C10 C -0.7276(6) 0.4316(5) -0.5272(4)
C11 C -0.6326(5) 0.3694(5) -0.3972(4)
C12 C -0.5241(6) 0.2104(5) -0.3490(4)
C13 C -0.4945(5) -0.0991(5) -0.5758(4)
H1 H -0.37600 0.03410 0.03810
H2 H 0.25630 -0.26240 -0.05280
H3 H -0.01060 -0.33330 0.16140
H4 H -0.05290 -0.14770 0.30770
H5 H -0.15730 0.16160 0.33220
H6 H -0.10030 0.33280 0.30490
H7 H -0.02940 0.16020 0.44240
H8 H 0.34460 0.29790 -0.04740
H9 H 0.36680 0.36820 0.07210
H10 H 0.17870 0.43720 -0.00530
H11 H -0.77540 0.37080 -0.68840
H12 H -0.80050 0.54430 -0.56190
H13 H -0.64560 0.44030 -0.34370
H14 H -0.45940 0.17240 -0.26380
C13A C -0.5055(5) 0.0991(5) -0.4242(4)
N1A N -0.3957(5) -0.0583(4) -0.3752(4)
Ga1A Ga -0.8310(1) 0.1547(1) -0.7979(1)
C1A C 0.1710(6) -0.0404(5) 0.1554(4)
Ga1A* Ga 0.1690(1) 0.1547(1) 0.2021(1)
N1* N 0.3957(5) 0.0583(4) 0.3752(4)
C2A C -0.2766(6) 0.0839(5) -0.0290(5)
C3A C 0.2097(6) -0.2118(5) 0.0203(5)
H1A H 0.37600 -0.03410 -0.03810
C4A C 0.0605(6) -0.2517(5) 0.1400(5)
C5A C 0.0376(6) -0.1472(5) 0.2217(5)
H4A H 0.05290 0.14770 -0.30770
H3A H 0.01060 0.33330 -0.16140
H2A H -0.25630 0.26240 0.05280
C6A C 0.0582(6) -0.2092(6) -0.3375(5)
H5A H 0.15730 -0.16160 -0.33220
H6A H 0.10030 -0.33280 -0.30490
H7A H 0.02940 -0.16020 -0.44240
C7A C -0.2786(6) -0.3375(5) -0.0342(5)
H8A H -0.34460 -0.29790 0.04740
H9A H -0.36680 -0.36820 -0.07210
H10A H -0.17870 -0.43720 0.00530
C8A C -0.3916(5) -0.1593(5) -0.4473(4)
C9A C -0.2871(6) -0.3279(5) -0.3988(4)
C10A C -0.2724(6) -0.4316(5) -0.4728(4)
C11A C -0.3674(5) -0.3694(5) -0.6028(4)
C12A C -0.4759(6) -0.2104(5) -0.6510(4)
H14A H -0.54060 -0.17240 -0.73620
H13A H -0.35440 -0.44030 -0.65630
H12A H -0.19950 -0.54430 -0.43810
H11A H -0.22460 -0.37080 -0.31160
#END
