
#######################################################################
#
#                 Cambridge Crystallographic Data Centre
#                                CCDC
#
#######################################################################
#
# If this CIF has been generated from an entry in the Cambridge
# Structural Database, then it will include bibliographic, chemical,
# crystal, experimental, refinement or atomic coordinate data resulting
# from the CCDC's data processing and validation procedures.
#
#######################################################################

data_CSD_CIF_LUGDUM
_audit_creation_date 2003-01-08
_audit_creation_method CSD-ConQuest-V1
_database_code_CSD LUGDUM
_database_code_depnum_ccdc_archive 'CCDC 196390'
_chemical_formula_sum 'C15 H24 Cr1 N3'
_chemical_formula_moiety
;
C15 H24 Cr1 N3
;
_journal_coden_Cambridge 4
_journal_volume 124
_journal_year 2002
_journal_page_first 11588
_journal_name_full 'J.Am.Chem.Soc. '
loop_
_publ_author_name
"L.A.Berben"
"J.R.Long"
_chemical_name_systematic
;
tris(Ethynyl)-(N,N',N''-trimethyl-1,4,7-triazacyclononane-N,N',N'')-chromium(i
ii)
;
_cell_volume   1173.232
_exptl_crystal_colour 'orange'
_exptl_crystal_density_diffrn 1.267
_exptl_crystal_description 'irregular triangular'
_diffrn_ambient_temperature 160
#These two values have been output from a single CSD field.
_refine_ls_R_factor_gt 0.0238
_refine_ls_wR_factor_gt 0.0238
_symmetry_cell_setting rhombohedral
_symmetry_space_group_name_H-M 'R 3'
_symmetry_Int_Tables_number 146
loop_
_symmetry_equiv_pos_site_id
_symmetry_equiv_pos_as_xyz
1 x,y,z
2 -y,x-y,z
3 -x+y,-x,z
4 -1/3+x,1/3+y,1/3+z
5 -1/3-y,1/3+x-y,1/3+z
6 -1/3-x+y,1/3-x,1/3+z
7 1/3+x,-1/3+y,-1/3+z
8 1/3-y,-1/3+x-y,-1/3+z
9 1/3-x+y,-1/3-x,-1/3+z
_cell_length_a 13.7219(11)
_cell_length_b 13.7219(11)
_cell_length_c 7.1949(8)
_cell_angle_alpha 90
_cell_angle_beta 90
_cell_angle_gamma 120
_cell_formula_units_Z 3
loop_
_atom_type_symbol
_atom_type_radius_bond
C 0.68
H 0.23
Cr 1.35
N 0.68
loop_
_atom_site_label
_atom_site_type_symbol
_atom_site_fract_x
_atom_site_fract_y
_atom_site_fract_z
Cr1 Cr 0.00000 0.00000 -0.23360
C1 C 0.1254(2) 0.1280(2) -0.3863(3)
C2 C 0.1985(2) 0.2078(2) -0.4667(4)
H1 H 0.2551(2) 0.2697(2) -0.5290(4)
N1 N 0.1153(2) -0.0061(2) -0.0347(3)
C3 C 0.0506(2) -0.1218(2) 0.0468(3)
H2 H 0.0920(2) -0.1281(2) 0.1510(3)
H3 H 0.0420(2) -0.1769(2) -0.0459(3)
C4 C 0.1461(2) 0.0821(2) 0.1117(3)
H4 H 0.2254(2) 0.1158(2) 0.1410(3)
H5 H 0.1035(2) 0.0476(2) 0.2239(3)
C5 C 0.2176(2) 0.0059(2) -0.1231(4)
H6 H 0.2648(7) 0.0824(4) -0.1624(21)
H7 H 0.1970(2) -0.0431(10) -0.2290(14)
H8 H 0.2577(8) -0.0139(13) -0.0356(8)
C1A C -0.1280(2) -0.0026(2) -0.3863(3)
C2A C -0.2078(2) -0.0093(2) -0.4667(4)
H1A H -0.2697(2) -0.0146(2) -0.5290(4)
C1B C 0.0026(2) -0.1254(2) -0.3863(3)
C2B C 0.0093(2) -0.1985(2) -0.4667(4)
H1B H 0.0146(2) -0.2551(2) -0.5290(4)
C4B C -0.0640(2) -0.1461(2) 0.1117(3)
N1B N -0.1214(2) -0.1153(2) -0.0347(3)
N1A N 0.0061(2) 0.1214(2) -0.0347(3)
C3A C 0.1218(2) 0.1724(2) 0.0468(3)
H2A H 0.1281(2) 0.2201(2) 0.1510(3)
H3A H 0.1769(2) 0.2189(2) -0.0459(3)
C4A C -0.0821(2) 0.0640(2) 0.1117(3)
C3B C -0.1724(2) -0.0506(2) 0.0468(3)
C5B C -0.2117(2) -0.2176(2) -0.1231(4)
H6B H -0.1824(7) -0.2648(4) -0.1624(21)
H7B H -0.2401(2) -0.197(1) -0.2290(14)
H8B H -0.2716(8) -0.2577(13) -0.0356(8)
H2B H -0.2201(2) -0.0920(2) 0.1510(3)
H3B H -0.2189(2) -0.0420(2) -0.0459(3)
H4A H -0.1158(2) 0.1096(2) 0.1410(3)
H5A H -0.0476(2) 0.0559(2) 0.2239(3)
C5A C -0.0059(2) 0.2117(2) -0.1231(4)
H6A H -0.0824(7) 0.1824(4) -0.1624(21)
H7A H 0.0431(2) 0.2401(10) -0.2290(14)
H8A H 0.0139(8) 0.2716(13) -0.0356(8)
H4B H -0.1096(2) -0.2254(2) 0.1410(3)
H5B H -0.0559(2) -0.1035(2) 0.2239(3)
#END
