
#######################################################################
#
#                 Cambridge Crystallographic Data Centre
#                                CCDC
#
#######################################################################
#
# If this CIF has been generated from an entry in the Cambridge
# Structural Database, then it will include bibliographic, chemical,
# crystal, experimental, refinement or atomic coordinate data resulting
# from the CCDC's data processing and validation procedures.
#
#######################################################################

data_CSD_CIF_LUHHOL
_audit_creation_date 2003-01-08
_audit_creation_method CSD-ConQuest-V1
_database_code_CSD LUHHOL
_chemical_formula_sum 'C11 H15 Co1 N3 O6 S1'
_chemical_formula_moiety
;
C11 H15 Co1 N3 O6 S1
;
_journal_coden_Cambridge 367
_journal_volume 21
_journal_year 1995
_journal_page_first 341
_journal_name_full 'Koord.Khim.(Russ.)(Coord.Chem.) '
loop_
_publ_author_name
"V.Kh.Kravtsov"
"J.Lipkowski"
"O.A.Bologa"
"V.I.Lozan"
"Yu.A.Simonov"
"N.V.Gerbeleu"
"T.I.Malinovsky"
_chemical_name_systematic
;
Diaqua-(4-phenylthiosemicarbazido-N,N-diacetato)-cobalt(ii)
;
_cell_volume    740.539
_exptl_crystal_density_diffrn 1.687
_exptl_special_details
;
isostructural with the nickel analogue

;
_diffrn_ambient_temperature 293
#These two values have been output from a single CSD field.
_refine_ls_R_factor_gt 0.053
_refine_ls_wR_factor_gt 0.053
_symmetry_cell_setting triclinic
_symmetry_space_group_name_H-M 'P -1'
_symmetry_Int_Tables_number 2
loop_
_symmetry_equiv_pos_site_id
_symmetry_equiv_pos_as_xyz
1 x,y,z
2 -x,-y,-z
_cell_length_a 15.665(5)
_cell_length_b 7.411(2)
_cell_length_c 6.673(3)
_cell_angle_alpha 103.12(3)
_cell_angle_beta 95.29(3)
_cell_angle_gamma 98.18(2)
_cell_formula_units_Z 2
loop_
_atom_type_symbol
_atom_type_radius_bond
C 0.68
H 0.23
Co 1.33
N 0.68
O 0.68
S 1.02
loop_
_atom_site_label
_atom_site_type_symbol
_atom_site_fract_x
_atom_site_fract_y
_atom_site_fract_z
Co1 Co 0.34000 0.07860 0.36470
S1 S 0.20260 -0.05510 0.44640
O1 O 0.47220 0.19220 0.31220
O2 O 0.34830 -0.15430 0.14580
O3 O 0.29930 0.23880 0.17140
O4 O 0.26010 0.50380 0.13690
O5 O 0.41420 0.05860 0.63240
O6 O 0.49470 0.23590 0.92350
N1 N 0.25390 0.28420 0.71290
N2 N 0.32090 0.32630 0.59610
N3 N 0.15260 0.08560 0.81040
C1 C 0.20430 0.11180 0.66660
C2 C 0.09380 -0.08470 0.79080
C3 C 0.00700 -0.09560 0.73380
C4 C -0.04940 -0.26310 0.71840
C5 C -0.02060 -0.41550 0.75130
C6 C 0.06540 -0.40480 0.81770
C7 C 0.12350 -0.23790 0.83600
C8 C 0.30000 0.47040 0.48510
C9 C 0.28550 0.40790 0.24620
C10 C 0.40330 0.38500 0.73110
C11 C 0.43910 0.21210 0.76480
H1 H 0.51300 0.10000 0.31900
H2 H 0.47500 0.20900 0.17200
H3 H 0.31600 -0.27400 0.15100
H4 H 0.41100 -0.16600 0.12600
H5 H 0.24200 0.38700 0.83200
H6 H 0.15500 0.19400 0.93700
#END
