
#######################################################################
#
#                 Cambridge Crystallographic Data Centre
#                                CCDC
#
#######################################################################
#
# If this CIF has been generated from an entry in the Cambridge
# Structural Database, then it will include bibliographic, chemical,
# crystal, experimental, refinement or atomic coordinate data resulting
# from the CCDC's data processing and validation procedures.
#
#######################################################################

data_CSD_CIF_LUPROD
_audit_creation_date 2003-03-12
_audit_creation_method CSD-ConQuest-V1
_database_code_CSD LUPROD
_database_code_depnum_ccdc_archive 'CCDC 204022'
_chemical_formula_sum 'C8 H16 Mn1 N6 O8'
_chemical_formula_moiety
;
C8 H12 Mn1 N6 O6,2(H2 O1)
;
_journal_coeditor_code "IUCr FG1671"
_journal_coden_Cambridge 591
_journal_volume 59
_journal_year 2003
_journal_page_first m1
_journal_name_full 'Acta Crystallogr.,Sect.C:Cryst.Struct.Commun. '
loop_
_publ_author_name
"J.A.Schlueter"
"U.Geiser"
"J.L.Manson"
_chemical_name_systematic
;
Tetraaqua-bis(carbamoyldicyanomethanido-\kN)-manganese(ii) dihydrate
;
_chemical_melting_point 498
_cell_volume    817.378
_exptl_crystal_colour 'colorless'
_exptl_crystal_density_diffrn 1.541
_exptl_special_details
;
Melts with decomposition.
isomorphous with the nickel and cobalt analogues

;
_exptl_crystal_description 'block'
_diffrn_ambient_temperature 298
#These two values have been output from a single CSD field.
_refine_ls_R_factor_gt 0.021
_refine_ls_wR_factor_gt 0.021
_symmetry_cell_setting monoclinic
_symmetry_space_group_name_H-M 'P 21/n'
_symmetry_Int_Tables_number 14
loop_
_symmetry_equiv_pos_site_id
_symmetry_equiv_pos_as_xyz
1 x,y,z
2 1/2-x,1/2+y,1/2-z
3 -x,-y,-z
4 -1/2+x,-1/2-y,-1/2+z
_cell_length_a 9.5234(4)
_cell_length_b 7.4343(4)
_cell_length_c 12.1939(6)
_cell_angle_alpha 90
_cell_angle_beta 108.777(2)
_cell_angle_gamma 90
_cell_formula_units_Z 2
loop_
_atom_type_symbol
_atom_type_radius_bond
C 0.68
H 0.23
Mn 1.35
N 0.68
O 0.68
loop_
_atom_site_label
_atom_site_type_symbol
_atom_site_fract_x
_atom_site_fract_y
_atom_site_fract_z
Mn1 Mn 0.50000 0.00000 0.00000
O1 O -0.07867(8) 0.26994(11) 0.18492(7)
O2 O 0.65084(10) 0.10667(13) 0.15895(8)
H1 H 0.7366(17) 0.146(2) 0.1678(13)
H2 H 0.6214(18) 0.163(2) 0.2047(14)
O3 O 0.52764(10) -0.26743(11) 0.08261(7)
H3 H 0.5429(16) -0.260(2) 0.1501(12)
H4 H 0.588(3) -0.337(4) 0.069(2)
N1 N 0.31415(12) 0.04414(15) 0.06808(10)
N2 N -0.02456(15) -0.20122(16) 0.19245(12)
N3 N 0.09450(11) 0.40125(13) 0.12320(9)
H5 H 0.05830 0.50550 0.12890
H6 H 0.17030 0.39200 0.09980
C1 C 0.21594(12) 0.05957(15) 0.10211(9)
C2 C 0.02883(13) -0.07441(16) 0.17037(10)
C3 C 0.09456(11) 0.08143(14) 0.14216(9)
C4 C 0.03310(11) 0.25416(14) 0.15057(8)
O4 O 0.71227(11) -0.50752(12) 0.01857(9)
H7 H 0.7683(18) -0.561(2) 0.0698(13)
H8 H 0.648(3) -0.580(4) -0.008(3)
H9? H 0.453(3) -0.338(4) 0.056(2)
H10? H 0.673(4) -0.428(4) 0.042(3)
O2B O 0.34916(10) -0.10667(13) -0.15895(8)
H1B H 0.2634(17) -0.146(2) -0.1678(13)
H2B H 0.3786(18) -0.163(2) -0.2047(14)
O3B O 0.47236(10) 0.26743(11) -0.08261(7)
H3B H 0.4571(16) 0.260(2) -0.1501(12)
H4B H 0.412(3) 0.337(4) -0.069(2)
N1B N 0.68585(12) -0.04414(15) -0.06808(10)
C1B C 0.78406(12) -0.05957(15) -0.10211(9)
C3B C 0.90544(11) -0.08143(14) -0.14216(9)
C2B C 0.97117(13) 0.07441(16) -0.17037(10)
N2B N 1.02456(15) 0.20122(16) -0.19245(12)
C4B C 0.96690(11) -0.25416(14) -0.15057(8)
O1B O 1.07867(8) -0.26994(11) -0.18492(7)
N3B N 0.90550(11) -0.40125(13) -0.12320(9)
H5B H 0.94170 -0.50550 -0.12890
H6B H 0.82970 -0.39200 -0.09980
#END
