
#######################################################################
#
#                 Cambridge Crystallographic Data Centre
#                                CCDC
#
#######################################################################
#
# If this CIF has been generated from an entry in the Cambridge
# Structural Database, then it will include bibliographic, chemical,
# crystal, experimental, refinement or atomic coordinate data resulting
# from the CCDC's data processing and validation procedures.
#
#######################################################################

data_CSD_CIF_LUPROD01
_audit_creation_date 2003-10-28
_audit_creation_method CSD-ConQuest-V1
_database_code_CSD LUPROD01
_database_code_depnum_ccdc_archive 'CCDC 161870'
_chemical_formula_sum 'C8 H16 Mn1 N6 O8'
_chemical_formula_moiety
;
C8 H12 Mn1 N6 O6,2(H2 O1)
;
_journal_coden_Cambridge 1267
_journal_volume 218
_journal_year 2003
_journal_page_first 97
_journal_name_full 'Z.Kristallogr.-New Cryst.Struct. '
loop_
_publ_author_name
"L.Meng"
"C.-J.Wu"
"J.-J.Lu"
"J.-M.Shi"
_chemical_name_systematic
;
Tetraaqua-bis(carbamoyldicyanomethanide-N)-manganese(ii) dihydrate
;
_cell_volume    815.924
_exptl_crystal_colour 'colorless'
_exptl_crystal_density_diffrn 1.544
_exptl_crystal_description 'prism'
_diffrn_ambient_temperature 293
#These two values have been output from a single CSD field.
_refine_ls_R_factor_gt 0.0256
_refine_ls_wR_factor_gt 0.0256
_symmetry_cell_setting monoclinic
_symmetry_space_group_name_H-M 'P 21/n'
_symmetry_Int_Tables_number 14
loop_
_symmetry_equiv_pos_site_id
_symmetry_equiv_pos_as_xyz
1 x,y,z
2 1/2-x,1/2+y,1/2-z
3 -x,-y,-z
4 -1/2+x,-1/2-y,-1/2+z
_cell_length_a 9.5162(10)
_cell_length_b 7.4299(8)
_cell_length_c 12.1866(13)
_cell_angle_alpha 90
_cell_angle_beta 108.749(2)
_cell_angle_gamma 90
_cell_formula_units_Z 2
loop_
_atom_type_symbol
_atom_type_radius_bond
C 0.68
H 0.23
Mn 1.35
N 0.68
O 0.68
loop_
_atom_site_label
_atom_site_type_symbol
_atom_site_fract_x
_atom_site_fract_y
_atom_site_fract_z
Mn1 Mn 0.50000 0.00000 0.50000
N1 N 0.68561(19) 0.0436(2) 0.43230(16)
N2 N 1.0240(2) -0.2014(3) 0.3071(2)
N3 N 0.9058(2) 0.4011(3) 0.37680(18)
O1 O 1.07862(14) 0.26959(17) 0.31517(12)
O2 O 0.34914(15) 0.1074(2) 0.34096(13)
O3 O 0.47190(16) -0.26757(18) 0.41721(13)
C1 C 0.7841(2) 0.0597(3) 0.39801(18)
C2 C 0.9053(2) 0.0812(3) 0.35785(17)
C3 C 0.96683(19) 0.2534(3) 0.34933(17)
C4 C 0.9711(2) -0.0739(3) 0.32996(19)
H1 H 0.940(2) 0.509(3) 0.3698(18)
H2 H 0.842(3) 0.396(3) 0.407(2)
H3 H 0.376(3) 0.175(3) 0.285(2)
H4 H 0.2524(17) 0.156(3) 0.332(2)
H5 H 0.451(4) -0.264(4) 0.3352(10)
H6 H 0.554(3) -0.348(4) 0.450(4)
O4 O 0.28779(16) 0.49199(18) 0.48144(14)
H7 H 0.225(2) 0.419(3) 0.4228(17)
H8 H 0.330(5) 0.588(4) 0.449(4)
N1B N 0.31439(19) -0.0436(2) 0.56770(16)
C1B C 0.2159(2) -0.0597(3) 0.60199(18)
C2B C 0.0947(2) -0.0812(3) 0.64215(17)
C3B C 0.03317(19) -0.2534(3) 0.65067(17)
N3B N 0.0942(2) -0.4011(3) 0.62320(18)
H1B H 0.060(2) -0.509(3) 0.6302(18)
H2B H 0.158(3) -0.396(3) 0.593(2)
O1B O -0.07862(14) -0.26959(17) 0.68483(12)
C4B C 0.0289(2) 0.0739(3) 0.67004(19)
N2B N -0.0240(2) 0.2014(3) 0.6929(2)
O2B O 0.65086(15) -0.1074(2) 0.65904(13)
H3B H 0.624(3) -0.175(3) 0.715(2)
H4B H 0.7476(17) -0.156(3) 0.668(2)
O3B O 0.52810(16) 0.26757(18) 0.58279(13)
H5B H 0.549(4) 0.264(4) 0.6648(10)
H6B H 0.446(3) 0.348(4) 0.550(4)
#END
