
#######################################################################
#
#                 Cambridge Crystallographic Data Centre
#                                CCDC
#
#######################################################################
#
# If this CIF has been generated from an entry in the Cambridge
# Structural Database, then it will include bibliographic, chemical,
# crystal, experimental, refinement or atomic coordinate data resulting
# from the CCDC's data processing and validation procedures.
#
#######################################################################

data_CSD_CIF_LUYVEG
_audit_creation_date 2003-07-09
_audit_creation_method CSD-ConQuest-V1
_database_code_CSD LUYVEG
_database_code_depnum_ccdc_archive 'CCDC 175493'
_chemical_formula_sum 'C8 H22 Co1 N2 O10'
_chemical_formula_moiety
;
C8 H18 Co1 N2 O8,2(H2 O1)
;
_journal_coden_Cambridge 155
_journal_volume 340
_journal_year 2002
_journal_page_first 81
_journal_name_full 'Inorg.Chim.Acta '
loop_
_publ_author_name
"Chew-Hee Ng"
"Soon-Beng Teo"
"Siang-Guan Teoh"
"Hoong-Kun Fun"
"J.-P.Declercq"
_chemical_name_systematic
;
\a-cis-Diaqua-(N,N'-ethylenedi(N-hydroxymethylglycinato))-cobalt(ii) dihydrate
;
_cell_volume   1419.384
_exptl_crystal_colour 'pink'
_exptl_crystal_density_diffrn 1.709
_exptl_crystal_description 'plate'
_diffrn_ambient_temperature 298
#These two values have been output from a single CSD field.
_refine_ls_R_factor_gt 0.0531
_refine_ls_wR_factor_gt 0.0531
_symmetry_cell_setting monoclinic
_symmetry_space_group_name_H-M 'C 2/c'
_symmetry_Int_Tables_number 15
loop_
_symmetry_equiv_pos_site_id
_symmetry_equiv_pos_as_xyz
1 x,y,z
2 -x,y,1/2-z
3 1/2+x,1/2+y,z
4 1/2-x,1/2+y,1/2-z
5 -x,-y,-z
6 x,-y,-1/2+z
7 -1/2-x,-1/2-y,-z
8 -1/2+x,-1/2-y,-1/2+z
_cell_length_a 15.518(5)
_cell_length_b 8.157(2)
_cell_length_c 11.604(3)
_cell_angle_alpha 90
_cell_angle_beta 104.91(2)
_cell_angle_gamma 90
_cell_formula_units_Z 4
loop_
_atom_type_symbol
_atom_type_radius_bond
C 0.68
H 0.23
Co 1.33
N 0.68
O 0.68
loop_
_atom_site_label
_atom_site_type_symbol
_atom_site_fract_x
_atom_site_fract_y
_atom_site_fract_z
Co1 Co 0.50000 0.1722(1) 0.75000
O1 O 0.4799(1) 0.1801(2) 0.9218(2)
O2 O 0.3811(1) 0.2463(2) 1.0239(2)
N1 N 0.4042(1) 0.3712(2) 0.7355(2)
O3 O 0.2834(1) 0.5133(2) 0.5980(2)
C1 C 0.3514(2) 0.3334(3) 0.8210(2)
C2 C 0.3481(1) 0.3862(3) 0.6129(2)
C3 C 0.4092(1) 0.2480(2) 0.9321(2)
O4 O 0.6011(1) -0.0007(2) 0.8073(2)
O5 O 0.6319(1) -0.1481(2) 0.6173(2)
C4 C 0.4595(1) 0.5209(2) 0.7746(2)
H1 H 0.30360 0.60210 0.57430
H2 H 0.30370 0.25810 0.78400
H3 H 0.32550 0.43560 0.83960
H4 H 0.31820 0.28080 0.59090
H5 H 0.38480 0.40600 0.56030
H6 H 0.65420 0.05230 0.85290
H7 H 0.58150 -0.07980 0.85640
H8 H 0.68210 -0.12260 0.58640
H9 H 0.60940 -0.25470 0.58990
H10 H 0.42460 0.61720 0.75450
H11 H 0.47860 0.52440 0.85790
O1A O 0.5201(1) 0.1801(2) 0.5782(2)
C3A C 0.5908(1) 0.2480(2) 0.5679(2)
O2A O 0.6189(1) 0.2463(2) 0.4761(2)
C1A C 0.6486(2) 0.3334(3) 0.6790(2)
N1A N 0.5958(1) 0.3712(2) 0.7645(2)
O4A O 0.3989(1) -0.0007(2) 0.6927(2)
H6A H 0.34580 0.05230 0.64710
H7A H 0.41850 -0.07980 0.64360
C2A C 0.6519(1) 0.3862(3) 0.8871(2)
O3A O 0.7166(1) 0.5133(2) 0.9020(2)
H1A H 0.69640 0.60210 0.92570
H4A H 0.68180 0.28080 0.90910
H5A H 0.61520 0.40600 0.93970
C4A C 0.5405(1) 0.5209(2) 0.7254(2)
H10A H 0.57540 0.61720 0.74550
H11A H 0.52140 0.52440 0.64210
H2A H 0.69630 0.25810 0.71600
H3A H 0.67450 0.43560 0.66040
#END
