
#######################################################################
#
#                 Cambridge Crystallographic Data Centre
#                                CCDC
#
#######################################################################
#
# If this CIF has been generated from an entry in the Cambridge
# Structural Database, then it will include bibliographic, chemical,
# crystal, experimental, refinement or atomic coordinate data resulting
# from the CCDC's data processing and validation procedures.
#
#######################################################################

data_CSD_CIF_MABBOJ
_audit_creation_date 2016-02-25
_audit_creation_method CSD-ConQuest-V1
_database_code_CSD MABBOJ
_database_code_depnum_ccdc_archive 'CCDC 1454582'
_chemical_formula_sum 'C7 H20 Cl3 Cr1 N4 O4'
_chemical_formula_moiety
;
C7 H20 Cl2 Cr1 N4 1+,Cl1 O4 1-
;
_journal_coeditor_code "wm5269"
_journal_coden_Cambridge 1828
_journal_volume 72
_journal_year 2016
_journal_page_first 424
_journal_name_full 'Acta Crystallogr.,Sect.E:Cryst.Commun. '
loop_
_publ_author_name
"D.Moon"
"J.-H.Choi"
_chemical_name_systematic
;
trans-(N,N'-bis(2-Aminoethyl)propane-1,3-diamine)-dichloro-chromium(iii) 
perchlorate
;
_cell_volume    751.615
_exptl_crystal_colour 'green'
_exptl_crystal_density_diffrn 1.691
_exptl_crystal_description 'block'
_diffrn_ambient_temperature 243
_diffrn_radiation_probe x-ray
_diffrn_source synchrotron
#These two values have been output from a single CSD field.
_refine_ls_R_factor_gt 0.0252
_refine_ls_wR_factor_gt 0.0252
loop_
_citation_database_id_CSD
_citation_special_details
MOLPUZ "is a stereoisomer of this entry"
_symmetry_cell_setting monoclinic
_symmetry_space_group_name_H-M 'P n'
_symmetry_Int_Tables_number 7
loop_
_symmetry_equiv_pos_site_id
_symmetry_equiv_pos_as_xyz
1 x,y,z
2 1/2+x,-y,1/2+z
_cell_length_a 6.4730(13)
_cell_length_b 11.449(2)
_cell_length_c 10.385(2)
_cell_angle_alpha 90
_cell_angle_beta 102.42(3)
_cell_angle_gamma 90
_cell_formula_units_Z 2
loop_
_atom_type_symbol
_atom_type_radius_bond
C 0.68
H 0.23
Cl 0.99
Cr 1.39
N 0.68
O 0.68
loop_
_atom_site_label
_atom_site_type_symbol
_atom_site_fract_x
_atom_site_fract_y
_atom_site_fract_z
Cr1 Cr 0.49958(5) 0.29857(3) 0.49729(4)
Cl1 Cl 0.79710(9) 0.18290(6) 0.56558(7)
Cl2 Cl 0.20419(9) 0.41841(5) 0.43425(6)
N1 N 0.5655(3) 0.3816(2) 0.6797(2)
H1 H 0.69820 0.36510 0.72290
H2 H 0.55350 0.45950 0.66900
N2 N 0.3179(3) 0.18908(17) 0.5865(2)
H3 H 0.17080 0.21800 0.55980
N3 N 0.4222(3) 0.21127(19) 0.3180(2)
H4 H 0.28370 0.24260 0.27130
N4 N 0.6689(3) 0.4076(2) 0.3968(2)
H5 H 0.63680 0.48280 0.40870
H6 H 0.80870 0.39780 0.42780
C1 C 0.4110(5) 0.3385(3) 0.7556(3)
H7 H 0.27540 0.37890 0.72700
H8 H 0.46360 0.35330 0.84990
C2 C 0.3824(5) 0.2085(3) 0.7308(3)
H9 H 0.51520 0.16750 0.76640
H10 H 0.27360 0.17830 0.77460
C3 C 0.3107(4) 0.0636(2) 0.5507(3)
H11 H 0.21280 0.02300 0.59550
H12 H 0.45150 0.02930 0.58120
C4 C 0.2396(5) 0.0455(3) 0.4025(3)
H13 H 0.20740 -0.03750 0.38590
H14 H 0.10810 0.08920 0.37130
C5 C 0.3975(5) 0.0824(2) 0.3219(3)
H15 H 0.53510 0.04710 0.35970
H16 H 0.35100 0.05310 0.23170
C6 C 0.5783(5) 0.2472(3) 0.2397(3)
H17 H 0.52580 0.22690 0.14670
H18 H 0.71260 0.20640 0.27160
C7 C 0.6117(5) 0.3775(3) 0.2536(3)
H19 H 0.72540 0.40160 0.21040
H20 H 0.48210 0.41870 0.21130
Cl3 Cl 0.50722(11) 0.72486(5) 0.49469(7)
O1 O 0.5868(6) 0.6499(3) 0.6047(3)
O2 O 0.5109(4) 0.6627(3) 0.3746(3)
O3 O 0.2904(5) 0.7539(3) 0.4912(3)
O4 O 0.6361(5) 0.8276(2) 0.5033(3)
#END
