
#######################################################################
#
#                 Cambridge Crystallographic Data Centre
#                                CCDC
#
#######################################################################
#
# If this CIF has been generated from an entry in the Cambridge
# Structural Database, then it will include bibliographic, chemical,
# crystal, experimental, refinement or atomic coordinate data resulting
# from the CCDC's data processing and validation procedures.
#
#######################################################################

data_CSD_CIF_MABROY
_audit_creation_date 2011-03-25
_audit_creation_method CSD-ConQuest-V1
_database_code_CSD MABROY
_database_code_depnum_ccdc_archive 'CCDC 773070'
_chemical_formula_sum 'C20 H20 F6 Fe1 N12 Si1'
_chemical_formula_moiety
;
C20 H20 Fe1 N12 2+,F6 Si1 2-
;
_journal_coden_Cambridge 155
_journal_volume 363
_journal_year 2010
_journal_page_first 4059
_journal_name_full 'Inorg.Chim.Acta '
loop_
_publ_author_name
"O.G.Shakirova"
"L.G.Lavrenova"
"V.A.Daletsky"
"E.A.Shusharina"
"T.P.Griaznova"
"S.A.Katsyuba"
"V.V.Syakaev"
"V.V.Skripacheva"
"A.R.Mustafina"
"S.E.Soloveva"
_chemical_name_systematic
;
bis(tris(Pyrazol-1-yl)methane-N,N',N'')-iron(ii) hexafluorosilicate
;
_cell_volume   1935.819
_exptl_crystal_colour 'purple'
_exptl_crystal_density_diffrn 1.612
_exptl_crystal_description 'needle'
_diffrn_ambient_temperature 150
#These two values have been output from a single CSD field.
_refine_ls_R_factor_gt 0.023
_refine_ls_wR_factor_gt 0.023
_symmetry_cell_setting rhombohedral
_symmetry_space_group_name_H-M 'R -3'
_symmetry_Int_Tables_number 148
loop_
_symmetry_equiv_pos_site_id
_symmetry_equiv_pos_as_xyz
1 x,y,z
2 -y,x-y,z
3 -x+y,-x,z
4 2/3+x,1/3+y,1/3+z
5 2/3-y,1/3+x-y,1/3+z
6 2/3-x+y,1/3-x,1/3+z
7 1/3+x,2/3+y,2/3+z
8 1/3-y,2/3+x-y,2/3+z
9 1/3-x+y,2/3-x,2/3+z
10 -x,-y,-z
11 y,-x+y,-z
12 x-y,x,-z
13 -2/3-x,-1/3-y,-1/3-z
14 -2/3+y,-1/3-x+y,-1/3-z
15 -2/3+x-y,-1/3+x,-1/3-z
16 -1/3-x,-2/3-y,-2/3-z
17 -1/3+y,-2/3-x+y,-2/3-z
18 -1/3+x-y,-2/3+x,-2/3-z
_cell_length_a 12.9311(3)
_cell_length_b 12.9311(3)
_cell_length_c 13.3679(4)
_cell_angle_alpha 90
_cell_angle_beta 90
_cell_angle_gamma 120
_cell_formula_units_Z 3
loop_
_atom_type_symbol
_atom_type_radius_bond
C 0.68
H 0.23
F 0.64
Fe 1.52
N 0.68
Si 1.20
loop_
_atom_site_label
_atom_site_type_symbol
_atom_site_fract_x
_atom_site_fract_y
_atom_site_fract_z
Fe1 Fe 0.00000 0.00000 0.50000
Si1 Si 0.00000 0.00000 0.00000
F1 F 0.08150(7) 0.12023(7) 0.07389(6)
N1 N 0.11737(10) 0.03125(10) 0.31094(8)
C1 C 0.00000 0.00000 0.27507(17)
H1 H 0.00000 0.00000 0.20030
N2 N 0.13629(10) 0.03683(10) 0.41149(8)
C2 C 0.21746(12) 0.05854(12) 0.25866(11)
H2 H 0.22530 0.06050 0.18790
C3 C 0.30544(13) 0.08288(14) 0.32741(11)
H3 H 0.38610 0.10480 0.31440
C4 C 0.25078(13) 0.06840(13) 0.42128(11)
H4 H 0.29040 0.07970 0.48360
F1A F -0.12023(7) -0.03873(7) 0.07389(6)
F1B F 0.03873(7) -0.08150(7) 0.07389(6)
F1I F -0.08150(7) -0.12023(7) -0.07389(6)
F1J F 0.12023(7) 0.03873(7) -0.07389(6)
F1K F -0.03873(7) 0.08150(7) -0.07389(6)
N1A N -0.03125(10) 0.08612(10) 0.31094(8)
N1B N -0.08612(10) -0.11737(10) 0.31094(8)
N1I N -0.11737(10) -0.03125(10) 0.68906(8)
N1J N 0.03125(10) -0.08612(10) 0.68906(8)
N1K N 0.08612(10) 0.11737(10) 0.68906(8)
C1I C 0.00000 0.00000 0.72493(17)
H1I H 0.00000 0.00000 0.79970
N2A N -0.03683(10) 0.09946(10) 0.41149(8)
N2B N -0.09946(10) -0.13629(10) 0.41149(8)
N2I N -0.13629(10) -0.03683(10) 0.58851(8)
N2J N 0.03683(10) -0.09946(10) 0.58851(8)
N2K N 0.09946(10) 0.13629(10) 0.58851(8)
C2A C -0.05854(12) 0.15892(12) 0.25866(11)
C2B C -0.15892(12) -0.21746(12) 0.25866(11)
C2I C -0.21746(12) -0.05854(12) 0.74134(11)
C2J C 0.05854(12) -0.15892(12) 0.74134(11)
C2K C 0.15892(12) 0.21746(12) 0.74134(11)
H2A H -0.06050 0.16480 0.18790
H2B H -0.16480 -0.22530 0.18790
H2I H -0.22530 -0.06050 0.81210
H2J H 0.06050 -0.16480 0.81210
H2K H 0.16480 0.22530 0.81210
C3A C -0.08288(13) 0.22256(14) 0.32741(11)
C3B C -0.22256(13) -0.30544(14) 0.32741(11)
C3I C -0.30544(13) -0.08288(14) 0.67259(11)
C3J C 0.08288(13) -0.22256(14) 0.67259(11)
C3K C 0.22256(13) 0.30544(14) 0.67259(11)
H3A H -0.10480 0.28130 0.31440
H3B H -0.28130 -0.38610 0.31440
H3I H -0.38610 -0.10480 0.68560
H3J H 0.10480 -0.28130 0.68560
H3K H 0.28130 0.38610 0.68560
C4A C -0.06840(13) 0.18238(13) 0.42128(11)
C4B C -0.18238(13) -0.25078(13) 0.42128(11)
C4I C -0.25078(13) -0.06840(13) 0.57872(11)
C4J C 0.06840(13) -0.18238(13) 0.57872(11)
C4K C 0.18238(13) 0.25078(13) 0.57872(11)
H4A H -0.07970 0.21070 0.48360
H4B H -0.21070 -0.29040 0.48360
H4I H -0.29040 -0.07970 0.51640
H4J H 0.07970 -0.21070 0.51640
H4K H 0.21070 0.29040 0.51640
#END
