
#######################################################################
#
#                 Cambridge Crystallographic Data Centre
#                                CCDC
#
#######################################################################
#
# If this CIF has been generated from an entry in the Cambridge
# Structural Database, then it will include bibliographic, chemical,
# crystal, experimental, refinement or atomic coordinate data resulting
# from the CCDC's data processing and validation procedures.
#
#######################################################################

data_CSD_CIF_MACHII01
_audit_creation_date 2004-01-20
_audit_creation_method CSD-ConQuest-V1
_database_code_CSD MACHII01
_database_code_depnum_ccdc_archive 'CCDC 190678'
_chemical_formula_sum 'C18 H14 Mn1 N8 O4'
_chemical_formula_moiety
;
(C18 H14 Mn1 N8 O4)n
;
_journal_coden_Cambridge 580
_journal_volume 22
_journal_year 2003
_journal_page_first 1837
_journal_name_full 'Polyhedron '
loop_
_publ_author_name
"F.Thetiot"
"S.Triki"
"J.S.Pala"
_chemical_name_systematic
;
catena-(bis(\m~2~-1,1,3,3-Tetracyano-2-ethoxypropenide)-diaqua-manganese(ii))
;
_cell_volume    550.731
_exptl_crystal_colour 'colorless'
_exptl_crystal_density_diffrn 1.39
_exptl_special_details
;
isomorphous with the Fe(ii), Co(ii) and Cu(ii) analogues
Cif has cell temperature 176 K, main diffraction temperature 294 K
;
_exptl_crystal_description 'prism'
_diffrn_ambient_temperature 294
#These two values have been output from a single CSD field.
_refine_ls_R_factor_gt 0.03
_refine_ls_wR_factor_gt 0.03
_symmetry_cell_setting triclinic
_symmetry_space_group_name_H-M 'P -1'
_symmetry_Int_Tables_number 2
loop_
_symmetry_equiv_pos_site_id
_symmetry_equiv_pos_as_xyz
1 x,y,z
2 -x,-y,-z
_cell_length_a 8.2823(9)
_cell_length_b 8.4139(9)
_cell_length_c 9.2688(8)
_cell_angle_alpha 83.017(6)
_cell_angle_beta 69.771(6)
_cell_angle_gamma 65.369(5)
_cell_formula_units_Z 1
loop_
_atom_type_symbol
_atom_type_radius_bond
C 0.68
H 0.23
Mn 1.35
N 0.68
O 0.68
loop_
_atom_site_label
_atom_site_type_symbol
_atom_site_fract_x
_atom_site_fract_y
_atom_site_fract_z
Mn1 Mn 0.00000 0.00000 0.00000
N1 N -0.2898(2) 0.0354(2) 0.1377(2)
N2 N -0.7820(2) 0.0235(2) 0.5212(2)
N3 N -0.8885(2) 0.7120(2) 0.0284(2)
N4 N -0.4419(2) 0.2196(2) -0.1499(2)
C1 C -0.4486(2) 0.0924(2) 0.2009(2)
C2 C -0.7183(2) 0.0865(2) 0.4138(2)
C3 C -0.8131(2) 0.5694(2) 0.0552(2)
C4 C -0.5642(2) 0.2949(2) -0.0432(2)
C5 C -0.6442(2) 0.1667(2) 0.2786(2)
C6 C -0.7182(2) 0.3921(2) 0.0847(2)
C7 C -0.7655(2) 0.3196(2) 0.2297(2)
C8 C -1.1012(3) 0.5036(3) 0.3019(2)
C9 C -1.2622(3) 0.4750(3) 0.4201(3)
O1 O 0.0534(2) 0.0234(2) 0.2082(1)
O2 O -0.9316(2) 0.3940(2) 0.3382(1)
H1 H -0.029(3) 0.013(3) 0.296(2)
H2 H 0.159(3) -0.064(3) 0.235(2)
H3 H -1.113(3) 0.609(3) 0.311(2)
H4 H -1.088(2) 0.471(2) 0.206(2)
H5 H -1.377(3) 0.552(3) 0.407(3)
H6 H -1.250(4) 0.362(4) 0.444(3)
H7 H -1.272(3) 0.486(3) 0.549(3)
N1A N 0.2898(2) -0.0354(2) -0.1377(2)
N2A N 0.7820(2) -0.0235(2) -0.5212(2)
N3A N 0.8885(2) -0.7120(2) -0.0284(2)
N4A N 0.4419(2) -0.2196(2) 0.1499(2)
C1A C 0.4486(2) -0.0924(2) -0.2009(2)
C2A C 0.7183(2) -0.0865(2) -0.4138(2)
C3A C 0.8131(2) -0.5694(2) -0.0552(2)
C4A C 0.5642(2) -0.2949(2) 0.0432(2)
C5A C 0.6442(2) -0.1667(2) -0.2786(2)
C6A C 0.7182(2) -0.3921(2) -0.0847(2)
C7A C 0.7655(2) -0.3196(2) -0.2297(2)
C8A C 1.1012(3) -0.5036(3) -0.3019(2)
C9A C 1.2622(3) -0.4750(3) -0.4201(3)
O2A O 0.9316(2) -0.3940(2) -0.3382(1)
H3A H 1.113(3) -0.609(3) -0.311(2)
H4A H 1.088(2) -0.471(2) -0.206(2)
H5A H 1.377(3) -0.552(3) -0.407(3)
H6A H 1.250(4) -0.362(4) -0.444(3)
H7A H 1.272(3) -0.486(3) -0.549(3)
O1A O -0.0534(2) -0.0234(2) -0.2082(1)
H1A H 0.029(3) -0.013(3) -0.296(2)
H2A H -0.159(3) 0.064(3) -0.235(2)
N3* N 0.1115(2) -0.2880(2) 0.0284(2)
N3A* N -0.1115(2) 0.2880(2) -0.0284(2)
Mn1* Mn -1.00000 1.00000 0.00000
Mn1** Mn 1.00000 -1.00000 0.00000
#END
