
#######################################################################
#
#                 Cambridge Crystallographic Data Centre
#                                CCDC
#
#######################################################################
#
# If this CIF has been generated from an entry in the Cambridge
# Structural Database, then it will include bibliographic, chemical,
# crystal, experimental, refinement or atomic coordinate data resulting
# from the CCDC's data processing and validation procedures.
#
#######################################################################

data_CSD_CIF_MADNIQ
_audit_creation_date 2011-03-25
_audit_creation_method CSD-ConQuest-V1
_database_code_CSD MADNIQ
_database_code_depnum_ccdc_archive 'CCDC 778206'
_chemical_formula_sum 'C16 H11 Cr1 N1 O5'
_chemical_formula_moiety
;
C16 H11 Cr1 N1 O5
;
_journal_coden_Cambridge 1291
_journal_year 2010
_journal_page_first 6072
_journal_name_full 'Eur.J.Org.Chem. '
loop_
_publ_author_name
"O.M.A.Habib"
"Z.Zhao-Karger"
"I.A.Abdelhamid"
"R.Wartchow"
"H.Butenschon"
_chemical_name_systematic
;
rac-(\h^6^-3-hydroxy-3-(prop-1-yn-1-yl)-2-vinylisoindolin-1-one)-tricarbonyl-c
hromium
;
_chemical_melting_point 455
_cell_volume    756.869
_exptl_crystal_colour 'yellow'
_exptl_crystal_density_diffrn 1.533
_exptl_crystal_description 'needle'
_diffrn_ambient_temperature 300
#These two values have been output from a single CSD field.
_refine_ls_R_factor_gt 0.0527
_refine_ls_wR_factor_gt 0.0527
_symmetry_cell_setting triclinic
_symmetry_space_group_name_H-M 'P -1'
_symmetry_Int_Tables_number 2
loop_
_symmetry_equiv_pos_site_id
_symmetry_equiv_pos_as_xyz
1 x,y,z
2 -x,-y,-z
_cell_length_a 6.970(1)
_cell_length_b 9.211(3)
_cell_length_c 12.608(3)
_cell_angle_alpha 103.15(2)
_cell_angle_beta 105.27(2)
_cell_angle_gamma 91.74(2)
_cell_formula_units_Z 2
loop_
_atom_type_symbol
_atom_type_radius_bond
C 0.68
H 0.23
Cr 1.39
N 0.68
O 0.68
loop_
_atom_site_label
_atom_site_type_symbol
_atom_site_fract_x
_atom_site_fract_y
_atom_site_fract_z
Cr1 Cr 0.22082(18) 0.28460(12) 0.14885(8)
N1 N 0.6406(7) 0.3018(5) 0.4179(3)
O1 O 0.6800(6) 0.5461(4) 0.4065(3)
O2 O 0.4372(6) 0.1471(4) 0.4831(3)
H1 H 0.344(13) 0.230(8) 0.513(13)
O3 O 0.2940(8) -0.0174(5) 0.0261(4)
O4 O 0.5647(7) 0.4107(5) 0.0883(3)
O5 O -0.0439(8) 0.3022(6) -0.0771(4)
C1 C 0.5753(10) 0.4290(7) 0.3863(4)
C2 C 0.4798(9) 0.1776(6) 0.3846(4)
C3 C 0.3020(9) 0.2469(6) 0.3204(4)
C4 C 0.1077(10) 0.1836(6) 0.2675(4)
H2 H 0.07010 0.08360 0.26130
C5 C -0.0289(10) 0.2777(7) 0.2241(5)
H3 H -0.16170 0.24020 0.19010
C6 C 0.0282(10) 0.4252(6) 0.2302(4)
H4 H -0.06760 0.48360 0.19960
C7 C 0.2234(10) 0.4891(7) 0.2806(4)
H5 H 0.26230 0.58790 0.28410
C8 C 0.3582(9) 0.3935(6) 0.3260(4)
C9 C 0.8404(10) 0.2944(6) 0.4777(4)
H6 H 0.93090 0.37570 0.48680
C10 C 0.9119(10) 0.1840(7) 0.5219(4)
H7 H 0.82740 0.10030 0.51510
H8 H 1.04680 0.18990 0.56000
C11 C 0.5294(9) 0.0404(6) 0.3194(4)
C12 C 0.567(1) -0.0679(7) 0.2671(5)
C13 C 0.6142(12) -0.2117(8) 0.1992(6)
H9 H 0.73240 -0.19360 0.17680
H10 H 0.50430 -0.24980 0.13280
H11 H 0.63590 -0.28370 0.24440
C14 C 0.269(1) 0.1020(7) 0.0755(5)
C15 C 0.4317(11) 0.3625(7) 0.1102(5)
C16 C 0.0582(11) 0.2985(7) 0.0115(5)
#END
