
#######################################################################
#
#                 Cambridge Crystallographic Data Centre
#                                CCDC
#
#######################################################################
#
# If this CIF has been generated from an entry in the Cambridge
# Structural Database, then it will include bibliographic, chemical,
# crystal, experimental, refinement or atomic coordinate data resulting
# from the CCDC's data processing and validation procedures.
#
#######################################################################

data_CSD_CIF_MAHMUF
_audit_creation_date 2011-03-31
_audit_creation_method CSD-ConQuest-V1
_database_code_CSD MAHMUF
_database_code_depnum_ccdc_archive 'CCDC 802720'
_chemical_formula_sum 'C16 H22 Co1 N8 O10'
_chemical_formula_moiety
;
C16 H18 Co1 N8 O8,2(H2 O1)
;
_journal_coden_Cambridge 953
_journal_volume 41
_journal_year 2008
_journal_page_first 81-1
_journal_name_full 'Nankai Daxue Xuebao,Ziran Kexueban(Chin.)(Acta Scient.Nat.Univ.Nankaiensis) '
loop_
_publ_author_name
"Shuming Zhang"
"Jianlong Du"
"Jianrong Li"
"Tongliang Hu"
"Xianhe Bu"
_chemical_name_systematic
;
Tetraaqua-bis(4-(1H-tetrazol-1-yl)benzoate)-cobalt(ii) dihydrate
;
_cell_volume    553.922
_exptl_crystal_colour 'red'
_exptl_crystal_density_diffrn 1.635
_exptl_crystal_description 'block'
_diffrn_ambient_temperature 293
#These two values have been output from a single CSD field.
_refine_ls_R_factor_gt 0.0224
_refine_ls_wR_factor_gt 0.0224
_symmetry_cell_setting triclinic
_symmetry_space_group_name_H-M 'P -1'
_symmetry_Int_Tables_number 2
loop_
_symmetry_equiv_pos_site_id
_symmetry_equiv_pos_as_xyz
1 x,y,z
2 -x,-y,-z
_cell_length_a 7.5268(15)
_cell_length_b 7.7407(15)
_cell_length_c 10.826(2)
_cell_angle_alpha 96.04(3)
_cell_angle_beta 94.81(3)
_cell_angle_gamma 116.76(3)
_cell_formula_units_Z 1
loop_
_atom_type_symbol
_atom_type_radius_bond
C 0.68
H 0.23
Co 1.26
N 0.68
O 0.68
loop_
_atom_site_label
_atom_site_type_symbol
_atom_site_fract_x
_atom_site_fract_y
_atom_site_fract_z
Co1 Co 0.00000 0.50000 0.50000
O1 O 0.30020(16) 0.13180(15) -0.40757(8)
O2 O 0.56228(16) 0.15707(18) -0.27753(10)
O3 O 0.18943(16) 0.76964(15) 0.45564(10)
O4 O -0.24984(15) 0.54909(16) 0.46662(10)
N1 N 0.03256(16) 0.29690(16) 0.12153(9)
N2 N -0.15359(19) 0.2857(2) 0.10475(11)
N3 N -0.03387(17) 0.36888(16) 0.30482(10)
N4 N -0.19166(19) 0.3292(2) 0.21517(11)
C1 C 0.3956(2) 0.15695(19) -0.29840(12)
C2 C 0.29776(19) 0.18875(18) -0.18679(11)
C3 C 0.3969(2) 0.2278(2) -0.06439(12)
H1 H 0.52190 0.23050 -0.05110
C4 C 0.3100(2) 0.2628(2) 0.03818(12)
H2 H 0.37610 0.28880 0.11970
C5 C 0.12277(19) 0.25804(18) 0.01641(11)
C6 C 0.0186(2) 0.2152(2) -0.10463(12)
H3 H -0.10770 0.20970 -0.11760
C7 C 0.1079(2) 0.1807(2) -0.20595(12)
H4 H 0.04020 0.15190 -0.28720
C8 C 0.1020(2) 0.3471(2) 0.24477(12)
H5 H 0.22580 0.36400 0.28190
O5 O 0.41662(16) 0.21333(17) 0.35364(11)
H6 H 0.221(3) 0.874(3) 0.5022(18)
H7 H -0.241(3) 0.647(3) 0.444(2)
H8 H 0.267(3) 0.789(3) 0.406(2)
H9 H 0.440(3) 0.133(3) 0.319(2)
H10 H 0.386(3) 0.181(3) 0.426(2)
H11 H -0.355(4) 0.451(4) 0.424(2)
O1A O -0.30020(16) 0.86820(15) 1.40757(8)
O2A O -0.56228(16) 0.84293(18) 1.27753(10)
O3A O -0.18943(16) 0.23036(15) 0.54436(10)
O4A O 0.24984(15) 0.45091(16) 0.53338(10)
N1A N -0.03256(16) 0.70310(16) 0.87847(9)
N2A N 0.15359(19) 0.7143(2) 0.89525(11)
N3A N 0.03387(17) 0.63112(16) 0.69518(10)
N4A N 0.19166(19) 0.6708(2) 0.78483(11)
C1A C -0.3956(2) 0.84305(19) 1.29840(12)
C2A C -0.29776(19) 0.81125(18) 1.18679(11)
C3A C -0.3969(2) 0.7722(2) 1.06439(12)
H1A H -0.52190 0.76950 1.05110
C4A C -0.3100(2) 0.7372(2) 0.96182(12)
H2A H -0.37610 0.71120 0.88030
C5A C -0.12277(19) 0.74196(18) 0.98359(11)
C6A C -0.0186(2) 0.7848(2) 1.10463(12)
H3A H 0.10770 0.79030 1.11760
C7A C -0.1079(2) 0.8193(2) 1.20595(12)
H4A H -0.04020 0.84810 1.28720
C8A C -0.1020(2) 0.6529(2) 0.75523(12)
H5A H -0.22580 0.63600 0.71810
H6A H -0.221(3) 0.126(3) 0.4978(18)
H7A H 0.241(3) 0.353(3) 0.556(2)
H8A H -0.267(3) 0.211(3) 0.594(2)
H11A H 0.355(4) 0.549(4) 0.576(2)
#END
