
#######################################################################
#
#                 Cambridge Crystallographic Data Centre
#                                CCDC
#
#######################################################################
#
# If this CIF has been generated from an entry in the Cambridge
# Structural Database, then it will include bibliographic, chemical,
# crystal, experimental, refinement or atomic coordinate data resulting
# from the CCDC's data processing and validation procedures.
#
#######################################################################

data_CSD_CIF_MAHTOF
_audit_creation_date 2005-01-17
_audit_creation_method CSD-ConQuest-V1
_database_code_CSD MAHTOF
_database_code_depnum_ccdc_archive 'CCDC 252949'
_chemical_formula_sum 'C16 H24 Co1 N6 O12'
_chemical_formula_moiety
;
C10 H10 Co1 N4 O10,2(C3 H7 N1 O1)
;
_journal_coeditor_code "IUCr SJ6008"
_journal_coden_Cambridge 1370
_journal_volume 60
_journal_year 2004
_journal_page_first m1519
_journal_name_full 'Acta Crystallogr.,Sect.E:Struct.Rep.Online '
loop_
_publ_author_name
"Hong-Ping Xiao"
"Xin-Hua Li"
"Qian Shi"
_chemical_name_systematic
;
Diaqua-bis(1H-imidazole-4,5-dicarboxylato-N,O)-cobalt(ii) 
N,N-dimethylformamide solvate
;
_cell_volume    574.357
_exptl_crystal_colour 'red'
_exptl_crystal_density_diffrn 1.594
_exptl_crystal_description 'prism'
_exptl_crystal_preparation 'DMF/water/methanol'
_diffrn_ambient_temperature 298
#These two values have been output from a single CSD field.
_refine_ls_R_factor_gt 0.0511
_refine_ls_wR_factor_gt 0.0511
_symmetry_cell_setting triclinic
_symmetry_space_group_name_H-M 'P -1'
_symmetry_Int_Tables_number 2
loop_
_symmetry_equiv_pos_site_id
_symmetry_equiv_pos_as_xyz
1 x,y,z
2 -x,-y,-z
_cell_length_a 6.9316(9)
_cell_length_b 9.1453(11)
_cell_length_c 9.3055(11)
_cell_angle_alpha 87.093(2)
_cell_angle_beta 77.229(2)
_cell_angle_gamma 87.885(2)
_cell_formula_units_Z 1
loop_
_atom_type_symbol
_atom_type_radius_bond
C 0.68
H 0.23
Co 1.33
N 0.68
O 0.68
loop_
_atom_site_label
_atom_site_type_symbol
_atom_site_fract_x
_atom_site_fract_y
_atom_site_fract_z
Co1 Co 1.00000 1.00000 1.00000
O1 O 1.1743(3) 0.8581(3) 0.8416(3)
O2 O 1.1832(4) 0.7549(3) 0.6285(3)
O3 O 0.9680(4) 0.7550(3) 0.4499(3)
O4 O 0.6946(4) 0.8630(3) 0.4084(3)
O5 O 0.4006(4) 0.3070(3) 0.0134(3)
O6 O 0.8597(4) 0.8178(3) 1.1102(3)
N1 N 0.6363(4) 1.0044(3) 0.6815(3)
N2 N 0.8260(4) 0.9985(3) 0.8418(3)
N3 N 0.3280(5) 0.4522(3) 0.2082(3)
C1 C 1.1018(5) 0.8361(4) 0.7340(4)
C2 C 0.9096(5) 0.9101(4) 0.7271(3)
C3 C 0.7931(5) 0.9132(4) 0.6266(3)
C4 C 0.8169(5) 0.8389(4) 0.4853(4)
C5 C 0.6614(5) 1.0532(4) 0.8103(4)
H1 H 0.57400 1.11690 0.86900
C6 C 0.1552(6) 0.5205(5) 0.1690(6)
H2 H 0.12140 0.46880 0.09120
H3 H 0.18210 0.62040 0.13630
H4 H 0.04670 0.51790 0.25350
C7 C 0.3906(8) 0.5069(6) 0.3350(5)
H5 H 0.51210 0.45800 0.34520
H6 H 0.29040 0.48820 0.42260
H7 H 0.41050 0.61030 0.32040
C8 C 0.4370(6) 0.3541(4) 0.1252(5)
H8 H 0.55050 0.31770 0.15370
H9 H 0.794(5) 0.772(4) 1.067(3)
H10 H 0.814(5) 0.830(4) 1.197(2)
H11 H 1.049(5) 0.752(4) 0.505(4)
H12 H 0.540(4) 1.026(4) 0.642(4)
O1A O 0.8257(3) 1.1419(3) 1.1584(3)
C1A C 0.8982(5) 1.1639(4) 1.2660(4)
O2A O 0.8168(4) 1.2451(3) 1.3715(3)
C2A C 1.0904(5) 1.0899(4) 1.2729(3)
N2A N 1.1740(4) 1.0015(3) 1.1582(3)
O6A O 1.1403(4) 1.1822(3) 0.8898(3)
H9A H 1.206(5) 1.228(4) 0.933(3)
H10A H 1.186(5) 1.170(4) 0.803(2)
C5A C 1.3386(5) 0.9468(4) 1.1897(4)
N1A N 1.3637(4) 0.9956(3) 1.3185(3)
C3A C 1.2069(5) 1.0868(4) 1.3734(3)
C4A C 1.1831(5) 1.1611(4) 1.5147(4)
O3A O 1.0320(4) 1.2450(3) 1.5501(3)
H11A H 0.951(5) 1.248(4) 1.495(4)
O4A O 1.3054(4) 1.1370(3) 1.5916(3)
H12A H 1.460(4) 0.974(4) 1.358(4)
H1A H 1.42600 0.88310 1.13100
#END
