
#######################################################################
#
#                 Cambridge Crystallographic Data Centre
#                                CCDC
#
#######################################################################
#
# If this CIF has been generated from an entry in the Cambridge
# Structural Database, then it will include bibliographic, chemical,
# crystal, experimental, refinement or atomic coordinate data resulting
# from the CCDC's data processing and validation procedures.
#
#######################################################################

data_CSD_CIF_MAKLOA
_audit_creation_date 2005-08-04
_audit_creation_method CSD-ConQuest-V1
_database_code_CSD MAKLOA
_database_code_depnum_ccdc_archive 'CCDC 250685'
_chemical_formula_sum 'C15 H10 Cr1 N4 O3 S1'
_chemical_formula_moiety
;
C15 H10 Cr1 N4 O3 S1
;
_journal_coden_Cambridge 36
_journal_volume 690
_journal_year 2005
_journal_page_first 1157
_journal_name_full 'J.Organomet.Chem. '
loop_
_publ_author_name
"V.Wee Lin Ng"
"Zhiqiang Weng"
"J.J.Vittal"
"Lip Lin Koh"
"Geok Kheng Tan"
"Lai Yoong Goh"
_chemical_name_systematic
;
(\h^5^-cyclopentadienyl)-tricarbonyl-(1-phenyl-1H-tetrazol-5-ylthiolato)-chrom
ium
;
_cell_volume    796.639
_exptl_crystal_colour 'red'
_exptl_crystal_density_diffrn 1.577
_exptl_crystal_description 'long rod'
_exptl_crystal_preparation 'n-hexane/toluene'
_diffrn_ambient_temperature 223
#These two values have been output from a single CSD field.
_refine_ls_R_factor_gt 0.0498
_refine_ls_wR_factor_gt 0.0498
_symmetry_cell_setting triclinic
_symmetry_space_group_name_H-M 'P -1'
_symmetry_Int_Tables_number 2
loop_
_symmetry_equiv_pos_site_id
_symmetry_equiv_pos_as_xyz
1 x,y,z
2 -x,-y,-z
_cell_length_a 6.6121(3)
_cell_length_b 11.3626(5)
_cell_length_c 12.2539(5)
_cell_angle_alpha 110.150(2)
_cell_angle_beta 104.495(2)
_cell_angle_gamma 101.065(2)
_cell_formula_units_Z 2
loop_
_atom_type_symbol
_atom_type_radius_bond
C 0.68
H 0.23
Cr 1.35
N 0.68
O 0.68
S 1.02
loop_
_atom_site_label
_atom_site_type_symbol
_atom_site_fract_x
_atom_site_fract_y
_atom_site_fract_z
Cr1 Cr 0.39958(6) 0.34791(3) 0.66806(3)
S1 S 0.48363(10) 0.27921(6) 0.47632(5)
C1 C 0.6416(4) 0.4860(3) 0.6969(2)
O1 O 0.7869(3) 0.5727(2) 0.7180(2)
C2 C 0.5775(5) 0.3799(3) 0.8240(3)
O2 O 0.6882(4) 0.4036(3) 0.9230(2)
C3 C 0.4299(4) 0.1785(3) 0.6429(2)
O3 O 0.4514(4) 0.0790(2) 0.6321(2)
N1 N 0.1190(3) 0.0586(2) 0.37876(19)
N2 N 0.0142(3) -0.0438(2) 0.2653(2)
N3 N 0.1071(3) -0.03412(19) 0.18687(19)
N4 N 0.2821(3) 0.07845(18) 0.24990(17)
C4 C 0.2859(3) 0.1341(2) 0.3672(2)
C5 C 0.4197(4) 0.1197(2) 0.1887(2)
C6 C 0.3264(4) 0.1345(2) 0.0819(2)
H1 H 0.179(4) 0.120(2) 0.053(2)
C7 C 0.4596(5) 0.1689(3) 0.0202(2)
H2 H 0.392(4) 0.176(3) -0.049(3)
C8 C 0.6816(5) 0.1900(2) 0.0653(3)
H3 H 0.757(4) 0.209(2) 0.024(2)
C9 C 0.7735(4) 0.1761(2) 0.1726(3)
H4 H 0.917(4) 0.187(3) 0.202(2)
C10 C 0.6427(4) 0.1394(2) 0.2340(2)
H5 H 0.702(4) 0.128(2) 0.304(2)
C11 C 0.0842(4) 0.3454(3) 0.5475(3)
H6 H 0.048(4) 0.321(2) 0.462(2)
C12 C 0.0418(4) 0.2620(3) 0.6065(3)
H7 H -0.023(4) 0.177(3) 0.570(2)
C13 C 0.1253(5) 0.3394(3) 0.7346(3)
H8 H 0.118(4) 0.308(3) 0.789(3)
C14 C 0.2228(5) 0.4702(3) 0.7537(3)
H9 H 0.294(5) 0.537(3) 0.825(3)
C15 C 0.1963(4) 0.4721(3) 0.6369(3)
H10 H 0.252(4) 0.543(3) 0.626(2)
#END
