
#######################################################################
#
#                 Cambridge Crystallographic Data Centre
#                                CCDC
#
#######################################################################
#
# If this CIF has been generated from an entry in the Cambridge
# Structural Database, then it will include bibliographic, chemical,
# crystal, experimental, refinement or atomic coordinate data resulting
# from the CCDC's data processing and validation procedures.
#
#######################################################################

data_CSD_CIF_MALCDB
_audit_creation_date 1981-07-07
_audit_creation_method CSD-ConQuest-V1
_database_code_CSD MALCDB
_database_code_depnum_ccdc_archive 'CCDC 1209181'
_chemical_formula_sum 'C6 H12 Mn1 N6 O10'
_chemical_formula_moiety
;
C6 H12 Mn1 N6 O10
;
_journal_coden_Cambridge 367
_journal_volume 6
_journal_year 1980
_journal_page_first 793
_journal_name_full 'Koord.Khim.(Russ.)(Coord.Chem.) '
loop_
_publ_author_name
"M.A.Porai-Koshits"
"V.P.Nikolaev"
"L.A.Butman"
"G.V.Tsintsadze"
_chemical_name_systematic
;
Dinitrato-bis(diamidomalonato)-manganese(ii)
;
_cell_volume    343.268
_exptl_crystal_density_diffrn 1.84
_exptl_special_details
;
z(H4)=-.298, not -.278

;
_diffrn_ambient_temperature ?
_diffrn_special_details
;
The study was carried out at room temperature,in the range 283-303K

;
#These two values have been output from a single CSD field.
_refine_ls_R_factor_gt 0.032
_refine_ls_wR_factor_gt 0.032
_symmetry_cell_setting triclinic
_symmetry_space_group_name_H-M 'P -1'
_symmetry_Int_Tables_number 2
loop_
_symmetry_equiv_pos_site_id
_symmetry_equiv_pos_as_xyz
1 x,y,z
2 -x,-y,-z
_cell_length_a 7.132(1)
_cell_length_b 7.365(1)
_cell_length_c 7.674(1)
_cell_angle_alpha 91.45(1)
_cell_angle_beta 117.01(1)
_cell_angle_gamma 104.44(1)
_cell_formula_units_Z 1
loop_
_atom_type_symbol
_atom_type_radius_bond
C 0.68
H 0.23
Mn 1.35
N 0.68
O 0.68
loop_
_atom_site_label
_atom_site_type_symbol
_atom_site_fract_x
_atom_site_fract_y
_atom_site_fract_z
Mn1 Mn 0.00000 0.00000 0.00000
O1 O -0.03280 0.26190 -0.10600
O2 O 0.21530 -0.00160 -0.11830
O3 O 0.26650 0.15740 0.30080
O4 O 0.59000 0.33080 0.50810
O5 O 0.47340 0.33060 0.19790
N1 N 0.12220 0.53280 -0.17780
N2 N 0.44780 0.13810 -0.22660
N3 N 0.44500 0.27470 0.33430
C1 C 0.06780 0.34700 -0.19190
C2 C 0.12270 0.23900 -0.32360
C3 C 0.26690 0.11710 -0.21420
H1 H 0.22000 0.59600 -0.23400
H2 H 0.08400 0.59700 -0.09000
H3 H 0.53600 0.07100 -0.15800
H4 H 0.49600 0.21500 -0.29800
H5 H -0.00500 0.16500 -0.41800
H6 H 0.19000 0.32000 -0.39000
O1A O 0.03280 -0.26190 0.10600
O2A O -0.21530 0.00160 0.11830
O3A O -0.26650 -0.15740 -0.30080
C1A C -0.06780 -0.34700 0.19190
C3A C -0.26690 -0.11710 0.21420
N3A N -0.44500 -0.27470 -0.33430
N1A N -0.12220 -0.53280 0.17780
C2A C -0.12270 -0.23900 0.32360
N2A N -0.44780 -0.13810 0.22660
O4A O -0.59000 -0.33080 -0.50810
O5A O -0.47340 -0.33060 -0.19790
H1A H -0.22000 -0.59600 0.23400
H2A H -0.08400 -0.59700 0.09000
H5A H 0.00500 -0.16500 0.41800
H6A H -0.19000 -0.32000 0.39000
H3A H -0.53600 -0.07100 0.15800
H4A H -0.49600 -0.21500 0.29800
#END
