
#######################################################################
#
#                 Cambridge Crystallographic Data Centre
#                                CCDC
#
#######################################################################
#
# If this CIF has been generated from an entry in the Cambridge
# Structural Database, then it will include bibliographic, chemical,
# crystal, experimental, refinement or atomic coordinate data resulting
# from the CCDC's data processing and validation procedures.
#
#######################################################################

data_CSD_CIF_MAMKIV
_audit_creation_date 2005-08-04
_audit_creation_method CSD-ConQuest-V1
_database_code_CSD MAMKIV
_database_code_depnum_ccdc_archive 'CCDC 192602'
_chemical_formula_sum 'C10 H17 Cl3 Fe1 N3'
_chemical_formula_moiety
;
C10 H17 Cl3 Fe1 N3
;
_journal_coden_Cambridge 525
_journal_volume 99
_journal_year 2005
_journal_page_first 1032
_journal_name_full 'J.Inorg.Biochem. '
loop_
_publ_author_name
"M.Velusamy"
"R.Mayilmurugan"
"M.Palaniandavar"
_chemical_name_systematic
;
Trichloro-(N,N-dimethyl-N'-(2-pyridylmethyl)ethylenediamine)-iron(iii)
;
_cell_volume    700.091
_exptl_crystal_colour 'golden yellow'
_exptl_crystal_density_diffrn 1.62
_exptl_crystal_description 'block'
_exptl_crystal_preparation 'methanol'
_diffrn_ambient_temperature 293
_refine_special_details
;
The ethylene C atoms are disordered over two positions with equal occupancy.

;
#These two values have been output from a single CSD field.
_refine_ls_R_factor_gt 0.0553
_refine_ls_wR_factor_gt 0.0553
_symmetry_cell_setting triclinic
_symmetry_space_group_name_H-M 'P -1'
_symmetry_Int_Tables_number 2
loop_
_symmetry_equiv_pos_site_id
_symmetry_equiv_pos_as_xyz
1 x,y,z
2 -x,-y,-z
_cell_length_a 7.250(6)
_cell_length_b 8.284(3)
_cell_length_c 12.409(4)
_cell_angle_alpha 80.84(3)
_cell_angle_beta 86.76(6)
_cell_angle_gamma 72.09(7)
_cell_formula_units_Z 2
loop_
_atom_type_symbol
_atom_type_radius_bond
C 0.68
H 0.23
Cl 0.99
Fe 1.34
N 0.68
loop_
_atom_site_label
_atom_site_type_symbol
_atom_site_fract_x
_atom_site_fract_y
_atom_site_fract_z
Fe1 Fe 0.44069(9) 0.24900(8) 0.28545(5)
Cl1 Cl 0.24822(18) 0.37406(17) 0.13794(10)
Cl2 Cl 0.32652(19) 0.01169(17) 0.33754(11)
Cl3 Cl 0.2623(2) 0.3973(2) 0.41613(11)
N1 N 0.6606(5) 0.0758(5) 0.1909(3)
N2 N 0.6131(6) 0.4408(6) 0.2432(3)
C1 C 0.6527(8) 0.0677(7) 0.0842(4)
H1 H 0.55540 0.15070 0.04270
C2 C 0.8005(7) -0.0464(6) 0.2502(5)
N3 N 0.6869(7) 0.1336(7) 0.3934(4)
C3 C 0.8013(12) 0.2516(11) 0.3956(8)
C4 C 0.7809(9) -0.0571(8) 0.0334(5)
H2 H 0.77100 -0.05760 -0.04100
C5 C 0.9322(8) -0.1747(7) 0.2026(6)
H3 H 1.02780 -0.25780 0.24510
C6 C 0.8009(8) -0.0349(8) 0.3691(5)
H4 H 0.74880 -0.12120 0.41000
H5 H 0.93340 -0.05900 0.39240
C7 C 0.9239(9) -0.1811(8) 0.0937(6)
H6 H 1.01290 -0.26730 0.06150
C8 C 0.7022(12) 0.4428(10) 0.1358(6)
H7 H 0.60500 0.46250 0.08170
H8 H 0.79870 0.33440 0.13180
H9 H 0.76190 0.53280 0.12260
C9 C 0.711(2) 0.4384(19) 0.3415(11)
C10? C 0.812(2) 0.345(2) 0.3072(10)
C11 C 0.464(2) 0.6323(16) 0.2208(14)
C12? C 0.529(2) 0.6018(17) 0.2787(14)
H10 H 0.63870 0.12310 0.44720
#END
