
#######################################################################
#
#                 Cambridge Crystallographic Data Centre
#                                CCDC
#
#######################################################################
#
# If this CIF has been generated from an entry in the Cambridge
# Structural Database, then it will include bibliographic, chemical,
# crystal, experimental, refinement or atomic coordinate data resulting
# from the CCDC's data processing and validation procedures.
#
#######################################################################

data_CSD_CIF_MANSOM
_audit_creation_date 2017-04-22
_audit_creation_method CSD-ConQuest-V1
_database_code_CSD MANSOM
_database_code_depnum_ccdc_archive 'CCDC 1540857'
_chemical_formula_sum 'C10 H12 Cl2 Co1 N4'
_chemical_formula_moiety
;
C10 H12 Cl2 Co1 N4
;
_journal_coeditor_code "yo3026"
_journal_coden_Cambridge 1777
_journal_volume 73
_journal_year 2017
_journal_page_first 399
_journal_name_full 'Acta Crystallogr.,Sect.C:Cryst.Struct.Chem. '
loop_
_publ_author_name
"O.C.Sanchez Montilva"
"F.Movilla"
"M.G.Rodriguez"
"F.Di Salvo"
_chemical_name_systematic
;
dichloro-bis(4-aminopyridine)-cobalt(ii)
;
_cell_volume   1303.548
_exptl_crystal_colour 'blue'
_exptl_crystal_description 'prism'
_diffrn_ambient_temperature 293
#These two values have been output from a single CSD field.
_refine_ls_R_factor_gt 0.0616
_refine_ls_wR_factor_gt 0.0616
_symmetry_cell_setting monoclinic
_symmetry_space_group_name_H-M 'C 2/c'
_symmetry_Int_Tables_number 15
loop_
_symmetry_equiv_pos_site_id
_symmetry_equiv_pos_as_xyz
1 x,y,z
2 -x,y,1/2-z
3 1/2+x,1/2+y,z
4 1/2-x,1/2+y,1/2-z
5 -x,-y,-z
6 x,-y,-1/2+z
7 -1/2-x,-1/2-y,-z
8 -1/2+x,-1/2-y,-1/2+z
_cell_length_a 8.9262(9)
_cell_length_b 9.9679(10)
_cell_length_c 14.9683(13)
_cell_angle_alpha 90
_cell_angle_beta 101.825(10)
_cell_angle_gamma 90
_cell_formula_units_Z 4
loop_
_atom_type_symbol
_atom_type_radius_bond
C 0.68
H 0.23
Cl 0.99
Co 1.26
N 0.68
loop_
_atom_site_label
_atom_site_type_symbol
_atom_site_fract_x
_atom_site_fract_y
_atom_site_fract_z
Co1 Co 0.50000 0.57032(10) 0.75000
Cl1 Cl 0.28833(18) 0.43946(15) 0.71750(9)
N1 N 0.5120(5) 0.6761(4) 0.6377(3)
N2 N 0.4901(7) 0.8335(4) 0.3784(3)
H1 H 0.54010 0.79640 0.34160
H2 H 0.43430 0.90290 0.36120
C1 C 0.4266(6) 0.7858(5) 0.6082(4)
H3 H 0.37050 0.82500 0.64730
C2 C 0.5911(7) 0.6233(5) 0.5793(4)
H4 H 0.65270 0.54920 0.59830
C3 C 0.5866(8) 0.6718(6) 0.4937(4)
H5 H 0.64300 0.62980 0.45590
C4 C 0.4990(7) 0.7829(5) 0.4627(3)
C5 C 0.4186(6) 0.8418(5) 0.5245(3)
H6 H 0.36040 0.91870 0.50810
Cl1A Cl 0.71167(18) 0.43946(15) 0.78250(9)
N1A N 0.4880(5) 0.6761(4) 0.8623(3)
N2A N 0.5099(7) 0.8335(4) 1.1216(3)
H1A H 0.45990 0.79640 1.15840
H2A H 0.56570 0.90290 1.13880
C1A C 0.5734(6) 0.7858(5) 0.8918(4)
H3A H 0.62950 0.82500 0.85270
C2A C 0.4089(7) 0.6233(5) 0.9207(4)
H4A H 0.34730 0.54920 0.90170
C3A C 0.4134(8) 0.6718(6) 1.0063(4)
H5A H 0.35700 0.62980 1.04410
C4A C 0.5010(7) 0.7829(5) 1.0373(3)
C5A C 0.5814(6) 0.8418(5) 0.9755(3)
H6A H 0.63960 0.91870 0.99190
#END
