
#######################################################################
#
#                 Cambridge Crystallographic Data Centre
#                                CCDC
#
#######################################################################
#
# If this CIF has been generated from an entry in the Cambridge
# Structural Database, then it will include bibliographic, chemical,
# crystal, experimental, refinement or atomic coordinate data resulting
# from the CCDC's data processing and validation procedures.
#
#######################################################################

data_CSD_CIF_MANTOK
_audit_creation_date 2000-07-25
_audit_creation_method CSD-ConQuest-V1
_database_code_CSD MANTOK
_database_code_depnum_ccdc_archive 'CCDC 132984'
_chemical_formula_sum 'C15 H10 Cr1 O5 S1'
_chemical_formula_moiety
;
C15 H10 Cr1 O5 S1
;
_journal_coden_Cambridge 1290
_journal_year 2000
_journal_page_first 901
_journal_name_full 'Eur.J.Inorg.Chem. '
loop_
_publ_author_name
"D.Prim"
"J.-P.Tranchier"
"F.Rose-Munch"
"E.Rose"
"J.Vaissermann"
_chemical_name_systematic
;
(2-(\h^6^-4-Methoxybenzoyl)thiophene)-tricarbonyl-chromium
;
_chemical_melting_point 433.15
_cell_volume    752.912
_exptl_crystal_colour 'yellow'
_exptl_crystal_density_diffrn 1.56
_exptl_special_details
;
Melting point range 433.15-434.15K

;
_exptl_crystal_description 'plate'
_diffrn_ambient_temperature ?
_diffrn_special_details
;
The study was carried out at room temperature,in the range 283-303K

;
_refine_special_details
;
The thiophene group is disordered; atoms S1 and C9 have two positions each 
with occupancies 0.65:0.35.
;
#These two values have been output from a single CSD field.
_refine_ls_R_factor_gt 0.0587
_refine_ls_wR_factor_gt 0.0587
_symmetry_cell_setting triclinic
_symmetry_space_group_name_H-M 'P -1'
_symmetry_Int_Tables_number 2
loop_
_symmetry_equiv_pos_site_id
_symmetry_equiv_pos_as_xyz
1 x,y,z
2 -x,-y,-z
_cell_length_a 7.355(5)
_cell_length_b 10.520(3)
_cell_length_c 10.665(6)
_cell_angle_alpha 109.56(3)
_cell_angle_beta 93.65(5)
_cell_angle_gamma 101.91(4)
_cell_formula_units_Z 2
loop_
_atom_type_symbol
_atom_type_radius_bond
C 0.68
H 0.23
Cr 1.35
O 0.68
S 1.02
loop_
_atom_site_label
_atom_site_type_symbol
_atom_site_fract_x
_atom_site_fract_y
_atom_site_fract_z
Cr1 Cr 0.18514(8) 0.45309(7) 0.23284(6)
S1 S 0.6736(8) 0.9697(5) 0.2868(6)
S2? S 0.585(2) 0.800(1) 0.446(1)
O1 O 0.2054(6) 0.1386(3) 0.0338(4)
O2 O 0.3759(6) 0.7648(4) 0.0939(4)
O3 O -0.0363(5) 0.6679(4) 0.3001(4)
O4 O 0.2832(7) 0.5255(6) 0.5278(4)
O5 O -0.1537(8) 0.2414(5) 0.2360(6)
C1 C 0.3886(5) 0.5686(4) 0.1460(4)
C2 C 0.2363(6) 0.4878(5) 0.0439(4)
C3 C 0.1762(6) 0.3453(5) 0.0118(4)
C4 C 0.2744(7) 0.2773(5) 0.0765(4)
C5 C 0.4251(6) 0.3544(5) 0.1764(5)
C6 C 0.4818(6) 0.4980(5) 0.2106(4)
C7 C 0.4395(6) 0.7213(5) 0.1750(4)
C8 C 0.5644(6) 0.8193(5) 0.2960(5)
C9 C 0.615(4) 0.822(2) 0.437(3)
C10? C 0.695(7) 0.955(5) 0.301(5)
C11 C 0.729(1) 0.950(1) 0.5096(7)
C12 C 0.7741(9) 1.0295(8) 0.4419(7)
C13 C 0.287(2) 0.0629(8) 0.0982(9)
C14 C 0.0464(5) 0.5839(4) 0.2730(4)
C15 C 0.2463(7) 0.4983(6) 0.4145(5)
C16 C -0.0214(8) 0.3226(5) 0.2351(6)
H1 H 0.173(8) 0.541(6) 0.002(6)
H2 H 0.058(8) 0.283(6) -0.051(6)
H3 H 0.475(8) 0.306(6) 0.214(6)
H4 H 0.579(8) 0.544(6) 0.270(6)
H5 H 0.75(1) 0.942(7) 0.568(7)
H6 H 0.862(8) 1.116(6) 0.467(6)
H7 H 0.440(9) 0.095(6) 0.121(6)
H8 H 0.249(9) 0.082(7) 0.181(7)
H9 H 0.199(8) -0.034(7) 0.053(6)
#END
