
#######################################################################
#
#                 Cambridge Crystallographic Data Centre
#                                CCDC
#
#######################################################################
#
# If this CIF has been generated from an entry in the Cambridge
# Structural Database, then it will include bibliographic, chemical,
# crystal, experimental, refinement or atomic coordinate data resulting
# from the CCDC's data processing and validation procedures.
#
#######################################################################

data_CSD_CIF_MARTEG
_audit_creation_date 2012-05-22
_audit_creation_method CSD-ConQuest-V1
_database_code_CSD MARTEG
_database_code_depnum_ccdc_archive 'CCDC 874784'
_database_code_depnum_ccdc_journal 1267/3510
_chemical_formula_sum 'C14 H22 Co1 N4 O12'
_chemical_formula_moiety
;
C14 H18 Co1 N4 O10,2(H2 O1)
;
_journal_coden_Cambridge 1267
_journal_volume 227
_journal_year 2012
_journal_page_first 59
_journal_name_full 'Z.Kristallogr.-New Cryst.Struct. '
loop_
_publ_author_name
"Xin-Yu Yang"
"Li-Yan Yang"
"Peng-Peng Lei"
"Jing Jing Shang"
_chemical_name_systematic
;
Diaqua-bis(5-carboxy-2-ethyl-1H-imidazole-4-carboxylato)-cobalt(ii) dihydrate
;
_cell_volume    508.573
_exptl_crystal_density_diffrn 1.624
_diffrn_ambient_temperature 293
#These two values have been output from a single CSD field.
_refine_ls_R_factor_gt 0.0452
_refine_ls_wR_factor_gt 0.0452
_symmetry_cell_setting triclinic
_symmetry_space_group_name_H-M 'P -1'
_symmetry_Int_Tables_number 2
loop_
_symmetry_equiv_pos_site_id
_symmetry_equiv_pos_as_xyz
1 x,y,z
2 -x,-y,-z
_cell_length_a 7.1485(8)
_cell_length_b 8.8837(9)
_cell_length_c 9.3461(10)
_cell_angle_alpha 66.036(1)
_cell_angle_beta 88.452(1)
_cell_angle_gamma 70.882(1)
_cell_formula_units_Z 1
loop_
_atom_type_symbol
_atom_type_radius_bond
C 0.68
H 0.23
Co 1.26
N 0.68
O 0.68
loop_
_atom_site_label
_atom_site_type_symbol
_atom_site_fract_x
_atom_site_fract_y
_atom_site_fract_z
Co1 Co 0.50000 0.50000 0.50000
O1 O 0.4433(3) 0.7646(3) 0.3243(2)
O2 O 0.3291(4) 1.0441(3) 0.2840(2)
O3 O 0.1808(4) 1.2111(3) 0.4407(3)
H1 H 0.223(6) 1.166(5) 0.378(4)
O4 O 0.0659(3) 1.1634(3) 0.6730(3)
O5 O 0.2241(3) 0.5161(3) 0.4214(3)
H2 H 0.126(4) 0.608(3) 0.400(5)
H3 H 0.191(5) 0.444(4) 0.402(5)
N1 N 0.3634(3) 0.6508(3) 0.6260(2)
N2 N 0.2257(3) 0.7970(3) 0.7653(3)
H4 H 0.189(5) 0.821(4) 0.846(3)
C1 C 0.3671(4) 0.8809(3) 0.3714(3)
C2 C 0.3195(4) 0.8266(3) 0.5353(3)
C3 C 0.2333(4) 0.9198(3) 0.6204(3)
C4 C 0.1534(4) 1.1115(3) 0.5779(3)
C5 C 0.3056(4) 0.6366(3) 0.7657(3)
C6 C 0.3148(5) 0.4699(4) 0.9034(3)
H5 H 0.29280 0.49210 0.99700
H6 H 0.44700 0.38310 0.92180
C7 C 0.1608(6) 0.3968(5) 0.8769(4)
H7 H 0.17210 0.29030 0.96750
H8 H 0.18340 0.37280 0.78540
H9 H 0.02950 0.48130 0.86120
O6 O 0.1677(5) 0.8362(5) 0.0458(4)
H10 H 0.081(6) 0.872(7) 0.098(6)
H11 H 0.257(6) 0.881(7) 0.040(7)
O1A O 0.5567(3) 0.2354(3) 0.6757(2)
O2A O 0.6709(4) -0.0441(3) 0.7160(2)
O3A O 0.8192(4) -0.2111(3) 0.5593(3)
H1A H 0.777(6) -0.166(5) 0.622(4)
O4A O 0.9341(3) -0.1634(3) 0.3270(3)
O5A O 0.7759(3) 0.4839(3) 0.5786(3)
H2A H 0.874(4) 0.392(3) 0.600(5)
H3A H 0.809(5) 0.556(4) 0.598(5)
N1A N 0.6366(3) 0.3492(3) 0.3740(2)
N2A N 0.7743(3) 0.2030(3) 0.2347(3)
H4A H 0.811(5) 0.179(4) 0.154(3)
C1A C 0.6329(4) 0.1191(3) 0.6286(3)
C2A C 0.6805(4) 0.1734(3) 0.4647(3)
C3A C 0.7667(4) 0.0802(3) 0.3796(3)
C4A C 0.8466(4) -0.1115(3) 0.4221(3)
C5A C 0.6944(4) 0.3634(3) 0.2343(3)
C6A C 0.6852(5) 0.5301(4) 0.0966(3)
H5A H 0.70720 0.50790 0.00300
H6A H 0.55300 0.61690 0.07820
C7A C 0.8392(6) 0.6032(5) 0.1231(4)
H7A H 0.82790 0.70970 0.03250
H8A H 0.81660 0.62720 0.21460
H9A H 0.97050 0.51870 0.13880
#END
