
#######################################################################
#
#                 Cambridge Crystallographic Data Centre
#                                CCDC
#
#######################################################################
#
# If this CIF has been generated from an entry in the Cambridge
# Structural Database, then it will include bibliographic, chemical,
# crystal, experimental, refinement or atomic coordinate data resulting
# from the CCDC's data processing and validation procedures.
#
#######################################################################

data_CSD_CIF_MAYKAZ
_audit_creation_date 2006-03-02
_audit_creation_method CSD-ConQuest-V1
_database_code_CSD MAYKAZ
_database_code_depnum_ccdc_archive 'CCDC 291643'
_chemical_formula_sum 'C12 H9 Mn1 O3 S1'
_chemical_formula_moiety
;
C12 H9 Mn1 O3 S1
;
_journal_coden_Cambridge 4
_journal_volume 127
_journal_year 2005
_journal_page_first 15010
_journal_name_full 'J.Am.Chem.Soc. '
loop_
_publ_author_name
"C.A.Snyder"
"J.P.Selegue"
"N.C.Tice"
"C.E.Wallace"
"M.T.Blankenbuehler"
"S.Parkin"
"K.D.E.Allen"
"R.T.Beck"
_chemical_name_systematic
;
(\h^5^-1,3-Dimethylcyclopenta(c)thienyl)-tricarbonyl-manganese
;
_chemical_melting_point 357.15
_cell_volume    579.536
_exptl_crystal_colour 'orange'
_exptl_crystal_density_diffrn 1.652
_exptl_special_details
;
Melting point range 357.15-360.15K

;
_exptl_crystal_description 'irregular block'
_exptl_crystal_preparation 'pentane'
_diffrn_ambient_temperature 90.0
#These two values have been output from a single CSD field.
_refine_ls_R_factor_gt 0.032
_refine_ls_wR_factor_gt 0.032
_symmetry_cell_setting monoclinic
_symmetry_space_group_name_H-M 'P 21/m'
_symmetry_Int_Tables_number 11
loop_
_symmetry_equiv_pos_site_id
_symmetry_equiv_pos_as_xyz
1 x,y,z
2 -x,1/2+y,-z
3 -x,-y,-z
4 x,-1/2-y,z
_cell_length_a 6.4449(3)
_cell_length_b 9.0872(4)
_cell_length_c 9.9654(6)
_cell_angle_alpha 90
_cell_angle_beta 96.7940(19)
_cell_angle_gamma 90
_cell_formula_units_Z 2
loop_
_atom_type_symbol
_atom_type_radius_bond
C 0.68
H 0.23
Mn 1.35
O 0.68
S 1.02
loop_
_atom_site_label
_atom_site_type_symbol
_atom_site_fract_x
_atom_site_fract_y
_atom_site_fract_z
Mn1 Mn 0.03555(7) 0.25000 0.87713(4)
S1 S 0.25910(12) 0.25000 0.51794(7)
O1 O -0.1537(4) 0.25000 1.1307(2)
O2 O -0.2358(2) 0.00273(18) 0.77214(15)
C1 C 0.2772(3) 0.1089(2) 0.6337(2)
C2 C 0.2962(3) 0.1703(2) 0.76334(19)
C3 C 0.3141(3) 0.1221(2) 0.9028(2)
H1 H 0.31050 0.02330 0.93370
C4 C 0.3380(5) 0.25000 0.9846(3)
H2 H 0.36610 0.25000 1.08030
C5 C 0.2663(4) -0.0485(2) 0.5949(2)
H3 H 0.38720 -0.10070 0.64130
H4 H 0.26680 -0.05740 0.49700
H5 H 0.13750 -0.09170 0.62090
C6 C -0.1327(3) 0.1010(3) 0.8120(2)
C7 C -0.0783(5) 0.25000 1.0312(3)
O2C O -0.2358(2) 0.49727(18) 0.77214(15)
C1C C 0.2772(3) 0.3911(2) 0.6337(2)
C2C C 0.2962(3) 0.3297(2) 0.76334(19)
C3C C 0.3141(3) 0.3779(2) 0.9028(2)
H1C H 0.31050 0.47670 0.93370
C5C C 0.2663(4) 0.5485(2) 0.5949(2)
H3C H 0.38720 0.60070 0.64130
H4C H 0.26680 0.55740 0.49700
H5C H 0.13750 0.59170 0.62090
C6C C -0.1327(3) 0.3990(3) 0.8120(2)
#END
