
#######################################################################
#
#                 Cambridge Crystallographic Data Centre
#                                CCDC
#
#######################################################################
#
# If this CIF has been generated from an entry in the Cambridge
# Structural Database, then it will include bibliographic, chemical,
# crystal, experimental, refinement or atomic coordinate data resulting
# from the CCDC's data processing and validation procedures.
#
#######################################################################

data_CSD_CIF_MCEACR
_audit_creation_date 1976-09-20
_audit_creation_method CSD-ConQuest-V1
_database_code_CSD MCEACR
_chemical_formula_sum 'C6 H20 Cl1 Cr1 N4 O4 S2'
_chemical_formula_moiety
;
C6 H20 Cr1 N4 S2 1+,Cl1 O4 1-
;
_journal_coden_Cambridge 9
_journal_volume 15
_journal_year 1976
_journal_page_first 1183
_journal_name_full 'Inorg.Chem. '
loop_
_publ_author_name
"C.Stein"
"S.Bouma"
"J.Carlson"
"C.Cornelius"
"J.Maeda"
"C.Weschler"
"E.Deutsch"
"K.O.Hodgson"
_chemical_name_systematic
;
bis(2-Mercaptoethylamine)ethylenediamine-chromium(iii) perchlorate
;
_cell_volume   2928.967
_exptl_crystal_density_diffrn 1.67
_exptl_special_details
;
BOND GIVEN AS CL1-C1 = 1.418A IN TABLE IV SHOULD READ CL1- O1=1.418A. CL1-O2 
AT 1.319 SHOULD BE 1.391
;
_diffrn_ambient_temperature ?
_diffrn_special_details
;
The study was carried out at room temperature,in the range 283-303K

;
#These two values have been output from a single CSD field.
_refine_ls_R_factor_gt 0.056
_refine_ls_wR_factor_gt 0.056
_symmetry_cell_setting orthorhombic
_symmetry_space_group_name_H-M 'F d d 2'
_symmetry_Int_Tables_number 43
loop_
_symmetry_equiv_pos_site_id
_symmetry_equiv_pos_as_xyz
1 x,y,z
2 x,1/2+y,1/2+z
3 1/2+x,y,1/2+z
4 1/2+x,1/2+y,z
5 1/4-x,1/4+y,1/4+z
6 1/4-x,3/4+y,3/4+z
7 3/4-x,1/4+y,3/4+z
8 3/4-x,3/4+y,1/4+z
9 1/4+x,1/4-y,1/4+z
10 1/4+x,3/4-y,3/4+z
11 3/4+x,1/4-y,3/4+z
12 3/4+x,3/4-y,1/4+z
13 1/2-x,-y,1/2+z
14 1/2-x,1/2-y,z
15 -x,-y,z
16 -x,1/2-y,1/2+z
_cell_length_a 17.205(6)
_cell_length_b 10.628(4)
_cell_length_c 16.018(6)
_cell_angle_alpha 90
_cell_angle_beta 90
_cell_angle_gamma 90
_cell_formula_units_Z 8
loop_
_atom_type_symbol
_atom_type_radius_bond
C 0.68
H 0.23
Cl 0.99
Cr 1.35
N 0.68
O 0.68
S 1.02
loop_
_atom_site_label
_atom_site_type_symbol
_atom_site_fract_x
_atom_site_fract_y
_atom_site_fract_z
Cl1 Cl 0.00000 0.00000 0.44680
Cr1 Cr 0.25000 0.25000 0.25000
C1 C 0.28000 0.30300 0.42800
C2 C 0.38700 0.08800 0.17100
C3 C 0.31900 0.09500 0.11100
H1 H 0.38720 0.00490 0.19950
H2 H 0.27170 0.36170 0.48040
H3 H 0.43820 0.09240 0.13450
H4 H 0.31520 0.01850 0.07410
H5 H 0.32390 0.17310 0.07270
H6 H 0.23450 0.03780 0.18680
H7 H 0.20470 0.12540 0.12800
H8 H 0.31080 0.42210 0.33980
H9 H 0.22950 0.42750 0.35490
H10 H 0.33490 0.26900 0.43340
N1 N 0.26800 0.37500 0.35000
N2 N 0.24600 0.11000 0.16200
O1 O 0.01280 0.10900 0.49600
O2 O 0.06360 -0.02200 0.39500
S1 S 0.11310 0.28520 0.24230
O1N O -0.01280 -0.10900 0.49600
O2N O -0.06360 0.02200 0.39500
N1M N 0.23200 0.12500 0.35000
N2M N 0.25400 0.39000 0.16200
S1M S 0.38690 0.21480 0.24230
C1M C 0.22000 0.19700 0.42800
C2M C 0.11300 0.41200 0.17100
H8M H 0.18920 0.07790 0.33980
H9M H 0.27050 0.07250 0.35490
C3M C 0.18100 0.40500 0.11100
H6M H 0.26550 0.46220 0.18680
H7M H 0.29530 0.37460 0.12800
H2M H 0.22830 0.13830 0.48040
H10M H 0.16510 0.23100 0.43340
H1M H 0.11280 0.49510 0.19950
H3M H 0.06180 0.40760 0.13450
H4M H 0.18480 0.48150 0.07410
H5M H 0.17610 0.32690 0.07270
#END
