
#######################################################################
#
#                 Cambridge Crystallographic Data Centre
#                                CCDC
#
#######################################################################
#
# If this CIF has been generated from an entry in the Cambridge
# Structural Database, then it will include bibliographic, chemical,
# crystal, experimental, refinement or atomic coordinate data resulting
# from the CCDC's data processing and validation procedures.
#
#######################################################################

data_CSD_CIF_MEBGAO
_audit_creation_date 1985-05-09
_audit_creation_method CSD-ConQuest-V1
_database_code_CSD MEBGAO
_chemical_formula_sum 'C20 H32 Co1 N5 O6'
_chemical_formula_moiety
;
C20 H32 Co1 N5 O6
;
_journal_coeditor_code "IUCr A23257"
_journal_coden_Cambridge 622
_journal_volume 40
_journal_year 1984
_journal_page_first 478
_journal_name_full 'Acta Crystallogr.,Sect.B:Struct.Sci. '
loop_
_publ_author_name
"T.Kurihara"
"A.Uchida"
"Y.Ohashi"
"Y.Sasada"
_chemical_name_systematic
;
bis(Dimethylglyoximato)-((S)-1-methoxycarbonylethyl)-((R)-\a-methylbenzylamine
)-cobalt(iii)
;
_cell_volume    585.018
_exptl_crystal_colour 'dark red'
_exptl_crystal_density_diffrn 1.412
_exptl_special_details
;
triclinic polymorph
In bond table, O6-C20 is given as O6-C18

;
_diffrn_ambient_temperature ?
_diffrn_special_details
;
The study was carried out at room temperature,in the range 283-303K

;
#These two values have been output from a single CSD field.
_refine_ls_R_factor_gt 0.052
_refine_ls_wR_factor_gt 0.052
loop_
_citation_database_id_CSD
_citation_special_details
MEBGCO "is a stereoisomer of this entry"
_symmetry_cell_setting triclinic
_symmetry_space_group_name_H-M 'P 1'
_symmetry_Int_Tables_number 1
loop_
_symmetry_equiv_pos_site_id
_symmetry_equiv_pos_as_xyz
1 x,y,z
_cell_length_a 8.637(1)
_cell_length_b 8.955(2)
_cell_length_c 8.094(1)
_cell_angle_alpha 105.71(1)
_cell_angle_beta 100.18(2)
_cell_angle_gamma 96.23(2)
_cell_formula_units_Z 1
loop_
_atom_type_symbol
_atom_type_radius_bond
C 0.68
H 0.23
Co 1.33
N 0.68
O 0.68
loop_
_atom_site_label
_atom_site_type_symbol
_atom_site_fract_x
_atom_site_fract_y
_atom_site_fract_z
Co1 Co -0.03030 -0.00610 0.00710
N1 N -0.0775(5) -0.2297(4) -0.0659(5)
N2 N -0.2191(5) -0.0325(5) 0.0917(5)
N3 N 0.0074(5) 0.2111(5) 0.0830(6)
N4 N 0.1598(6) 0.0280(6) -0.0697(5)
O1 O 0.0319(5) -0.3130(4) -0.1334(5)
O2 O -0.2810(5) 0.0849(5) 0.1778(5)
O3 O -0.0814(5) 0.3029(4) 0.1748(5)
O4 O 0.2312(5) -0.0983(5) -0.1456(5)
C1 C -0.2001(6) -0.2934(5) -0.0306(6)
C2 C -0.2876(7) -0.1767(7) 0.0628(8)
C3 C 0.1392(8) 0.2821(7) 0.0571(7)
C4 C 0.2310(7) 0.1678(6) -0.0342(7)
C5 C -0.2569(9) -0.4666(8) -0.0753(9)
C6 C -0.4347(9) -0.2222(9) 0.1123(12)
C7 C 0.1927(10) 0.4564(7) 0.1143(9)
C8 C 0.3898(8) 0.2060(11) -0.0784(10)
N5 N 0.0999(6) -0.0230(6) 0.2407(6)
C9 C 0.2677(6) 0.0393(6) 0.3257(7)
C10 C 0.3327(8) -0.0555(7) 0.4488(7)
C11 C 0.2897(7) 0.2101(6) 0.4210(6)
C12 C 0.1850(9) 0.2808(9) 0.5183(8)
C13 C 0.2186(12) 0.4386(10) 0.6073(10)
C14 C 0.3543(13) 0.5300(9) 0.6134(11)
C15 C 0.4653(15) 0.4653(12) 0.5238(15)
C16 C 0.4359(8) 0.3069(9) 0.4308(9)
C17 C -0.1723(7) -0.0052(7) -0.2286(7)
C18 C -0.2119(10) 0.1438(8) -0.2427(9)
C19 C -0.1282(7) -0.1089(7) -0.3790(6)
O5 O -0.0345(7) -0.0571(8) -0.4559(6)
O6 O -0.1853(7) -0.2599(5) -0.4289(6)
C20 C -0.1083(14) -0.3527(12) -0.5578(10)
H1 H 0.159(7) -0.193(7) -0.168(7)
H2 H -0.181(6) 0.203(6) 0.160(7)
H3 H -0.379(7) -0.522(7) -0.122(8)
H4 H -0.193(7) -0.495(7) 0.006(8)
H5 H -0.209(7) -0.507(7) -0.194(8)
H6 H -0.414(6) -0.206(6) 0.248(7)
H7 H -0.476(6) -0.348(7) 0.047(7)
H8 H -0.516(9) -0.167(9) 0.082(10)
H9 H 0.068(9) 0.510(8) 0.094(10)
H10 H 0.253(7) 0.505(7) 0.210(8)
H11 H 0.234(10) 0.487(10) 0.039(11)
H12 H 0.439(9) 0.308(9) -0.018(9)
H13 H 0.375(7) 0.188(6) -0.214(7)
H14 H 0.467(7) 0.132(6) -0.042(7)
H15 H 0.092(7) -0.136(7) 0.223(7)
H16 H 0.044(7) 0.016(6) 0.324(7)
H17 H 0.318(7) 0.035(7) 0.231(8)
H18 H 0.435(7) -0.011(8) 0.507(8)
H19 H 0.323(7) -0.163(7) 0.382(8)
H20 H 0.277(5) -0.052(5) 0.535(6)
H21 H 0.082(7) 0.214(7) 0.523(7)
H22 H 0.177(9) 0.481(10) 0.662(10)
H23 H 0.371(8) 0.636(8) 0.680(9)
H24 H 0.550(7) 0.505(7) 0.529(8)
H25 H 0.483(7) 0.274(7) 0.369(8)
H26 H -0.273(9) -0.103(9) -0.21(1)
H27 H -0.280(8) 0.138(8) -0.352(9)
H28 H -0.099(7) 0.197(7) -0.258(8)
H29 H -0.259(9) 0.234(8) -0.126(9)
H30 H -0.161(6) -0.331(6) -0.675(7)
H31 H 0.011(7) -0.321(7) -0.530(7)
H32 H -0.125(7) -0.467(7) -0.567(8)
#END
