
#######################################################################
#
#                 Cambridge Crystallographic Data Centre
#                                CCDC
#
#######################################################################
#
# If this CIF has been generated from an entry in the Cambridge
# Structural Database, then it will include bibliographic, chemical,
# crystal, experimental, refinement or atomic coordinate data resulting
# from the CCDC's data processing and validation procedures.
#
#######################################################################

data_CSD_CIF_MEBLOW
_audit_creation_date 2013-01-14
_audit_creation_method CSD-ConQuest-V1
_database_code_CSD MEBLOW
_database_code_depnum_ccdc_archive 'CCDC 870832'
_chemical_formula_sum 'C23 H24 Cr1 O12 S1'
_chemical_formula_moiety
;
C23 H24 Cr1 O12 S1
;
_journal_coden_Cambridge 917
_journal_volume 8
_journal_year 2012
_journal_page_first 1059
_journal_name_full 'Beilstein J.Org.Chem. '
loop_
_publ_author_name
"T.Ziegler"
"U.Heber"
_chemical_name_systematic
;
(\h^6^-2,3,4,6-tetra-O-acetyl-\b-D-glucopyranosylthio(benzene))-tricarbonyl-ch
romium
;
_cell_volume    658.731
_exptl_crystal_density_diffrn 1.453
_diffrn_ambient_temperature 220
#These two values have been output from a single CSD field.
_refine_ls_R_factor_gt 0.0496
_refine_ls_wR_factor_gt 0.0496
_symmetry_cell_setting triclinic
_symmetry_space_group_name_H-M 'P 1'
_symmetry_Int_Tables_number 1
loop_
_symmetry_equiv_pos_site_id
_symmetry_equiv_pos_as_xyz
1 x,y,z
_cell_length_a 6.9564(17)
_cell_length_b 9.9695(19)
_cell_length_c 10.278(2)
_cell_angle_alpha 85.96(2)
_cell_angle_beta 78.98(3)
_cell_angle_gamma 70.31(2)
_cell_formula_units_Z 1
loop_
_atom_type_symbol
_atom_type_radius_bond
C 0.68
H 0.23
Cr 1.39
O 0.68
S 1.02
loop_
_atom_site_label
_atom_site_type_symbol
_atom_site_fract_x
_atom_site_fract_y
_atom_site_fract_z
Cr1 Cr 0.16212(12) 0.23903(10) -0.74142(8)
S1 S 0.2167(2) 0.57554(16) -0.87532(12)
O1 O 0.4803(5) 0.5055(4) -1.0967(3)
O2 O -0.0731(5) 0.6810(4) -1.0893(3)
O3 O -0.1521(7) 0.8857(6) -0.9868(5)
O4 O 0.1011(5) 0.7855(4) -1.3243(3)
O5 O -0.0212(7) 0.6778(6) -1.4574(4)
O6 O 0.5035(6) 0.5970(5) -1.4471(3)
O7 O 0.4959(7) 0.8237(6) -1.4785(5)
O8 O 0.8585(5) 0.2937(4) -1.2220(3)
O9 O 1.1708(6) 0.3135(5) -1.2492(4)
O10 O 0.1352(9) -0.0435(6) -0.7955(6)
O11 O -0.2131(7) 0.2739(5) -0.5303(4)
O12 O -0.1308(8) 0.3741(7) -0.9286(5)
C1 C 0.2667(9) 0.5372(7) -1.0474(6)
C2 C 0.1422(9) 0.6636(8) -1.1209(6)
C3 C 0.2092(9) 0.6531(7) -1.2668(6)
C4 C 0.4412(8) 0.6169(6) -1.3086(5)
C5 C 0.5455(8) 0.4836(7) -1.2354(5)
C6 C 0.7764(9) 0.4393(7) -1.2626(6)
C7 C -0.2074(9) 0.7989(8) -1.0275(5)
C8 C -0.4233(11) 0.8008(11) -1.0163(9)
C9 C -0.0070(9) 0.7843(7) -1.4186(6)
C10 C -0.1067(17) 0.9312(10) -1.4677(11)
C11 C 0.5317(9) 0.7068(9) -1.5229(6)
C12 C 0.6069(11) 0.6680(9) -1.6639(6)
H1 H 0.50750 0.63610 -1.69620
H2 H 0.73960 0.59200 -1.67330
H3 H 0.62300 0.75040 -1.71490
C13 C 1.0569(8) 0.2440(7) -1.2175(5)
C14 C 1.1245(11) 0.0929(8) -1.1721(7)
H4 H 1.09650 0.03410 -1.23240
H5 H 1.04900 0.08530 -1.08370
H6 H 1.27210 0.06080 -1.17040
C15 C 0.3088(8) 0.4086(6) -0.8002(5)
C16 C 0.4368(8) 0.2809(6) -0.8662(6)
C17 C 0.5054(9) 0.1545(8) -0.7961(7)
C18 C 0.4496(11) 0.1523(9) -0.6579(7)
C19 C 0.3275(10) 0.2748(8) -0.5917(6)
C20 C 0.2546(10) 0.4036(8) -0.6617(6)
C21 C 0.1500(11) 0.0663(9) -0.7741(7)
C22 C -0.0678(11) 0.2616(7) -0.6122(6)
C23 C -0.0168(11) 0.3213(9) -0.8568(6)
H7 H 0.240(6) 0.471(5) -1.056(3)
H8 H 0.156(7) 0.723(5) -1.104(4)
H9 H 0.179(8) 0.590(7) -1.286(5)
H10 H 0.473(6) 0.687(5) -1.279(3)
H11 H 0.506(8) 0.423(6) -1.260(5)
H12 H 0.820(6) 0.442(5) -1.352(4)
H13 H 0.822(7) 0.497(6) -1.216(5)
H14 H -0.499(9) 0.874(7) -0.967(6)
H15 H -0.463(10) 0.807(7) -1.103(6)
H16 H -0.445(11) 0.721(8) -1.018(6)
H17 H -0.181(10) 0.990(8) -1.404(6)
H18 H -0.128(9) 0.913(7) -1.554(6)
H19 H -0.016(13) 0.981(10) -1.453(8)
H20 H 0.474(8) 0.283(6) -0.948(5)
H21 H 0.570(8) 0.077(6) -0.854(5)
H22 H 0.504(9) 0.069(8) -0.622(6)
H23 H 0.287(7) 0.282(5) -0.497(5)
H24 H 0.184(7) 0.475(6) -0.625(4)
#END
