
#######################################################################
#
#                 Cambridge Crystallographic Data Centre
#                                CCDC
#
#######################################################################
#
# If this CIF has been generated from an entry in the Cambridge
# Structural Database, then it will include bibliographic, chemical,
# crystal, experimental, refinement or atomic coordinate data resulting
# from the CCDC's data processing and validation procedures.
#
#######################################################################

data_CSD_CIF_MEDOFE
_audit_creation_date 1981-09-30
_audit_creation_method CSD-ConQuest-V1
_database_code_CSD MEDOFE
_chemical_formula_sum 'C17 H20 Fe1 O4'
_chemical_formula_moiety
;
C17 H20 Fe1 O4
;
_journal_coden_Cambridge 24
_journal_volume 22
_journal_year 1981
_journal_page_first 1601
_journal_name_full 'Tetrahedron Lett. '
loop_
_publ_author_name
"T.Ishizu"
"K.Harano"
"M.Yasuda"
"K.Kanematsu"
_chemical_name_systematic
;
\s(C^10^),\h^3^-2-4-(7,7,9,9-Tetramethylbicyclo(4.3.1)decen-8-one)-tricarbonyl
-iron
;
_chemical_melting_point 361.15
_cell_volume    791.141
_exptl_special_details
;
Melting point range 361.15-362.15K

;
_diffrn_ambient_temperature ?
_diffrn_special_details
;
The study was carried out at room temperature,in the range 283-303K

;
#These two values have been output from a single CSD field.
_refine_ls_R_factor_gt 0.033
_refine_ls_wR_factor_gt 0.033
_symmetry_cell_setting triclinic
_symmetry_space_group_name_H-M 'P -1'
_symmetry_Int_Tables_number 2
loop_
_symmetry_equiv_pos_site_id
_symmetry_equiv_pos_as_xyz
1 x,y,z
2 -x,-y,-z
_cell_length_a 9.840(6)
_cell_length_b 12.176(6)
_cell_length_c 8.076(4)
_cell_angle_alpha 95.43(4)
_cell_angle_beta 118.31(3)
_cell_angle_gamma 105.71(5)
_cell_formula_units_Z 2
loop_
_atom_type_symbol
_atom_type_radius_bond
C 0.68
H 0.23
Fe 1.34
O 0.68
loop_
_atom_site_label
_atom_site_type_symbol
_atom_site_fract_x
_atom_site_fract_y
_atom_site_fract_z
Fe1 Fe 0.53609 0.68764 0.83091
C1 C 0.64081 0.58343 0.88199
O1 O 0.71026 0.51988 0.91694
C2 C 0.55419 0.71857 1.06067
O2 O 0.56135 0.74042 1.20533
C3 C 0.71449 0.80535 0.88160
O3 O 0.82689 0.88313 0.91497
C4 C 0.41058 0.66807 0.51978
C5 C 0.34885 0.56862 0.56783
C6 C 0.28827 0.56790 0.69490
C7 C 0.17341 0.63011 0.68779
C8 C 0.25463 0.76492 0.75650
C9 C 0.40918 0.80287 0.74862
C10 C 0.37829 0.78114 0.54208
C11 C 0.21431 0.78604 0.37309
C12 C 0.08444 0.78670 0.42612
C13 C 0.13266 0.82455 0.63887
O4 O -0.05913 0.75831 0.29761
C14 C 0.25513 0.90245 0.31387
C15 C 0.13396 0.68335 0.19173
C16 C 0.21737 0.95988 0.71344
C17 C -0.02116 0.78779 0.65382
H1 H 0.45494 0.65670 0.44626
H2 H 0.37115 0.50076 0.54015
H3 H 0.27015 0.49277 0.72645
H4 H 0.07163 0.60257 0.55052
H5 H 0.13037 0.60439 0.76126
H6 H 0.28384 0.79204 0.89109
H7 H 0.47870 0.88656 0.82734
H8 H 0.46744 0.84338 0.55194
H9 H 0.15160 0.91193 0.22078
H10 H 0.31241 0.97436 0.42889
H11 H 0.31740 0.90042 0.26109
H12 H 0.09326 0.60365 0.21389
H13 H 0.03580 0.69269 0.08717
H14 H 0.20902 0.67983 0.16030
H15 H 0.13472 0.99554 0.63264
H16 H 0.24558 0.97583 0.84499
H17 H 0.30260 0.99790 0.70219
H18 H 0.01835 0.81204 0.78303
H19 H -0.08372 0.69949 0.59118
H20 H -0.09999 0.82855 0.57663
#END
