
#######################################################################
#
#                 Cambridge Crystallographic Data Centre
#                                CCDC
#
#######################################################################
#
# If this CIF has been generated from an entry in the Cambridge
# Structural Database, then it will include bibliographic, chemical,
# crystal, experimental, refinement or atomic coordinate data resulting
# from the CCDC's data processing and validation procedures.
#
#######################################################################

data_CSD_CIF_MEDOFE10
_audit_creation_date 1982-09-17
_audit_creation_method CSD-ConQuest-V1
_database_code_CSD MEDOFE10
_chemical_formula_sum 'C17 H20 Fe1 O4'
_chemical_formula_moiety
;
C17 H20 Fe1 O4
;
_journal_coden_Cambridge 35
_journal_volume 46
_journal_year 1981
_journal_page_first 3630
_journal_name_full 'J.Org.Chem. '
loop_
_publ_author_name
"T.Ishizu"
"K.Harano"
"M.Yasuda"
"K.Kanematsu"
_chemical_name_systematic
;
Tricarbonyl-((2,3,4,10-\h)-7,7,9,9-tetramethyl-8-oxabicyclo(4.3.1)dec-3-ene-2,
10-diyl)-iron
;
_cell_volume    789.879
_exptl_crystal_density_diffrn 1.445
_diffrn_ambient_temperature ?
_diffrn_special_details
;
The study was carried out at room temperature,in the range 283-303K

;
#These two values have been output from a single CSD field.
_refine_ls_R_factor_gt 0.033
_refine_ls_wR_factor_gt 0.033
_symmetry_cell_setting triclinic
_symmetry_space_group_name_H-M 'P -1'
_symmetry_Int_Tables_number 2
loop_
_symmetry_equiv_pos_site_id
_symmetry_equiv_pos_as_xyz
1 x,y,z
2 -x,-y,-z
_cell_length_a 9.840(6)
_cell_length_b 12.176(6)
_cell_length_c 8.076(4)
_cell_angle_alpha 95.43(4)
_cell_angle_beta 118.31(3)
_cell_angle_gamma 105.91(5)
_cell_formula_units_Z 2
loop_
_atom_type_symbol
_atom_type_radius_bond
C 0.68
H 0.23
Fe 1.34
O 0.68
loop_
_atom_site_label
_atom_site_type_symbol
_atom_site_fract_x
_atom_site_fract_y
_atom_site_fract_z
Fe1 Fe 0.53610 0.68760 0.83090
C1 C 0.64080 0.58340 0.88200
O1 O 0.71030 0.51990 0.91690
C2 C 0.55420 0.71860 1.06070
O2 O 0.56130 0.74040 1.20530
C3 C 0.71450 0.80540 0.88160
O3 O 0.82690 0.88310 0.91500
C4 C 0.41060 0.66810 0.51980
C5 C 0.34890 0.56860 0.56780
C6 C 0.28830 0.56790 0.69490
C7 C 0.17340 0.63010 0.68780
C8 C 0.25460 0.76490 0.75650
C9 C 0.40920 0.80290 0.74860
C10 C 0.37820 0.78110 0.54210
C11 C 0.21430 0.78600 0.37310
C12 C 0.08440 0.78670 0.42610
C13 C 0.13270 0.82450 0.63890
O4 O -0.05910 0.75830 0.29760
C14 C 0.25510 0.90240 0.31390
C15 C 0.13400 0.68330 0.19170
C16 C 0.21740 0.95990 0.71340
C17 C -0.02120 0.78780 0.65380
H1 H 0.44500 0.65700 0.44600
H2 H 0.37100 0.50100 0.54000
H3 H 0.27000 0.49300 0.72600
H4 H 0.07200 0.60300 0.55100
H5 H 0.13000 0.60400 0.76100
H6 H 0.28400 0.79200 0.89100
H7 H 0.47900 0.88700 0.82700
H8 H 0.46700 0.84300 0.55200
H9 H 0.15200 0.91200 0.22100
H10 H 0.31200 0.97400 0.42900
H11 H 0.31700 0.90000 0.26100
H12 H 0.09300 0.60400 0.21400
H13 H 0.03600 0.69300 0.08700
H14 H 0.20900 0.68000 0.16000
H15 H 0.13500 0.99600 0.63300
H16 H 0.24600 0.97600 0.84500
H17 H 0.30300 0.99800 0.70200
H18 H 0.01800 0.81200 0.78300
H19 H -0.08400 0.69900 0.59100
H20 H -0.10000 0.82900 0.57700
#END
