
#######################################################################
#
#                 Cambridge Crystallographic Data Centre
#                                CCDC
#
#######################################################################
#
# If this CIF has been generated from an entry in the Cambridge
# Structural Database, then it will include bibliographic, chemical,
# crystal, experimental, refinement or atomic coordinate data resulting
# from the CCDC's data processing and validation procedures.
#
#######################################################################

data_CSD_CIF_MEGMER
_audit_creation_date 2006-06-13
_audit_creation_method CSD-ConQuest-V1
_database_code_CSD MEGMER
_database_code_depnum_ccdc_archive 'CCDC 604976'
_chemical_formula_sum 'C24 H24 Mn1 N2 O8'
_chemical_formula_moiety
;
C24 H24 Mn1 N2 O8
;
_journal_coeditor_code "IUCr BT2016"
_journal_coden_Cambridge 1370
_journal_volume 62
_journal_year 2006
_journal_page_first m661
_journal_name_full 'Acta Crystallogr.,Sect.E:Struct.Rep.Online '
loop_
_publ_author_name
"Ming-Hua Zeng"
"Mei-Chun Wu"
"S.W.Ng"
_chemical_name_systematic
;
Tetraaqua-bis(4-(4-pyridyl)benzoato-N)-manganese(ii)
;
_cell_volume    546.008
_exptl_crystal_colour 'yellow'
_exptl_crystal_density_diffrn 1.592
_exptl_crystal_description 'plate'
_diffrn_ambient_temperature 295
#These two values have been output from a single CSD field.
_refine_ls_R_factor_gt 0.036
_refine_ls_wR_factor_gt 0.036
_symmetry_cell_setting triclinic
_symmetry_space_group_name_H-M 'P -1'
_symmetry_Int_Tables_number 2
loop_
_symmetry_equiv_pos_site_id
_symmetry_equiv_pos_as_xyz
1 x,y,z
2 -x,-y,-z
_cell_length_a 6.3442(3)
_cell_length_b 7.1089(3)
_cell_length_c 13.2655(6)
_cell_angle_alpha 95.201(2)
_cell_angle_beta 96.001(3)
_cell_angle_gamma 112.042(1)
_cell_formula_units_Z 1
loop_
_atom_type_symbol
_atom_type_radius_bond
C 0.68
H 0.23
Mn 1.35
N 0.68
O 0.68
loop_
_atom_site_label
_atom_site_type_symbol
_atom_site_fract_x
_atom_site_fract_y
_atom_site_fract_z
Mn1 Mn 0.50000 0.50000 0.50000
O1 O -0.1498(3) 0.1887(3) -0.3655(1)
O2 O -0.5018(2) 0.0478(2) -0.3234(1)
O3 O 0.6818(2) 0.3008(2) 0.4690(1)
O4 O 0.7473(3) 0.7630(2) 0.4415(1)
N1 N 0.3135(3) 0.3900(3) 0.3368(1)
C1 C -0.2855(3) 0.1321(3) -0.3018(1)
C2 C -0.1822(3) 0.1712(3) -0.1903(1)
C3 C 0.0515(3) 0.2221(3) -0.1612(1)
C4 C 0.1441(3) 0.2599(3) -0.0586(1)
C5 C 0.0096(3) 0.2519(3) 0.0183(1)
C6 C -0.2250(3) 0.2004(3) -0.0116(1)
C7 C -0.3185(3) 0.1597(3) -0.1143(1)
C8 C 0.4399(3) 0.4080(3) 0.2608(1)
C9 C 0.3483(3) 0.3641(3) 0.1583(1)
C10 C 0.1119(3) 0.2962(3) 0.1286(1)
C11 C -0.0188(3) 0.2735(3) 0.2077(2)
C12 C 0.0856(3) 0.3211(3) 0.3087(2)
H1 H 0.733(5) 0.257(4) 0.519(2)
H2 H 0.618(5) 0.191(3) 0.427(2)
H3 H 0.873(3) 0.780(5) 0.419(2)
H4 H 0.680(5) 0.833(5) 0.414(2)
H5 H 0.14640 0.23080 -0.21100
H6 H 0.30050 0.29140 -0.04070
H7 H -0.32000 0.19330 0.03800
H8 H -0.47560 0.12400 -0.13250
H9 H 0.59850 0.45270 0.27800
H10 H 0.44510 0.38000 0.10890
H11 H -0.17820 0.22580 0.19260
H12 H -0.00730 0.30440 0.35970
O1A O 1.1498(3) 0.8113(3) 1.3655(1)
O2A O 1.5018(2) 0.9522(2) 1.3234(1)
O3A O 0.3182(2) 0.6992(2) 0.5310(1)
O4A O 0.2527(3) 0.2370(2) 0.5585(1)
N1A N 0.6865(3) 0.6100(3) 0.6632(1)
C1A C 1.2855(3) 0.8679(3) 1.3018(1)
C2A C 1.1822(3) 0.8288(3) 1.1903(1)
C3A C 0.9485(3) 0.7779(3) 1.1612(1)
C4A C 0.8559(3) 0.7401(3) 1.0586(1)
C5A C 0.9904(3) 0.7481(3) 0.9817(1)
C6A C 1.2250(3) 0.7996(3) 1.0116(1)
C7A C 1.3185(3) 0.8403(3) 1.1143(1)
C8A C 0.5601(3) 0.5920(3) 0.7392(1)
C9A C 0.6517(3) 0.6359(3) 0.8417(1)
C10A C 0.8881(3) 0.7038(3) 0.8714(1)
C11A C 1.0188(3) 0.7265(3) 0.7923(2)
C12A C 0.9144(3) 0.6789(3) 0.6913(2)
H1A H 0.267(5) 0.743(4) 0.481(2)
H2A H 0.382(5) 0.809(3) 0.573(2)
H3A H 0.127(3) 0.220(5) 0.581(2)
H4A H 0.320(5) 0.167(5) 0.586(2)
H5A H 0.85360 0.76920 1.21100
H6A H 0.69950 0.70860 1.04070
H7A H 1.32000 0.80670 0.96200
H8A H 1.47560 0.87600 1.13250
H9A H 0.40150 0.54730 0.72200
H10A H 0.55490 0.62000 0.89110
H11A H 1.17820 0.77420 0.80740
H12A H 1.00730 0.69560 0.64030
#END
