
#######################################################################
#
#                 Cambridge Crystallographic Data Centre
#                                CCDC
#
#######################################################################
#
# If this CIF has been generated from an entry in the Cambridge
# Structural Database, then it will include bibliographic, chemical,
# crystal, experimental, refinement or atomic coordinate data resulting
# from the CCDC's data processing and validation procedures.
#
#######################################################################

data_CSD_CIF_MELHUH
_audit_creation_date 2006-10-24
_audit_creation_method CSD-ConQuest-V1
_database_code_CSD MELHUH
_database_code_depnum_ccdc_archive 'CCDC 293254'
_chemical_formula_sum 'C14 H15 Cl2 Fe1 N3 O1.5 S1'
_chemical_formula_moiety
;
C13 H12 Cl2 Fe1 N3 O1 S1,0.5(C2 H6 O1)
;
_journal_coden_Cambridge 1295
_journal_volume 9
_journal_year 2006
_journal_page_first 833
_journal_name_full 'Inorg.Chem.Commun. '
loop_
_publ_author_name
"Z.D.Tomic"
"V.M.Leovac"
"Z.K.Jacimovic"
"G.Giester"
"S.D.Zaric"
_chemical_name_systematic
;
dichloro-(2-oxy-1-naphthaldehyde-3-methylisothiosemicarbazonato)-iron(iii) 
ethanol solvate
;
_cell_volume   1664.576
_exptl_crystal_colour 'black'
_exptl_crystal_description 'prismatic'
_diffrn_ambient_temperature 293
_refine_special_details
;
The disordered ethanol solvent molecules were not modelled and the disordered 
density was taken into account using the SQUEEZE/PLATON procedure.
;
#These two values have been output from a single CSD field.
_refine_ls_R_factor_gt 0.0291
_refine_ls_wR_factor_gt 0.0291
_symmetry_cell_setting monoclinic
_symmetry_space_group_name_H-M 'C 2/m'
_symmetry_Int_Tables_number 12
loop_
_symmetry_equiv_pos_site_id
_symmetry_equiv_pos_as_xyz
1 x,y,z
2 1/2+x,1/2+y,z
3 -x,y,-z
4 1/2-x,1/2+y,-z
5 -x,-y,-z
6 -1/2-x,-1/2-y,-z
7 x,-y,z
8 -1/2+x,-1/2-y,z
_cell_length_a 20.056(2)
_cell_length_b 7.146(1)
_cell_length_c 13.554(2)
_cell_angle_alpha 90
_cell_angle_beta 121.03(3)
_cell_angle_gamma 90
_cell_formula_units_Z 4
loop_
_atom_type_symbol
_atom_type_radius_bond
C 0.68
H 0.23
Cl 0.99
Fe 1.34
N 0.68
O 0.68
S 1.02
loop_
_atom_site_label
_atom_site_type_symbol
_atom_site_fract_x
_atom_site_fract_y
_atom_site_fract_z
C1 C 0.27813(12) 0.50000 0.81514(17)
C2 C 0.11342(13) 0.50000 0.6924(2)
H1 H 0.05930 0.50000 0.65240
C3 C 0.23654(14) 0.50000 0.87318(19)
C4 C 0.15364(14) 0.50000 0.8082(2)
H2 H 0.12660 0.50000 0.84700
C5 C 0.35970(14) 0.50000 0.8818(2)
H3 H 0.38850 0.50000 0.84570
C6 C 0.27750(17) 0.50000 0.9946(2)
H4 H 0.25000 0.50000 1.03270
C7 C 0.39797(17) 0.50000 1.0014(2)
H5 H 0.45210 0.50000 1.04450
C8 C 0.35633(19) 0.50000 1.0566(2)
H6 H 0.38240 0.50000 1.13670
Fe1 Fe 0.121607(14) 0.50000 0.38762(2)
S1 S 0.30813(3) 0.50000 0.28990(4)
Cl1 Cl 0.05046(2) 0.24281(5) 0.30504(4)
N1 N 0.24084(8) 0.50000 0.51668(13)
N2 N 0.29114(9) 0.50000 0.47441(13)
H7 H 0.34150 0.50000 0.52570
C9 C 0.25578(10) 0.50000 0.35941(16)
O1 O 0.11078(8) 0.50000 0.51842(13)
C10 C 0.23479(11) 0.50000 0.68996(15)
C11 C 0.15314(11) 0.50000 0.63069(17)
C12 C 0.27488(10) 0.50000 0.62921(16)
H8 H 0.32870 0.50000 0.67190
C13 C 0.40791(12) 0.50000 0.4044(2)
H9 H 0.44100 0.50000 0.37260
H10 H 0.41810 0.39030 0.45090
H11 H 0.41810 0.60970 0.45090
N3 N 0.18035(10) 0.50000 0.30207(15)
H12 H 0.15990 0.50000 0.22970
Cl1F Cl 0.05046(2) 0.75719(5) 0.30504(4)
#END
