
#######################################################################
#
#                 Cambridge Crystallographic Data Centre
#                                CCDC
#
#######################################################################
#
# If this CIF has been generated from an entry in the Cambridge
# Structural Database, then it will include bibliographic, chemical,
# crystal, experimental, refinement or atomic coordinate data resulting
# from the CCDC's data processing and validation procedures.
#
#######################################################################

data_CSD_CIF_MENWUY
_audit_creation_date 2007-02-13
_audit_creation_method CSD-ConQuest-V1
_database_code_CSD MENWUY
_database_code_depnum_ccdc_archive 'CCDC 611358'
_chemical_formula_sum 'C12 H16 Br2 Fe1 N4'
_chemical_formula_moiety
;
C12 H16 Br2 Fe1 N4
;
_journal_coden_Cambridge 29
_journal_volume 632
_journal_year 2006
_journal_page_first 2355
_journal_name_full 'Z.Anorg.Allg.Chem. '
loop_
_publ_author_name
"A.Malassa"
"H.Gorls"
"A.Buchholz"
"W.Plass"
"M.Westerhausen"
_chemical_name_systematic
;
Dibromo-bis(2-pyridylmethylamine-N,N')-iron(ii)
;
_chemical_melting_point 533.15
_cell_volume    366.648
_exptl_crystal_colour 'yellow-green'
_exptl_crystal_density_diffrn 1.956
_exptl_special_details
;
Melts with decomposition.
magnetic properties

;
_exptl_crystal_description 'platelets'
_diffrn_ambient_temperature 183
#These two values have been output from a single CSD field.
_refine_ls_R_factor_gt 0.0308
_refine_ls_wR_factor_gt 0.0308
_symmetry_cell_setting triclinic
_symmetry_space_group_name_H-M 'P -1'
_symmetry_Int_Tables_number 2
loop_
_symmetry_equiv_pos_site_id
_symmetry_equiv_pos_as_xyz
1 x,y,z
2 -x,-y,-z
_cell_length_a 6.6820(5)
_cell_length_b 7.0774(3)
_cell_length_c 8.5467(5)
_cell_angle_alpha 112.255(3)
_cell_angle_beta 96.085(3)
_cell_angle_gamma 96.600(4)
_cell_formula_units_Z 1
loop_
_atom_type_symbol
_atom_type_radius_bond
C 0.68
H 0.23
Br 1.21
Fe 1.34
N 0.68
loop_
_atom_site_label
_atom_site_type_symbol
_atom_site_fract_x
_atom_site_fract_y
_atom_site_fract_z
Fe1 Fe 0.00000 0.00000 0.00000
Br1 Br 0.27432(5) -0.24301(5) 0.04202(4)
N1 N 0.0236(4) -0.1268(4) -0.2680(4)
N2 N -0.2491(5) -0.2614(5) -0.1030(4)
H1 H -0.200(7) -0.374(7) -0.092(6)
H2 H -0.353(11) -0.24(1) -0.048(9)
C1 C 0.1838(5) -0.0822(5) -0.3384(5)
H3 H 0.306(6) 0.016(6) -0.254(5)
C2 C 0.1830(6) -0.1649(6) -0.5140(5)
H4 H 0.305(7) -0.128(7) -0.560(6)
C3 C 0.0107(6) -0.2986(6) -0.6211(5)
H5 H 0.004(6) -0.365(7) -0.741(6)
C4 C -0.1518(6) -0.3485(6) -0.5487(5)
H6 H -0.267(7) -0.444(7) -0.620(6)
C5 C -0.1408(5) -0.2611(5) -0.3721(5)
C6 C -0.3152(5) -0.3095(6) -0.2866(5)
H7 H -0.413(8) -0.222(8) -0.290(7)
H8 H -0.383(8) -0.450(8) -0.351(6)
Br1A Br -0.27432(5) 0.24301(5) -0.04202(4)
N1A N -0.0236(4) 0.1268(4) 0.2680(4)
N2A N 0.2491(5) 0.2614(5) 0.1030(4)
H1A H 0.200(7) 0.374(7) 0.092(6)
H2A H 0.353(11) 0.24(1) 0.048(9)
C1A C -0.1838(5) 0.0822(5) 0.3384(5)
H3A H -0.306(6) -0.016(6) 0.254(5)
C2A C -0.1830(6) 0.1649(6) 0.5140(5)
H4A H -0.305(7) 0.128(7) 0.560(6)
C3A C -0.0107(6) 0.2986(6) 0.6211(5)
H5A H -0.004(6) 0.365(7) 0.741(6)
C4A C 0.1518(6) 0.3485(6) 0.5487(5)
H6A H 0.267(7) 0.444(7) 0.620(6)
C5A C 0.1408(5) 0.2611(5) 0.3721(5)
C6A C 0.3152(5) 0.3095(6) 0.2866(5)
H7A H 0.413(8) 0.222(8) 0.290(7)
H8A H 0.383(8) 0.450(8) 0.351(6)
#END
