
#######################################################################
#
#                 Cambridge Crystallographic Data Centre
#                                CCDC
#
#######################################################################
#
# If this CIF has been generated from an entry in the Cambridge
# Structural Database, then it will include bibliographic, chemical,
# crystal, experimental, refinement or atomic coordinate data resulting
# from the CCDC's data processing and validation procedures.
#
#######################################################################

data_CSD_CIF_MEQJAU
_audit_creation_date 2007-02-13
_audit_creation_method CSD-ConQuest-V1
_database_code_CSD MEQJAU
_database_code_depnum_ccdc_archive 'CCDC 630019'
_chemical_formula_sum 'C22 H27 Co1 N4 O12.5'
_chemical_formula_moiety
;
C22 H26 Co1 N4 O12,0.5(H2 O1)
;
_journal_coeditor_code "IUCr IS2086"
_journal_coden_Cambridge 1370
_journal_volume 62
_journal_year 2006
_journal_page_first m3532
_journal_name_full 'Acta Crystallogr.,Sect.E:Struct.Rep.Online '
loop_
_publ_author_name
"Ling Huang"
"Ding-Ben Chen"
_chemical_name_systematic
;
Tetraaqua-bis(1,3-benzimidazol-3-ium-1,3-diacetato-O)-cobalt(ii) hemihydrate
;
_cell_volume    636.380
_exptl_crystal_colour 'red'
_exptl_crystal_density_diffrn 1.582
_exptl_crystal_description 'block'
_diffrn_ambient_temperature 273
#These two values have been output from a single CSD field.
_refine_ls_R_factor_gt 0.0448
_refine_ls_wR_factor_gt 0.0448
_symmetry_cell_setting triclinic
_symmetry_space_group_name_H-M 'P -1'
_symmetry_Int_Tables_number 2
loop_
_symmetry_equiv_pos_site_id
_symmetry_equiv_pos_as_xyz
1 x,y,z
2 -x,-y,-z
_cell_length_a 7.4237(9)
_cell_length_b 9.4197(11)
_cell_length_c 9.6478(11)
_cell_angle_alpha 81.432(2)
_cell_angle_beta 75.952(2)
_cell_angle_gamma 77.838(2)
_cell_formula_units_Z 1
loop_
_atom_type_symbol
_atom_type_radius_bond
C 0.68
H 0.23
Co 1.33
N 0.68
O 0.68
loop_
_atom_site_label
_atom_site_type_symbol
_atom_site_fract_x
_atom_site_fract_y
_atom_site_fract_z
Co1 Co 1.00000 0.00000 0.50000
O1 O 0.9352(3) 0.0984(2) 0.3074(2)
O2 O 0.9013(4) -0.0800(2) 0.1923(2)
O3 O 0.4137(3) 0.6480(3) 0.3755(3)
O4 O 0.5434(3) 0.7848(2) 0.4780(2)
O5 O 0.9401(3) 0.2046(2) 0.5792(2)
H1 H 0.98080 0.18280 0.65610
H2 H 0.82740 0.25140 0.58970
O6 O 0.7169(3) -0.0306(2) 0.5723(2)
H3 H 0.69320 -0.10280 0.54120
H4 H 0.64860 0.05120 0.55370
O7 O 0.6169(15) 0.0615(11) 0.8695(9)
H5 H 0.71540 0.00870 0.82540
H6 H 0.50960 0.05110 0.86150
N1 N 0.7378(3) 0.3103(2) 0.1477(2)
N2 N 0.7496(3) 0.5086(2) 0.2345(2)
C1 C 0.8725(4) 0.0484(3) 0.2190(3)
C2 C 0.7411(5) 0.1559(3) 0.1372(4)
H7 H 0.77880 0.13870 0.03670
H8 H 0.61400 0.13620 0.17300
C3 C 0.7382(4) 0.3684(3) 0.2650(3)
H9 H 0.73150 0.31760 0.35600
C4 C 0.7537(4) 0.5463(3) 0.0888(3)
C5 C 0.7456(4) 0.4209(3) 0.0337(3)
C6 C 0.7423(4) 0.4207(3) -0.1096(3)
H10 H 0.73380 0.33720 -0.14660
C7 C 0.7521(5) 0.5510(4) -0.1933(3)
H11 H 0.75010 0.55580 -0.28990
C8 C 0.7651(5) 0.6767(4) -0.1391(4)
H12 H 0.77380 0.76200 -0.20080
C9 C 0.7656(4) 0.6784(3) 0.0031(4)
H13 H 0.77330 0.76230 0.03980
C10 C 0.7468(4) 0.6069(3) 0.3378(3)
H14 H 0.82540 0.67820 0.29130
H15 H 0.80160 0.55130 0.41540
C11 C 0.5504(4) 0.6869(3) 0.4008(3)
O1A O 1.0648(3) -0.0984(2) 0.6926(2)
O2A O 1.0987(4) 0.0800(2) 0.8077(2)
O3A O 1.5863(3) -0.6480(3) 0.6245(3)
O4A O 1.4566(3) -0.7848(2) 0.5220(2)
O5A O 1.0599(3) -0.2046(2) 0.4208(2)
H1A H 1.01920 -0.18280 0.34390
H2A H 1.17260 -0.25140 0.41030
O6A O 1.2831(3) 0.0306(2) 0.4277(2)
H3A H 1.30680 0.10280 0.45880
H4A H 1.35140 -0.05120 0.44630
N1A N 1.2622(3) -0.3103(2) 0.8523(2)
N2A N 1.2504(3) -0.5086(2) 0.7655(2)
C1A C 1.1275(4) -0.0484(3) 0.7810(3)
C2A C 1.2589(5) -0.1559(3) 0.8628(4)
H7A H 1.22120 -0.13870 0.96330
H8A H 1.38600 -0.13620 0.82700
C3A C 1.2618(4) -0.3684(3) 0.7350(3)
H9A H 1.26850 -0.31760 0.64400
C4A C 1.2463(4) -0.5463(3) 0.9112(3)
C5A C 1.2544(4) -0.4209(3) 0.9663(3)
C6A C 1.2577(4) -0.4207(3) 1.1096(3)
H10A H 1.26620 -0.33720 1.14660
C7A C 1.2479(5) -0.5510(4) 1.1933(3)
H11A H 1.24990 -0.55580 1.28990
C8A C 1.2349(5) -0.6767(4) 1.1391(4)
H12A H 1.22620 -0.76200 1.20080
C9A C 1.2344(4) -0.6784(3) 0.9969(4)
H13A H 1.22670 -0.76230 0.96020
C10A C 1.2532(4) -0.6069(3) 0.6622(3)
H14A H 1.17460 -0.67820 0.70870
H15A H 1.19840 -0.55130 0.58460
C11A C 1.4496(4) -0.6869(3) 0.5992(3)
#END
