
#######################################################################
#
#                 Cambridge Crystallographic Data Centre
#                                CCDC
#
#######################################################################
#
# If this CIF has been generated from an entry in the Cambridge
# Structural Database, then it will include bibliographic, chemical,
# crystal, experimental, refinement or atomic coordinate data resulting
# from the CCDC's data processing and validation procedures.
#
#######################################################################

data_CSD_CIF_METGIB
_audit_creation_date 2002-03-06
_audit_creation_method CSD-ConQuest-V1
_database_code_CSD METGIB
_database_code_depnum_ccdc_archive 'CCDC 177159'
_chemical_formula_sum 'C7 H18 Cl2 Fe1 N2'
_chemical_formula_moiety
;
C7 H18 Cl2 Fe1 N2
;
_journal_coden_Cambridge 155
_journal_volume 314
_journal_year 2001
_journal_page_first 14
_journal_name_full 'Inorg.Chim.Acta '
loop_
_publ_author_name
"D.A.Handley"
"P.B.Hitchcock"
"Ting Huei Lee"
"G.J.Leigh"
_chemical_name_systematic
;
Dichloro-(1,3-bis(dimethylamino)propane-N,N')-iron(ii)
;
_cell_volume   2391.592
_exptl_crystal_colour 'colorless'
_exptl_crystal_density_diffrn 1.427
_exptl_special_details
;
air-sensitive
isostructural with the Mn, Co, Co-Br, Ni, Ni-Br and Cu analogues
;
_exptl_crystal_description 'prism'
_diffrn_ambient_temperature 173
#These two values have been output from a single CSD field.
_refine_ls_R_factor_gt 0.0348
_refine_ls_wR_factor_gt 0.0348
_symmetry_cell_setting orthorhombic
_symmetry_space_group_name_H-M 'C m c 21'
_symmetry_Int_Tables_number 36
loop_
_symmetry_equiv_pos_site_id
_symmetry_equiv_pos_as_xyz
1 x,y,z
2 -x,-y,1/2+z
3 -x,y,z
4 x,-y,1/2+z
5 1/2+x,1/2+y,z
6 1/2-x,1/2-y,1/2+z
7 1/2-x,1/2+y,z
8 1/2+x,1/2-y,1/2+z
_cell_length_a 9.5651(4)
_cell_length_b 11.1419(4)
_cell_length_c 22.4408(4)
_cell_angle_alpha 90
_cell_angle_beta 90
_cell_angle_gamma 90
_cell_formula_units_Z 8
loop_
_atom_type_symbol
_atom_type_radius_bond
C 0.68
H 0.23
Cl 0.99
Fe 1.34
N 0.68
loop_
_atom_site_label
_atom_site_type_symbol
_atom_site_fract_x
_atom_site_fract_y
_atom_site_fract_z
Fe1 Fe 0.50000 0.51167(5) -0.14552(2)
Cl1 Cl 0.50000 0.65448(11) -0.07329(6)
Cl2 Cl 0.50000 0.54401(14) -0.24403(6)
N1 N 0.3294(3) 0.3980(2) -0.12061(11)
C1 C 0.50000 0.2529(5) -0.0729(2)
H1 H 0.50000 0.21160 -0.11200
H2 H 0.50000 0.19020 -0.04170
C2 C 0.3659(3) 0.3243(3) -0.06759(15)
H3 H 0.28820 0.26790 -0.05970
H4 H 0.37380 0.37810 -0.03270
C3 C 0.2053(4) 0.4721(4) -0.10513(18)
H5 H 0.17840 0.52080 -0.13960
H6 H 0.22830 0.52480 -0.07160
H7 H 0.12750 0.41940 -0.09400
C4 C 0.2891(4) 0.3200(3) -0.17165(16)
H8 H 0.36860 0.26930 -0.18290
H9 H 0.26220 0.37020 -0.20560
H10 H 0.21010 0.26910 -0.16010
Fe2 Fe 0.50000 0.92582(6) 0.14564(2)
Cl3 Cl 0.50000 0.97310(16) 0.24247(6)
Cl4 Cl 0.50000 1.05403(12) 0.06672(7)
N2 N 0.3291(2) 0.8083(2) 0.12618(12)
C5 C 0.50000 0.6561(4) 0.0837(2)
H11 H 0.50000 0.58900 0.05470
H12 H 0.50000 0.62080 0.12420
C6 C 0.3662(3) 0.7277(3) 0.07560(14)
H13 H 0.37520 0.77690 0.03910
H14 H 0.28810 0.67080 0.06920
C7 C 0.2050(3) 0.8798(4) 0.10819(18)
H15 H 0.17850 0.93380 0.14070
H16 H 0.12700 0.82560 0.09930
H17 H 0.22760 0.92700 0.07260
C8 C 0.2890(4) 0.7366(3) 0.17910(17)
H18 H 0.36890 0.68820 0.19210
H19 H 0.21090 0.68360 0.16880
H20 H 0.26070 0.79050 0.21140
C2B C 0.6341(3) 0.3243(3) -0.06759(15)
N1B N 0.6706(3) 0.3980(2) -0.12061(11)
C3B C 0.7947(4) 0.4721(4) -0.10513(18)
H5B H 0.82160 0.52080 -0.13960
H6B H 0.77170 0.52480 -0.07160
H7B H 0.87250 0.41940 -0.09400
C4B C 0.7109(4) 0.3200(3) -0.17165(16)
H8B H 0.63140 0.26930 -0.18290
H9B H 0.73780 0.37020 -0.20560
H10B H 0.78990 0.26910 -0.16010
H3B H 0.71180 0.26790 -0.05970
H4B H 0.62620 0.37810 -0.03270
C6B C 0.6338(3) 0.7277(3) 0.07560(14)
N2B N 0.6709(2) 0.8083(2) 0.12618(12)
C7B C 0.7950(3) 0.8798(4) 0.10819(18)
H15B H 0.82150 0.93380 0.14070
H16B H 0.87300 0.82560 0.09930
H17B H 0.77240 0.92700 0.07260
C8B C 0.7110(4) 0.7366(3) 0.17910(17)
H18B H 0.63110 0.68820 0.19210
H19B H 0.78910 0.68360 0.16880
H20B H 0.73930 0.79050 0.21140
H13B H 0.62480 0.77690 0.03910
H14B H 0.71190 0.67080 0.06920
#END
