
#######################################################################
#
#                 Cambridge Crystallographic Data Centre
#                                CCDC
#
#######################################################################
#
# If this CIF has been generated from an entry in the Cambridge
# Structural Database, then it will include bibliographic, chemical,
# crystal, experimental, refinement or atomic coordinate data resulting
# from the CCDC's data processing and validation procedures.
#
#######################################################################

data_CSD_CIF_METYEQ
_audit_creation_date 2007-02-13
_audit_creation_method CSD-ConQuest-V1
_database_code_CSD METYEQ
_database_code_depnum_ccdc_archive 'CCDC 611357'
_chemical_formula_sum 'C12 H16 Cl2 Fe1 N4'
_chemical_formula_moiety
;
C12 H16 Cl2 Fe1 N4
;
_journal_coden_Cambridge 29
_journal_volume 632
_journal_year 2006
_journal_page_first 2355
_journal_name_full 'Z.Anorg.Allg.Chem. '
loop_
_publ_author_name
"A.Malassa"
"H.Gorls"
"A.Buchholz"
"W.Plass"
"M.Westerhausen"
_chemical_name_systematic
;
trans-Dichloro-bis(2-pyridylmethylamine-N,N')-iron(ii)
;
_chemical_melting_point 492.15
_cell_volume    722.055
_exptl_crystal_colour 'yellow'
_exptl_crystal_density_diffrn 1.578
_exptl_special_details
;
Melts with decomposition.
magnetic properties

;
_exptl_crystal_description 'cuboid'
_diffrn_ambient_temperature 183
#These two values have been output from a single CSD field.
_refine_ls_R_factor_gt 0.0353
_refine_ls_wR_factor_gt 0.0353
_symmetry_cell_setting monoclinic
_symmetry_space_group_name_H-M 'P 21/c'
_symmetry_Int_Tables_number 14
loop_
_symmetry_equiv_pos_site_id
_symmetry_equiv_pos_as_xyz
1 x,y,z
2 -x,1/2+y,1/2-z
3 -x,-y,-z
4 x,-1/2-y,-1/2+z
_cell_length_a 6.1016(5)
_cell_length_b 12.8559(10)
_cell_length_c 9.3085(6)
_cell_angle_alpha 90
_cell_angle_beta 98.552(5)
_cell_angle_gamma 90
_cell_formula_units_Z 2
loop_
_atom_type_symbol
_atom_type_radius_bond
C 0.68
H 0.23
Cl 0.99
Fe 1.34
N 0.68
loop_
_atom_site_label
_atom_site_type_symbol
_atom_site_fract_x
_atom_site_fract_y
_atom_site_fract_z
Fe1 Fe 0.50000 0.00000 0.00000
Cl1 Cl 0.82855(9) 0.03345(5) 0.18915(6)
N1 N 0.5900(3) -0.16433(15) -0.0053(2)
N2 N 0.3295(4) -0.06975(16) 0.1672(2)
C1 C 0.7481(4) -0.20407(19) -0.0766(3)
H1 H 0.82850 -0.15810 -0.12940
C2 C 0.7977(4) -0.3088(2) -0.0758(3)
H2 H 0.90920 -0.33470 -0.12750
C3 C 0.6807(5) -0.3757(2) 0.0024(3)
H3 H 0.71250 -0.44800 0.00620
C4 C 0.5183(4) -0.33569(19) 0.0743(3)
H4 H 0.43540 -0.38020 0.12740
C5 C 0.4769(4) -0.22911(18) 0.0682(2)
C6 C 0.2972(4) -0.18249(19) 0.1439(3)
H5 H 0.15110 -0.19490 0.08440
H6 H 0.29750 -0.21730 0.23880
H7 H 0.207(6) -0.042(3) 0.174(3)
H8 H 0.423(5) -0.059(3) 0.244(4)
Cl1B Cl 0.17145(9) -0.03345(5) -0.18915(6)
N1B N 0.4100(3) 0.16433(15) 0.0053(2)
N2B N 0.6705(4) 0.06975(16) -0.1672(2)
C1B C 0.2519(4) 0.20407(19) 0.0766(3)
H1B H 0.17150 0.15810 0.12940
C2B C 0.2023(4) 0.3088(2) 0.0758(3)
H2B H 0.09080 0.33470 0.12750
C3B C 0.3193(5) 0.3757(2) -0.0024(3)
H3B H 0.28750 0.44800 -0.00620
C4B C 0.4817(4) 0.33569(19) -0.0743(3)
H4B H 0.56460 0.38020 -0.12740
C5B C 0.5231(4) 0.22911(18) -0.0682(2)
C6B C 0.7028(4) 0.18249(19) -0.1439(3)
H5B H 0.84890 0.19490 -0.08440
H6B H 0.70250 0.21730 -0.23880
H7B H 0.793(6) 0.042(3) -0.174(3)
H8B H 0.577(5) 0.059(3) -0.244(4)
#END
