
#######################################################################
#
#                 Cambridge Crystallographic Data Centre
#                                CCDC
#
#######################################################################
#
# If this CIF has been generated from an entry in the Cambridge
# Structural Database, then it will include bibliographic, chemical,
# crystal, experimental, refinement or atomic coordinate data resulting
# from the CCDC's data processing and validation procedures.
#
#######################################################################

data_CSD_CIF_MGXPCP
_audit_creation_date 1978-09-01
_audit_creation_method CSD-ConQuest-V1
_database_code_CSD MGXPCP
_database_code_depnum_ccdc_archive 'CCDC 1211756'
_chemical_formula_sum 'C18 H24 Co1 N6 O4'
_chemical_formula_moiety
;
C18 H24 Co1 N6 O4
;
_journal_coden_Cambridge 189
_journal_volume 7
_journal_year 1978
_journal_page_first 263
_journal_name_full 'Cryst.Struct.Commun. '
loop_
_publ_author_name
"G.D.Fallon"
"B.M.Gatehouse"
_chemical_name_systematic
;
trans-bis(Dimethylglyoximato)-bis(pyridine)-cobalt(ii)
;
_cell_volume   1021.187
_exptl_crystal_density_diffrn 1.46
_diffrn_ambient_temperature ?
_diffrn_special_details
;
The study was carried out at room temperature,in the range 283-303K

;
_refine_special_details
;
H1 is equally disordered over two sites and has been suppressed.

;
#These two values have been output from a single CSD field.
_refine_ls_R_factor_gt 0.0661
_refine_ls_wR_factor_gt 0.0661
_symmetry_cell_setting monoclinic
_symmetry_space_group_name_H-M 'I 2/m'
_symmetry_Int_Tables_number 12
loop_
_symmetry_equiv_pos_site_id
_symmetry_equiv_pos_as_xyz
1 x,y,z
2 1/2+x,1/2+y,1/2+z
3 -x,y,-z
4 1/2-x,1/2+y,1/2-z
5 -x,-y,-z
6 -1/2-x,-1/2-y,-1/2-z
7 x,-y,z
8 -1/2+x,-1/2-y,-1/2+z
_cell_length_a 9.772(4)
_cell_length_b 12.792(6)
_cell_length_c 8.172(4)
_cell_angle_alpha 90
_cell_angle_beta 91.48(8)
_cell_angle_gamma 90
_cell_formula_units_Z 2
loop_
_atom_type_symbol
_atom_type_radius_bond
C 0.68
H 0.23
Co 1.33
N 0.68
O 0.68
loop_
_atom_site_label
_atom_site_type_symbol
_atom_site_fract_x
_atom_site_fract_y
_atom_site_fract_z
Co1 Co 0.00000 0.00000 0.00000
O1 O 0.05350 0.20050 0.14010
N1 N -0.21120 0.00000 0.10500
N2 N 0.06290 0.09600 0.16020
C1 C -0.28030 -0.08850 0.13670
C2 C -0.40820 -0.09190 0.19290
C3 C -0.47210 0.00000 0.22480
C4 C 0.11970 0.05650 0.29090
C5 C 0.17950 0.12450 0.42710
H1 H -0.22800 -0.16200 0.11500
H2 H -0.46000 -0.16500 0.21200
H3 H -0.57200 0.00000 0.27700
H4 H 0.18900 0.09000 0.54700
H5 H 0.11000 0.19000 0.43100
H6 H 0.27800 0.15100 0.38900
H7? H 0.00000 0.22600 0.00000
O1F O 0.05350 -0.20050 0.14010
N2F N 0.06290 -0.09600 0.16020
C4F C 0.11970 -0.05650 0.29090
C5F C 0.17950 -0.12450 0.42710
H4F H 0.18900 -0.09000 0.54700
H5F H 0.11000 -0.19000 0.43100
H6F H 0.27800 -0.15100 0.38900
C1F C -0.28030 0.08850 0.13670
C2F C -0.40820 0.09190 0.19290
H1F H -0.22800 0.16200 0.11500
H2F H -0.46000 0.16500 0.21200
O1B O -0.05350 0.20050 -0.14010
N1B N 0.21120 0.00000 -0.10500
N2B N -0.06290 0.09600 -0.16020
C1B C 0.28030 -0.08850 -0.13670
C2B C 0.40820 -0.09190 -0.19290
C3B C 0.47210 0.00000 -0.22480
C4B C -0.11970 0.05650 -0.29090
C5B C -0.17950 0.12450 -0.42710
H1B H 0.22800 -0.16200 -0.11500
H2B H 0.46000 -0.16500 -0.21200
H3B H 0.57200 0.00000 -0.27700
H4B H -0.18900 0.09000 -0.54700
H5B H -0.11000 0.19000 -0.43100
H6B H -0.27800 0.15100 -0.38900
O1D O -0.05350 -0.20050 -0.14010
N2D N -0.06290 -0.09600 -0.16020
C4D C -0.11970 -0.05650 -0.29090
C5D C -0.17950 -0.12450 -0.42710
H4D H -0.18900 -0.09000 -0.54700
H5D H -0.11000 -0.19000 -0.43100
H6D H -0.27800 -0.15100 -0.38900
C1D C 0.28030 0.08850 -0.13670
C2D C 0.40820 0.09190 -0.19290
H1D H 0.22800 0.16200 -0.11500
H2D H 0.46000 0.16500 -0.21200
#END
