
#######################################################################
#
#                 Cambridge Crystallographic Data Centre
#                                CCDC
#
#######################################################################
#
# If this CIF has been generated from an entry in the Cambridge
# Structural Database, then it will include bibliographic, chemical,
# crystal, experimental, refinement or atomic coordinate data resulting
# from the CCDC's data processing and validation procedures.
#
#######################################################################

data_CSD_CIF_MIDBUY
_audit_creation_date 2013-05-26
_audit_creation_method CSD-ConQuest-V1
_database_code_CSD MIDBUY
_database_code_depnum_ccdc_archive 'CCDC 939329'
_chemical_formula_sum 'C14 H8 Cl2 Fe1 N5 S2'
_chemical_formula_moiety
;
C14 H8 Cl2 Fe1 N5 S2
;
_journal_coden_Cambridge 9
_journal_volume 52
_journal_year 2013
_journal_page_first 1559
_journal_name_full 'Inorg.Chem. '
loop_
_publ_author_name
"T.Varadi"
"J.S.Pap"
"M.Giorgi"
"L.Parkanyi"
"T.Csay"
"G.Speier"
"J.Kaizer"
_chemical_name_systematic
;
Dichloro-(N-(1,3-thiazol-2(3H)-ylidene)-1-((1,3-thiazol-2-yl)imino)-1H-isoindo
l-3-aminato)-iron(iii)
;
_cell_volume    851.876
_exptl_crystal_colour 'red'
_exptl_crystal_density_diffrn 1.704
_exptl_crystal_description 'prism'
_diffrn_ambient_temperature 293
#These two values have been output from a single CSD field.
_refine_ls_R_factor_gt 0.0405
_refine_ls_wR_factor_gt 0.0405
_symmetry_cell_setting triclinic
_symmetry_space_group_name_H-M 'P -1'
_symmetry_Int_Tables_number 2
loop_
_symmetry_equiv_pos_site_id
_symmetry_equiv_pos_as_xyz
1 x,y,z
2 -x,-y,-z
_cell_length_a 7.4218(2)
_cell_length_b 8.2660(2)
_cell_length_c 16.1637(6)
_cell_angle_alpha 75.587(1)
_cell_angle_beta 88.931(1)
_cell_angle_gamma 63.158(1)
_cell_formula_units_Z 2
loop_
_atom_type_symbol
_atom_type_radius_bond
C 0.68
H 0.23
Cl 0.99
Fe 1.52
N 0.68
S 1.02
loop_
_atom_site_label
_atom_site_type_symbol
_atom_site_fract_x
_atom_site_fract_y
_atom_site_fract_z
Fe1 Fe 0.10123(5) 0.31243(5) 0.32660(2)
Cl1 Cl -0.16889(12) 0.28513(11) 0.37711(7)
Cl2 Cl 0.33846(12) 0.26143(10) 0.42556(5)
S1 S 0.41268(12) -0.27161(10) 0.27526(5)
S2 S -0.18297(13) 0.95817(10) 0.25746(6)
N1 N 0.0094(4) 0.7183(3) 0.16506(16)
N2 N -0.0483(4) 0.6037(3) 0.31125(15)
N3 N 0.3174(4) 0.0675(3) 0.17425(15)
N4 N 0.1518(3) 0.3755(3) 0.20233(14)
N5 N 0.2400(4) 0.0315(3) 0.32174(15)
C1 C 0.1028(4) 0.5564(4) 0.14941(17)
C2 C 0.2481(4) 0.2486(4) 0.15330(17)
C3 C 0.2661(5) -0.1144(4) 0.39199(19)
H1 H 0.22430 -0.09490 0.44480
C4 C 0.2629(5) 0.3520(4) 0.06761(19)
C5 C 0.3107(4) -0.0304(4) 0.25447(18)
C6 C -0.2170(5) 0.8675(4) 0.3598(2)
H2 H -0.28160 0.93830 0.39780
C7 C 0.1767(5) 0.5390(5) 0.06508(19)
C8 C -0.1369(5) 0.6788(4) 0.3778(2)
H3 H -0.14100 0.60480 0.43090
C9 C 0.3561(5) -0.2871(4) 0.3791(2)
H4 H 0.38340 -0.39840 0.42050
C10 C 0.1677(6) 0.6734(6) -0.0077(2)
H5 H 0.10880 0.80030 -0.00940
C11 C 0.3361(7) 0.4233(7) -0.0755(2)
H6 H 0.39040 0.38550 -0.12380
C12 C 0.2507(7) 0.6102(7) -0.0784(2)
H7 H 0.24800 0.69650 -0.12840
C13 C -0.0622(4) 0.7364(4) 0.24274(19)
C14 C 0.3441(6) 0.2895(6) -0.0030(2)
H8 H 0.40140 0.16270 -0.00150
#END
