
#######################################################################
#
#                 Cambridge Crystallographic Data Centre
#                                CCDC
#
#######################################################################
#
# If this CIF has been generated from an entry in the Cambridge
# Structural Database, then it will include bibliographic, chemical,
# crystal, experimental, refinement or atomic coordinate data resulting
# from the CCDC's data processing and validation procedures.
#
#######################################################################

data_CSD_CIF_MIDJOY
_audit_creation_date 2002-05-09
_audit_creation_method CSD-ConQuest-V1
_database_code_CSD MIDJOY
_chemical_formula_sum 'C10 H22 Cl1 Fe1 N4 S2'
_chemical_formula_moiety
;
C10 H22 Fe1 N4 S2 1+,Cl1 1-
;
_journal_coden_Cambridge 9
_journal_volume 40
_journal_year 2001
_journal_page_first 1646
_journal_name_full 'Inorg.Chem. '
loop_
_publ_author_name
"H.L.Jackson"
"S.C.Shoner"
"D.Rittenberg"
"J.A.Cowen"
"S.Lovell"
"D.Barnhart"
"J.A.Kovacs"
_chemical_name_systematic
;
cis-bis(5-Amino-2-methyl-3-azapent-2-ene-1-thiolato)-iron(iii) chloride
;
_cell_volume    842.161
_exptl_crystal_colour 'green'
_exptl_crystal_density_diffrn 1.387
_exptl_crystal_description 'plate'
_diffrn_ambient_temperature 161
#These two values have been output from a single CSD field.
_refine_ls_R_factor_gt 0.0844
_refine_ls_wR_factor_gt 0.0844
_symmetry_cell_setting triclinic
_symmetry_space_group_name_H-M 'P -1'
_symmetry_Int_Tables_number 2
loop_
_symmetry_equiv_pos_site_id
_symmetry_equiv_pos_as_xyz
1 x,y,z
2 -x,-y,-z
_cell_length_a 8.0152(6)
_cell_length_b 10.0221(8)
_cell_length_c 11.8384(10)
_cell_angle_alpha 73.460(3)
_cell_angle_beta 71.451(5)
_cell_angle_gamma 72.856(4)
_cell_formula_units_Z 2
loop_
_atom_type_symbol
_atom_type_radius_bond
C 0.68
H 0.23
Cl 0.99
Fe 1.34
N 0.68
S 1.02
loop_
_atom_site_label
_atom_site_type_symbol
_atom_site_fract_x
_atom_site_fract_y
_atom_site_fract_z
C1 C 0.1417(12) 0.3587(9) 0.8327(7)
C2 C 0.2192(10) 0.3940(8) 0.6960(7)
C3 C 0.3191(12) 0.5118(9) 0.6457(8)
C4 C 0.2528(9) 0.3384(8) 0.5006(7)
C5 C 0.1086(11) 0.3124(8) 0.4592(7)
C6 C -0.3448(10) 0.1902(8) 0.8217(7)
C7 C -0.2435(9) 0.0403(7) 0.8196(6)
C8 C -0.3458(10) -0.0757(8) 0.8667(7)
C9 C 0.0454(9) -0.1276(7) 0.7765(7)
C10 C 0.2307(10) -0.1259(8) 0.7806(7)
Cl1 Cl -0.3316(2) 0.1082(2) 0.5547(2)
N1 N 0.0610(8) 0.1769(6) 0.5349(5)
N2 N 0.1905(7) 0.3209(6) 0.6350(5)
N3 N -0.0687(8) 0.0166(6) 0.7804(5)
N4 N 0.2827(8) 0.0027(6) 0.6896(5)
S1 S 0.1031(3) 0.1779(2) 0.8850(2)
S2 S -0.2095(2) 0.3206(2) 0.7324(2)
Fe1 Fe 0.0597(1) 0.1685(1) 0.7104(1)
H1 H 0.02620 0.42470 0.85330
H2 H 0.22180 0.36810 0.87270
H3 H 0.31820 0.54780 0.71230
H4 H 0.25700 0.58720 0.59130
H5 H 0.43910 0.47640 0.60250
H6 H 0.27210 0.43270 0.46450
H7 H 0.36220 0.26910 0.48060
H8 H 0.14960 0.30670 0.37480
H9 H 0.00150 0.38850 0.47040
H10 H -0.38470 0.19900 0.90530
H11 H -0.44980 0.20790 0.79120
H12 H -0.47320 -0.03360 0.88930
H13 H -0.30990 -0.13910 0.93680
H14 H -0.32200 -0.12830 0.80480
H15 H -0.00660 -0.19430 0.84530
H16 H 0.05090 -0.15240 0.70260
H17 H 0.31760 -0.20940 0.75810
H18 H 0.22980 -0.12050 0.86040
H19 H 0.12820 0.10150 0.50220
H20 H -0.07470 0.17590 0.54070
H21 H 0.30580 -0.00680 0.59860
H22 H 0.34730 0.02690 0.70600
#END
