
#######################################################################
#
#                 Cambridge Crystallographic Data Centre
#                                CCDC
#
#######################################################################
#
# If this CIF has been generated from an entry in the Cambridge
# Structural Database, then it will include bibliographic, chemical,
# crystal, experimental, refinement or atomic coordinate data resulting
# from the CCDC's data processing and validation procedures.
#
#######################################################################

data_CSD_CIF_MILNOK01
_audit_creation_date 2002-06-11
_audit_creation_method CSD-ConQuest-V1
_database_code_CSD MILNOK01
_database_code_depnum_ccdc_archive 'CCDC 168925'
_chemical_formula_sum 'C15 H17 F2 Mn1 O2'
_chemical_formula_moiety
;
C15 H17 F2 Mn1 O2
;
_journal_coden_Cambridge 1220
_journal_volume 8
_journal_year 2002
_journal_page_first 1205
_journal_name_full 'Chem.-Eur.J. '
loop_
_publ_author_name
"D.Lentz"
"N.Nickelt"
"S.Willemsen"
_chemical_name_systematic
;
Dicarbonyl-(\h^2^-1,1-difluoroallene)-(\h^5^-pentamethylcyclopentadienyl)-mang
anese
;
_cell_volume    752.625
_exptl_crystal_colour 'yellow'
_exptl_crystal_density_diffrn 1.422
_exptl_special_details
;
polymorph 1

;
_exptl_crystal_description 'platelet'
_exptl_crystal_preparation 'by sublimation'
_diffrn_ambient_temperature 293
#These two values have been output from a single CSD field.
_refine_ls_R_factor_gt 0.0674
_refine_ls_wR_factor_gt 0.0674
_symmetry_cell_setting monoclinic
_symmetry_space_group_name_H-M 'P 21'
_symmetry_Int_Tables_number 4
loop_
_symmetry_equiv_pos_site_id
_symmetry_equiv_pos_as_xyz
1 x,y,z
2 -x,1/2+y,-z
_cell_length_a 6.7585(7)
_cell_length_b 12.479(2)
_cell_length_c 8.946(1)
_cell_angle_alpha 90
_cell_angle_beta 94.04(1)
_cell_angle_gamma 90
_cell_formula_units_Z 2
loop_
_atom_type_symbol
_atom_type_radius_bond
C 0.68
H 0.23
F 0.64
Mn 1.35
O 0.68
loop_
_atom_site_label
_atom_site_type_symbol
_atom_site_fract_x
_atom_site_fract_y
_atom_site_fract_z
Mn1 Mn 0.49310(13) 0.8106(3) 0.27832(10)
C1 C 0.2098(4) 0.7499(3) 0.1839(3)
C2 C 0.2398(5) 0.7165(3) 0.3346(4)
C3 C 0.2516(4) 0.8089(4) 0.4259(3)
C4 C 0.2289(5) 0.8995(4) 0.3316(4)
C5 C 0.2031(4) 0.8630(3) 0.1821(3)
C6 C 0.1887(6) 0.6779(4) 0.0493(5)
H1 H 0.19880 0.60450 0.08110
H2 H 0.29210 0.69350 -0.01570
H3 H 0.06190 0.68970 -0.00340
C7 C 0.2562(8) 0.6026(4) 0.3884(7)
H4 H 0.24310 0.55500 0.30400
H5 H 0.15290 0.58810 0.45390
H6 H 0.38300 0.59190 0.44150
C8 C 0.2828(5) 0.8105(7) 0.5937(4)
H7 H 0.28510 0.88340 0.62830
H8 H 0.40660 0.77660 0.62390
H9 H 0.17650 0.77280 0.63630
C9 C 0.2318(9) 1.0143(4) 0.3816(7)
H10 H 0.25160 1.01740 0.48890
H11 H 0.10770 1.04760 0.35020
H12 H 0.33780 1.05140 0.33780
C10 C 0.1737(6) 0.9323(4) 0.0452(5)
H13 H 0.17500 1.00640 0.07450
H14 H 0.04860 0.91560 -0.00710
H15 H 0.27870 0.91940 -0.01940
C11 C 0.6682(4) 0.8064(6) 0.4359(3)
O1 O 0.7783(5) 0.8164(8) 0.5353(4)
C12 C 0.6354(6) 0.6867(4) 0.2191(4)
O2 O 0.7140(9) 0.6101(5) 0.2184(6)
C13 C 0.6439(7) 0.9524(4) 0.2228(5)
H16 H 0.56550 1.01690 0.20510
H17 H 0.77550 0.96420 0.27050
C14 C 0.6164(5) 0.8555(4) 0.0988(3)
C15 C 0.6392(5) 0.8255(5) -0.0448(3)
F1 F 0.7338(7) 0.8854(6) -0.1392(4)
F2 F 0.6151(7) 0.7318(5) -0.1048(4)
#END
