
#######################################################################
#
#                 Cambridge Crystallographic Data Centre
#                                CCDC
#
#######################################################################
#
# If this CIF has been generated from an entry in the Cambridge
# Structural Database, then it will include bibliographic, chemical,
# crystal, experimental, refinement or atomic coordinate data resulting
# from the CCDC's data processing and validation procedures.
#
#######################################################################

data_CSD_CIF_MIMYAI
_audit_creation_date 2002-06-11
_audit_creation_method CSD-ConQuest-V1
_database_code_CSD MIMYAI
_database_code_depnum_ccdc_archive 'CCDC 172591'
_chemical_formula_sum 'C24 H52 Cl2 Co1 N4 O8'
_chemical_formula_moiety
;
C24 H44 Co1 N4 O4 2+,2(Cl1 1-),4(H2 O1)
;
_journal_coden_Cambridge 1295
_journal_volume 5
_journal_year 2002
_journal_page_first 220
_journal_name_full 'Inorg.Chem.Commun. '
loop_
_publ_author_name
"Ki-Young Choi"
_chemical_name_systematic
;
(2,13-bis(Carboxymethyl)-5,16-dimethyl-2,6,13,16-tetra-azatricyclo(16.4.0.0^7,
12^)docosane)-cobalt(ii) dichloride tetrahydrate
;
_cell_volume    735.540
_exptl_crystal_colour 'dark brown'
_exptl_crystal_density_diffrn 1.478
_exptl_crystal_description 'block'
_diffrn_ambient_temperature 293
#These two values have been output from a single CSD field.
_refine_ls_R_factor_gt 0.0685
_refine_ls_wR_factor_gt 0.0685
_symmetry_cell_setting triclinic
_symmetry_space_group_name_H-M 'P -1'
_symmetry_Int_Tables_number 2
loop_
_symmetry_equiv_pos_site_id
_symmetry_equiv_pos_as_xyz
1 x,y,z
2 -x,-y,-z
_cell_length_a 8.9583(16)
_cell_length_b 9.5131(13)
_cell_length_c 9.6785(12)
_cell_angle_alpha 92.567(11)
_cell_angle_beta 93.473(13)
_cell_angle_gamma 116.326(11)
_cell_formula_units_Z 1
loop_
_atom_type_symbol
_atom_type_radius_bond
C 0.68
H 0.23
Cl 0.99
Co 1.33
N 0.68
O 0.68
loop_
_atom_site_label
_atom_site_type_symbol
_atom_site_fract_x
_atom_site_fract_y
_atom_site_fract_z
Co1 Co 0.50000 0.50000 0.50000
Cl1 Cl 0.0124(2) 0.74104(19) 0.08357(15)
O1 O 0.3613(4) 0.5684(4) 0.5953(3)
H1 H 0.38630 0.58180 0.66680
O2 O 0.1810(6) 0.6613(6) 0.5729(4)
N1 N 0.3834(5) 0.5174(5) 0.3250(4)
N2 N 0.3325(5) 0.2768(5) 0.5195(4)
H2 H 0.24480 0.28750 0.55250
C1 C 0.3941(6) 0.2151(6) 0.6376(5)
H3 H 0.47550 0.18160 0.60480
C2 C 0.2551(7) 0.0756(6) 0.6969(6)
H4 H 0.20850 -0.01350 0.62780
H5 H 0.16640 0.10280 0.71880
C3 C 0.3206(9) 0.0300(7) 0.8272(7)
H6 H 0.40100 -0.00770 0.80350
H7 H 0.22880 -0.05480 0.86560
C4 C 0.4030(9) 0.1684(8) 0.9347(6)
H8 H 0.32080 0.20170 0.96300
H9 H 0.44550 0.13670 1.01600
C5 C 0.5458(8) 0.3053(7) 0.8779(6)
H10 H 0.59300 0.39420 0.94720
H11 H 0.63300 0.27540 0.85760
C6 C 0.5161(6) 0.6469(6) 0.2546(5)
H12 H 0.59730 0.60950 0.22880
C7 C 0.3091(7) 0.3717(6) 0.2281(5)
H13 H 0.39910 0.35070 0.19790
H14 H 0.25520 0.39170 0.14650
C8 C 0.1835(7) 0.2260(6) 0.2867(6)
H15 H 0.12760 0.14570 0.21070
H16 H 0.09960 0.25060 0.32520
C9 C 0.2524(7) 0.1569(6) 0.3983(5)
H17 H 0.15570 0.06960 0.43120
C10 C 0.3621(8) 0.0868(7) 0.3412(7)
H18 H 0.40270 0.04520 0.41500
H19 H 0.45500 0.16720 0.30200
H20 H 0.29750 0.00390 0.27070
C11 C 0.2500(7) 0.5622(7) 0.3701(6)
H21 H 0.25790 0.65270 0.32270
H22 H 0.14060 0.47580 0.34280
C12 C 0.2670(6) 0.6010(6) 0.5250(6)
O3 O -0.0100(6) 0.7560(6) 0.4082(5)
H23 H 0.061(7) 0.713(6) 0.450(5)
H24 H -0.034(13) 0.713(11) 0.310(4)
O4 O 0.1409(14) 0.6212(10) 0.8614(7)
H25 H 0.18530 0.65520 0.75800
H26 H 0.10230 0.52630 0.87380
O1A O 0.6387(4) 0.4316(4) 0.4047(3)
H1A H 0.61370 0.41820 0.33320
C12A C 0.7330(6) 0.3990(6) 0.4750(6)
O2A O 0.8190(6) 0.3387(6) 0.4271(4)
C11A C 0.7500(7) 0.4378(7) 0.6299(6)
N1A N 0.6166(5) 0.4826(5) 0.6750(4)
C6A C 0.4839(6) 0.3531(6) 0.7454(5)
C7A C 0.6909(7) 0.6283(6) 0.7719(5)
H13A H 0.60090 0.64930 0.80210
H14A H 0.74480 0.60830 0.85350
C8A C 0.8165(7) 0.7740(6) 0.7133(6)
H15A H 0.87240 0.85430 0.78930
H16A H 0.90040 0.74940 0.67480
C9A C 0.7476(7) 0.8431(6) 0.6017(5)
N2A N 0.6675(5) 0.7232(5) 0.4805(4)
H2A H 0.75520 0.71250 0.44750
C1A C 0.6059(6) 0.7849(6) 0.3624(5)
H3A H 0.52450 0.81840 0.39520
C2A C 0.7449(7) 0.9244(6) 0.3031(6)
H4A H 0.79150 1.01350 0.37220
H5A H 0.83360 0.89720 0.28120
C3A C 0.6794(9) 0.9700(7) 0.1728(7)
H6A H 0.59900 1.00770 0.19650
H7A H 0.77120 1.05480 0.13440
C4A C 0.5970(9) 0.8316(8) 0.0653(6)
H8A H 0.67920 0.79830 0.03700
H9A H 0.55450 0.86330 -0.01600
C5A C 0.4542(8) 0.6947(7) 0.1221(6)
H10A H 0.40700 0.60580 0.05280
H11A H 0.36700 0.72460 0.14240
H17A H 0.84430 0.93040 0.56880
C10A C 0.6379(8) 0.9132(7) 0.6588(7)
H18A H 0.59730 0.95480 0.58500
H19A H 0.54500 0.83280 0.69800
H20A H 0.70250 0.99610 0.72930
H12A H 0.40270 0.39050 0.77120
H21A H 0.74210 0.34730 0.67730
H22A H 0.85940 0.52420 0.65720
#END
