
#######################################################################
#
#                 Cambridge Crystallographic Data Centre
#                                CCDC
#
#######################################################################
#
# If this CIF has been generated from an entry in the Cambridge
# Structural Database, then it will include bibliographic, chemical,
# crystal, experimental, refinement or atomic coordinate data resulting
# from the CCDC's data processing and validation procedures.
#
#######################################################################

data_CSD_CIF_MINPAA
_audit_creation_date 2002-06-11
_audit_creation_method CSD-ConQuest-V1
_database_code_CSD MINPAA
_database_code_depnum_ccdc_archive 'CCDC 164806'
_chemical_formula_sum 'C24 H20 Co1 N10 O8 S2'
_chemical_formula_moiety
;
C24 H20 Co1 N8 O2 S2 2+,2(N1 O3 1-)
;
_journal_coden_Cambridge 580
_journal_volume 21
_journal_year 2002
_journal_page_first 403
_journal_name_full 'Polyhedron '
loop_
_publ_author_name
"F.Bentiss"
"M.Lagrenee"
"J.P.Wignacourt"
"E.M.Holt"
_chemical_name_systematic
;
Diaqua-bis(2,5-bis(2-pyridyl)-1,3,4-thiadiazole-N,N')-cobalt(ii) dinitrate
;
_cell_volume    717.216
_exptl_crystal_colour 'orange'
_exptl_crystal_density_diffrn 1.62
_exptl_crystal_description 'rhomboid'
_diffrn_ambient_temperature 293
#These two values have been output from a single CSD field.
_refine_ls_R_factor_gt 0.0538
_refine_ls_wR_factor_gt 0.0538
_symmetry_cell_setting triclinic
_symmetry_space_group_name_H-M 'P -1'
_symmetry_Int_Tables_number 2
loop_
_symmetry_equiv_pos_site_id
_symmetry_equiv_pos_as_xyz
1 x,y,z
2 -x,-y,-z
_cell_length_a 7.749(3)
_cell_length_b 7.896(3)
_cell_length_c 11.995(4)
_cell_angle_alpha 88.166(6)
_cell_angle_beta 79.723(5)
_cell_angle_gamma 83.329(6)
_cell_formula_units_Z 1
loop_
_atom_type_symbol
_atom_type_radius_bond
C 0.68
H 0.23
Co 1.33
N 0.68
O 0.68
S 1.02
loop_
_atom_site_label
_atom_site_type_symbol
_atom_site_fract_x
_atom_site_fract_y
_atom_site_fract_z
Co1 Co 0.00000 0.00000 0.00000
O1 O -0.2534(4) 0.1355(5) 0.0282(3)
H1 H -0.322(7) 0.084(6) 0.067(4)
H2 H -0.294(9) 0.157(9) -0.026(6)
N1 N -0.4402(5) -0.8588(5) 0.7895(3)
O2 O -0.4874(5) -0.9460(7) 0.8716(4)
O3 O -0.4844(5) -0.8876(5) 0.7002(3)
O4 O -0.3414(5) -0.7505(4) 0.7970(4)
N2 N -0.1421(4) -0.2935(4) 0.1724(3)
N3 N -0.0672(4) -0.1435(4) 0.1507(3)
C1 C -0.0334(5) -0.0751(5) 0.2406(3)
S1 S -0.09172(14) -0.18985(13) 0.36263(8)
C2 C -0.1642(5) -0.3321(5) 0.2796(3)
C3 C 0.0507(5) 0.0829(5) 0.2304(3)
N4 N 0.0776(4) 0.1467(4) 0.1248(3)
C4 C 0.1550(6) 0.2898(5) 0.1085(4)
H3 H 0.17510 0.33610 0.03570
C5 C 0.2066(6) 0.3722(6) 0.1945(4)
H4 H 0.26110 0.47140 0.17950
C6 C 0.1771(6) 0.3069(6) 0.3013(4)
H5 H 0.20920 0.36160 0.36080
C7 C 0.0987(5) 0.1581(5) 0.3203(3)
H6 H 0.07880 0.10950 0.39240
C8 C -0.2401(5) -0.4831(5) 0.3317(3)
N5 N -0.2403(4) -0.5020(4) 0.4426(3)
C9 C -0.3074(6) -0.6388(5) 0.4933(4)
H7 H -0.30730 -0.65550 0.57040
C10 C -0.3763(6) -0.7553(5) 0.4372(4)
H8 H -0.42320 -0.84810 0.47610
C11 C -0.3759(6) -0.7348(5) 0.3235(4)
H9 H -0.42070 -0.81410 0.28400
C12 C -0.3079(5) -0.5945(5) 0.2681(3)
H10 H -0.30760 -0.57540 0.19120
O1A O 0.2534(4) -0.1355(5) -0.0282(3)
H1A H 0.322(7) -0.084(6) -0.067(4)
H2A H 0.294(9) -0.157(9) 0.026(6)
N3A N 0.0672(4) 0.1435(4) -0.1507(3)
N2A N 0.1421(4) 0.2935(4) -0.1724(3)
C2A C 0.1642(5) 0.3321(5) -0.2796(3)
S1A S 0.09172(14) 0.18985(13) -0.36263(8)
C1A C 0.0334(5) 0.0751(5) -0.2406(3)
C3A C -0.0507(5) -0.0829(5) -0.2304(3)
N4A N -0.0776(4) -0.1467(4) -0.1248(3)
C4A C -0.1550(6) -0.2898(5) -0.1085(4)
H3A H -0.17510 -0.33610 -0.03570
C5A C -0.2066(6) -0.3722(6) -0.1945(4)
H4A H -0.26110 -0.47140 -0.17950
C6A C -0.1771(6) -0.3069(6) -0.3013(4)
H5A H -0.20920 -0.36160 -0.36080
C7A C -0.0987(5) -0.1581(5) -0.3203(3)
H6A H -0.07880 -0.10950 -0.39240
C8A C 0.2401(5) 0.4831(5) -0.3317(3)
N5A N 0.2403(4) 0.5020(4) -0.4426(3)
C9A C 0.3074(6) 0.6388(5) -0.4933(4)
H7A H 0.30730 0.65550 -0.57040
C10A C 0.3763(6) 0.7553(5) -0.4372(4)
H8A H 0.42320 0.84810 -0.47610
C11A C 0.3759(6) 0.7348(5) -0.3235(4)
H9A H 0.42070 0.81410 -0.28400
C12A C 0.3079(5) 0.5945(5) -0.2681(3)
H10A H 0.30760 0.57540 -0.19120
#END
