
#######################################################################
#
#                 Cambridge Crystallographic Data Centre
#                                CCDC
#
#######################################################################
#
# If this CIF has been generated from an entry in the Cambridge
# Structural Database, then it will include bibliographic, chemical,
# crystal, experimental, refinement or atomic coordinate data resulting
# from the CCDC's data processing and validation procedures.
#
#######################################################################

data_CSD_CIF_MINZIS
_audit_creation_date 2002-06-10
_audit_creation_method CSD-ConQuest-V1
_database_code_CSD MINZIS
_database_code_depnum_ccdc_archive 'CCDC 177444'
_chemical_formula_sum 'C11 H36 Cl3 Co1 N6 O3'
_chemical_formula_moiety
;
C11 H30 Co1 N6 3+,3(Cl1 1-),3(H2 O1)
;
_journal_coden_Cambridge 186
_journal_year 2002
_journal_page_first 1241
_journal_name_full 'J.Chem.Soc.,Dalton Trans. '
loop_
_publ_author_name
"J.M.Harrowfield"
"Gyu Hwan Jang"
"Yang Kim"
"P.Thuery"
"J.Vicens"
_chemical_name_systematic
;
(Ethane-1,2-diamine)-(N-((1-(2-aminoethyl)-3-methylazetidin-3-yl)methyl)ethane
-1,2-diamine)-cobalt(iii) trichloride trihydrate
;
_cell_volume    998.952
_exptl_crystal_colour 'light red'
_exptl_crystal_density_diffrn 1.548
_exptl_crystal_description 'platelet'
_diffrn_ambient_temperature 100
#These two values have been output from a single CSD field.
_refine_ls_R_factor_gt 0.0785
_refine_ls_wR_factor_gt 0.0785
_symmetry_cell_setting triclinic
_symmetry_space_group_name_H-M 'P -1'
_symmetry_Int_Tables_number 2
loop_
_symmetry_equiv_pos_site_id
_symmetry_equiv_pos_as_xyz
1 x,y,z
2 -x,-y,-z
_cell_length_a 7.9455(6)
_cell_length_b 8.2960(7)
_cell_length_c 16.7784(11)
_cell_angle_alpha 101.991(4)
_cell_angle_beta 94.963(4)
_cell_angle_gamma 110.356(4)
_cell_formula_units_Z 2
loop_
_atom_type_symbol
_atom_type_radius_bond
C 0.68
H 0.23
Cl 0.99
Co 1.33
N 0.68
O 0.68
loop_
_atom_site_label
_atom_site_type_symbol
_atom_site_fract_x
_atom_site_fract_y
_atom_site_fract_z
Co1 Co 0.42515(13) 0.70117(12) 0.20707(6)
N1 N 0.4320(8) 0.5336(7) 0.1078(4)
H1 H 0.54480 0.54750 0.10610
H2 H 0.35300 0.51540 0.06290
N2 N 0.2238(8) 0.4967(7) 0.2258(4)
N3 N 0.4353(8) 0.8547(8) 0.3181(4)
H3 H 0.44820 0.95970 0.31550
N4 N 0.6277(8) 0.6580(8) 0.2650(3)
H4 H 0.60560 0.52990 0.25160
H5 H 0.72710 0.71070 0.24290
N5 N 0.6017(8) 0.9035(8) 0.1753(4)
H6 H 0.62630 0.99740 0.21230
H7 H 0.70140 0.86700 0.16850
N6 N 0.2431(8) 0.7634(8) 0.1438(4)
H8 H 0.17730 0.79610 0.20220
H9 H 0.18200 0.64270 0.10420
C1 C 0.3394(11) 0.3489(9) 0.1164(4)
H10 H 0.41850 0.31970 0.15340
H11 H 0.30790 0.26360 0.06290
C2 C 0.1684(10) 0.3457(9) 0.1515(5)
H12 H 0.08170 0.35720 0.11080
H13 H 0.11140 0.23430 0.16610
C3 C 0.0677(10) 0.5405(10) 0.2586(4)
H14 H -0.04650 0.43890 0.24740
H15 H 0.05040 0.64010 0.24250
C4 C 0.263(1) 0.4604(9) 0.3099(4)
H16 H 0.19830 0.33850 0.31160
H17 H 0.39190 0.49960 0.33160
C5 C 0.1745(9) 0.5889(9) 0.3472(4)
C6 C 0.0679(10) 0.5464(10) 0.4155(5)
H18 H 0.00550 0.62660 0.42810
H19 H 0.14990 0.55920 0.46400
H20 H -0.01950 0.42640 0.39790
C7 C 0.3044(10) 0.7852(9) 0.3749(4)
H21 H 0.23090 0.85730 0.38310
H22 H 0.37590 0.80410 0.42820
C8 C 0.6298(10) 0.9197(9) 0.3613(4)
H23 H 0.64080 0.97710 0.41920
H24 H 0.70940 1.00460 0.33590
C9 C 0.6805(10) 0.7583(9) 0.3532(4)
H25 H 0.81060 0.79460 0.37100
H26 H 0.61690 0.68440 0.38740
C10 C 0.5226(10) 0.9253(10) 0.0962(4)
H27 H 0.52010 0.83240 0.04970
H28 H 0.59300 1.03990 0.08740
C11 C 0.330(1) 0.9122(10) 0.1063(5)
H29 H 0.33410 1.02270 0.14150
H30 H 0.25880 0.89240 0.05280
Cl1 Cl 0.5961(2) 0.2676(2) 0.29148(11)
Cl2 Cl 0.0251(2) 0.9637(2) 0.25457(11)
Cl3 Cl 0.1991(2) 0.5089(3) -0.06340(11)
O1 O 0.0919(12) 0.0954(14) -0.0584(6)
O2 O 0.5361(8) 0.6799(8) 0.5323(3)
O3 O 0.0956(8) 1.1115(7) 0.4521(3)
#END
