
#######################################################################
#
#                 Cambridge Crystallographic Data Centre
#                                CCDC
#
#######################################################################
#
# If this CIF has been generated from an entry in the Cambridge
# Structural Database, then it will include bibliographic, chemical,
# crystal, experimental, refinement or atomic coordinate data resulting
# from the CCDC's data processing and validation procedures.
#
#######################################################################

data_CSD_CIF_MIPGAT
_audit_creation_date 2002-06-11
_audit_creation_method CSD-ConQuest-V1
_database_code_CSD MIPGAT
_database_code_depnum_ccdc_archive 'CCDC 153610'
_chemical_formula_sum 'C34 H50 Fe1 N4 O4'
_chemical_formula_moiety
;
C34 H50 Fe1 N4 O4
;
_journal_coden_Cambridge 1220
_journal_volume 8
_journal_year 2002
_journal_page_first 691
_journal_name_full 'Chem.-Eur.J. '
loop_
_publ_author_name
"H.Dialer"
"K.Polborn"
"W.Ponikwar"
"K.Sunkel"
"W.Beck"
_chemical_name_systematic
;
1,1'-bis(2-((2R,5S)-3,6-Dihydro-2,5-dimethoxy-6-isopropylpyrazin-3-yl)prop-2-y
l)ferrocene
;
_cell_volume   1699.736
_exptl_crystal_colour 'yellow'
_exptl_crystal_density_diffrn 1.24
_exptl_crystal_description 'plate'
_exptl_crystal_preparation 'diethyl ether'
_diffrn_ambient_temperature 293
#These two values have been output from a single CSD field.
_refine_ls_R_factor_gt 0.0245
_refine_ls_wR_factor_gt 0.0245
loop_
_citation_database_id_CSD
_citation_special_details
MIPGIB "is a stereoisomer of this entry"
_symmetry_cell_setting monoclinic
_symmetry_space_group_name_H-M 'C 2'
_symmetry_Int_Tables_number 5
loop_
_symmetry_equiv_pos_site_id
_symmetry_equiv_pos_as_xyz
1 x,y,z
2 -x,y,-z
3 1/2+x,1/2+y,z
4 1/2-x,1/2+y,-z
_cell_length_a 21.425(4)
_cell_length_b 7.297(2)
_cell_length_c 14.972(2)
_cell_angle_alpha 90
_cell_angle_beta 133.434(11)
_cell_angle_gamma 90
_cell_formula_units_Z 2
loop_
_atom_type_symbol
_atom_type_radius_bond
C 0.68
H 0.23
Fe 1.34
N 0.68
O 0.68
loop_
_atom_site_label
_atom_site_type_symbol
_atom_site_fract_x
_atom_site_fract_y
_atom_site_fract_z
Fe1 Fe 0.50000 0.03092(3) 0.50000
O1 O 0.15934(9) -0.0632(2) 0.05191(13)
O2 O 0.21239(10) 0.4263(2) 0.3641(2)
N1 N 0.15626(10) 0.0004(2) 0.19799(14)
N2 N 0.22559(10) 0.3552(2) 0.2296(2)
C1 C 0.37162(12) 0.0939(3) 0.3550(2)
C2 C 0.40571(13) 0.1891(4) 0.4628(2)
H1 H 0.40756(13) 0.3159(4) 0.4708(2)
C3 C 0.43636(12) 0.0619(4) 0.5559(2)
H2 H 0.46136(12) 0.0898(4) 0.6352(2)
C4 C 0.42272(15) -0.1124(4) 0.5085(2)
H3 H 0.43714(15) -0.2220(4) 0.5506(2)
C5 C 0.38284(14) -0.0946(3) 0.3841(2)
H4 H 0.36691(14) -0.1906(3) 0.3311(2)
C6 C 0.32428(12) 0.1774(3) 0.2293(2)
C7 C 0.3632(2) 0.3635(4) 0.2417(2)
H5 H 0.3299(7) 0.4170(12) 0.1617(3)
H6 H 0.4213(4) 0.3463(5) 0.2791(15)
H7 H 0.3626(10) 0.4435(9) 0.2920(13)
C8 C 0.32740(13) 0.0508(6) 0.1504(2)
H8 H 0.3858(2) 0.0383(21) 0.1881(9)
H9 H 0.2933(10) 0.1025(13) 0.0698(6)
H10 H 0.3050(11) -0.0675(9) 0.1441(14)
C9 C 0.22801(12) 0.2132(3) 0.1631(2)
H11 H 0.19839(12) 0.2628(3) 0.0815(2)
C10 C 0.17975(10) 0.0438(4) 0.14346(14)
C11 C 0.17713(12) 0.1220(3) 0.2919(2)
H12 H 0.22415(12) 0.0660(3) 0.3721(2)
C12 C 0.20736(11) 0.3081(3) 0.2899(2)
C13 C 0.1155(2) -0.2313(4) 0.0279(2)
H13 H 0.1543(3) -0.3146(9) 0.0951(8)
H14 H 0.0953(10) -0.2848(12) -0.0466(9)
H15 H 0.0675(7) -0.2071(5) 0.0193(16)
C14 C 0.09922(14) 0.1409(4) 0.2786(2)
H16 H 0.11632(14) 0.2218(4) 0.3446(2)
C15 C 0.02290(15) 0.2292(5) 0.1569(3)
H17 H 0.0401(4) 0.3446(13) 0.1488(8)
H18 H -0.0224(5) 0.2488(25) 0.1548(8)
H19 H 0.0028(8) 0.1500(13) 0.0904(3)
C16 C 0.0772(2) -0.0448(4) 0.2969(3)
H20 H 0.1248(5) -0.0882(13) 0.3786(7)
H21 H 0.0652(13) -0.1303(8) 0.2381(13)
H22 H 0.0275(8) -0.0330(7) 0.2857(18)
C17 C 0.2410(2) 0.6086(3) 0.3716(3)
H23 H 0.2461(11) 0.6782(8) 0.4308(13)
H24 H 0.2001(6) 0.6666(10) 0.2925(5)
H25 H 0.2959(6) 0.6029(4) 0.3965(16)
C1A C 0.62838(12) 0.0939(3) 0.6450(2)
C2A C 0.59429(13) 0.1891(4) 0.5372(2)
C3A C 0.56364(12) 0.0619(4) 0.4441(2)
H1A H 0.59244(13) 0.3159(4) 0.5292(2)
H2A H 0.53864(12) 0.0898(4) 0.3648(2)
C4A C 0.57728(15) -0.1124(4) 0.4915(2)
C5A C 0.61716(14) -0.0946(3) 0.6159(2)
C6A C 0.67572(12) 0.1774(3) 0.7707(2)
C7A C 0.6368(2) 0.3635(4) 0.7583(2)
H5A H 0.6701(7) 0.4170(12) 0.8383(3)
H6A H 0.5787(4) 0.3463(5) 0.7209(15)
H7A H 0.6374(10) 0.4435(9) 0.7080(13)
C8A C 0.67260(13) 0.0508(6) 0.8496(2)
H8A H 0.6142(2) 0.0383(21) 0.8119(9)
H9A H 0.7067(10) 0.1025(13) 0.9302(6)
H10A H 0.6950(11) -0.0675(9) 0.8559(14)
C9A C 0.77199(12) 0.2132(3) 0.8369(2)
N2A N 0.77441(10) 0.3552(2) 0.7704(2)
C12A C 0.79264(11) 0.3081(3) 0.7101(2)
O2A O 0.78761(10) 0.4263(2) 0.6359(2)
C17A C 0.7590(2) 0.6086(3) 0.6284(3)
H23A H 0.7539(11) 0.6782(8) 0.5692(13)
H24A H 0.7999(6) 0.6666(10) 0.7075(5)
H25A H 0.7041(6) 0.6029(4) 0.6035(16)
C11A C 0.82287(12) 0.1220(3) 0.7081(2)
N1A N 0.84374(10) 0.0004(2) 0.80201(14)
C10A C 0.82025(10) 0.0438(4) 0.85654(14)
O1A O 0.84066(9) -0.0632(2) 0.94809(13)
C13A C 0.8845(2) -0.2313(4) 0.9721(2)
H13A H 0.8457(3) -0.3146(9) 0.9049(8)
H14A H 0.9047(10) -0.2848(12) 1.0466(9)
H15A H 0.9325(7) -0.2071(5) 0.9807(16)
H11A H 0.80161(12) 0.2628(3) 0.9185(2)
H12A H 0.77585(12) 0.0660(3) 0.6279(2)
C14A C 0.90078(14) 0.1409(4) 0.7214(2)
H16A H 0.88368(14) 0.2218(4) 0.6554(2)
C15A C 0.97710(15) 0.2292(5) 0.8431(3)
H17A H 0.9599(4) 0.3446(13) 0.8512(8)
H18A H 1.0224(5) 0.2488(25) 0.8452(8)
H19A H 0.9972(8) 0.1500(13) 0.9096(3)
C16A C 0.9228(2) -0.0448(4) 0.7031(3)
H20A H 0.8752(5) -0.0882(13) 0.6214(7)
H21A H 0.9348(13) -0.1303(8) 0.7619(13)
H22A H 0.9725(8) -0.0330(7) 0.7143(18)
H3A H 0.56286(15) -0.2220(4) 0.4494(2)
H4A H 0.63309(14) -0.1906(3) 0.6689(2)
#END
