
#######################################################################
#
#                 Cambridge Crystallographic Data Centre
#                                CCDC
#
#######################################################################
#
# If this CIF has been generated from an entry in the Cambridge
# Structural Database, then it will include bibliographic, chemical,
# crystal, experimental, refinement or atomic coordinate data resulting
# from the CCDC's data processing and validation procedures.
#
#######################################################################

data_CSD_CIF_MIPGIB
_audit_creation_date 2002-06-11
_audit_creation_method CSD-ConQuest-V1
_database_code_CSD MIPGIB
_database_code_depnum_ccdc_archive 'CCDC 153612'
_chemical_formula_sum 'C34 H50 Fe1 N4 O4'
_chemical_formula_moiety
;
C34 H50 Fe1 N4 O4
;
_journal_coden_Cambridge 1220
_journal_volume 8
_journal_year 2002
_journal_page_first 691
_journal_name_full 'Chem.-Eur.J. '
loop_
_publ_author_name
"H.Dialer"
"K.Polborn"
"W.Ponikwar"
"K.Sunkel"
"W.Beck"
_chemical_name_systematic
;
1,1'-bis(2-((2S,5R)-3,6-Dihydro-2,5-dimethoxy-6-isopropylpyrazin-3-yl)prop-2-y
l)ferrocene
;
_cell_volume   1699.712
_exptl_crystal_colour 'yellow'
_exptl_crystal_density_diffrn 1.24
_exptl_crystal_description 'plate'
_diffrn_ambient_temperature 293
#These two values have been output from a single CSD field.
_refine_ls_R_factor_gt 0.0225
_refine_ls_wR_factor_gt 0.0225
loop_
_citation_database_id_CSD
_citation_special_details
MIPGAT "is a stereoisomer of this entry"
_symmetry_cell_setting monoclinic
_symmetry_space_group_name_H-M 'C 2'
_symmetry_Int_Tables_number 5
loop_
_symmetry_equiv_pos_site_id
_symmetry_equiv_pos_as_xyz
1 x,y,z
2 -x,y,-z
3 1/2+x,1/2+y,z
4 1/2-x,1/2+y,-z
_cell_length_a 21.422(2)
_cell_length_b 7.2985(12)
_cell_length_c 14.9671(10)
_cell_angle_alpha 90
_cell_angle_beta 133.419(7)
_cell_angle_gamma 90
_cell_formula_units_Z 2
loop_
_atom_type_symbol
_atom_type_radius_bond
C 0.68
H 0.23
Fe 1.34
N 0.68
O 0.68
loop_
_atom_site_label
_atom_site_type_symbol
_atom_site_fract_x
_atom_site_fract_y
_atom_site_fract_z
Fe1 Fe 0.50000 0.62633(3) 1.00000
O1 O 0.78756(10) 0.2308(2) 1.13579(15)
O2 O 0.84077(9) 0.7207(2) 1.44794(13)
N1 N 0.77443(10) 0.3020(2) 1.27049(14)
N2 N 0.84373(9) 0.6567(2) 1.30203(13)
C1 C 0.62814(11) 0.5633(3) 1.1449(2)
C2 C 0.59440(13) 0.4679(3) 1.0373(2)
H1 H 0.59277(13) 0.3411(3) 1.0294(2)
C3 C 0.56367(11) 0.5955(4) 0.9441(2)
H2 H 0.53865(11) 0.5679(4) 0.8647(2)
C4 C 0.57738(14) 0.7693(4) 0.9919(2)
H3 H 0.56286(14) 0.8790(4) 0.9498(2)
C5 C 0.61741(13) 0.7517(3) 1.1162(2)
H4 H 0.63372(13) 0.8477(3) 1.1694(2)
C6 C 0.67552(11) 0.4793(3) 1.2704(2)
C7 C 0.63660(14) 0.2936(4) 1.2579(2)
H5 H 0.6692(7) 0.2411(11) 1.3380(3)
H6 H 0.6382(10) 0.2129(8) 1.2088(13)
H7 H 0.5781(4) 0.3106(5) 1.2191(14)
C8 C 0.67257(12) 0.6067(6) 1.3493(2)
H8 H 0.7066(9) 0.5553(13) 1.4301(5)
H9 H 0.6142(2) 0.6197(20) 1.3117(9)
H10 H 0.695(1) 0.7248(9) 1.3555(13)
C9 C 0.77206(12) 0.4441(3) 1.3367(2)
H11 H 0.80168(12) 0.3945(3) 1.4183(2)
C10 C 0.79270(11) 0.3494(3) 1.2100(2)
C11 C 0.82300(11) 0.5350(3) 1.2083(2)
H12 H 0.77601(11) 0.5910(3) 1.1281(2)
C12 C 0.82023(9) 0.6123(4) 1.35648(13)
C13 C 0.7591(2) 0.0491(3) 1.1286(3)
H13 H 0.8012(5) -0.0105(9) 1.2068(5)
H14 H 0.7517(11) -0.0190(8) 1.0669(12)
H15 H 0.7054(6) 0.0550(3) 1.1072(15)
C14 C 0.90078(13) 0.5163(3) 1.2215(2)
H16 H 0.88363(13) 0.4355(3) 1.1554(2)
C15 C 0.9232(2) 0.7016(4) 1.2034(3)
H17 H 0.8750(5) 0.7469(12) 1.1226(7)
H18 H 0.9719(8) 0.6888(6) 1.2124(17)
H19 H 0.9368(12) 0.7862(8) 1.2639(11)
C16 C 0.97698(14) 0.4280(4) 1.3429(2)
H20 H 1.0226(5) 0.4103(24) 1.3455(8)
H21 H 0.9600(3) 0.3117(12) 1.3504(8)
H22 H 0.9965(8) 0.5062(12) 1.4095(2)
C17 C 0.8844(2) 0.8887(4) 1.4723(2)
H23 H 0.9036(9) 0.9428(11) 1.5461(8)
H24 H 0.8460(3) 0.9714(9) 1.4046(7)
H25 H 0.9331(6) 0.8648(5) 1.4825(14)
C1A C 0.37186(11) 0.5633(3) 0.8551(2)
C2A C 0.40560(13) 0.4679(3) 0.9627(2)
C3A C 0.43633(11) 0.5955(4) 1.0559(2)
H1A H 0.40723(13) 0.3411(3) 0.9706(2)
H2A H 0.46135(11) 0.5679(4) 1.1353(2)
C4A C 0.42262(14) 0.7693(4) 1.0081(2)
C5A C 0.38259(13) 0.7517(3) 0.8838(2)
C6A C 0.32448(11) 0.4793(3) 0.7296(2)
C7A C 0.36340(14) 0.2936(4) 0.7421(2)
H5A H 0.3308(7) 0.2411(11) 0.6620(3)
H6A H 0.3618(10) 0.2129(8) 0.7912(13)
H7A H 0.4219(4) 0.3106(5) 0.7809(14)
C8A C 0.32743(12) 0.6067(6) 0.6507(2)
H8A H 0.2934(9) 0.5553(13) 0.5699(5)
H9A H 0.3858(2) 0.6197(20) 0.6883(9)
H10A H 0.305(1) 0.7248(9) 0.6445(13)
C9A C 0.22794(12) 0.4441(3) 0.6633(2)
N1A N 0.22557(10) 0.3020(2) 0.72951(14)
C10A C 0.20730(11) 0.3494(3) 0.7900(2)
O1A O 0.21244(10) 0.2308(2) 0.86421(15)
C13A C 0.2409(2) 0.0491(3) 0.8714(3)
H13A H 0.1988(5) -0.0105(9) 0.7932(5)
H14A H 0.2483(11) -0.0190(8) 0.9331(12)
H15A H 0.2946(6) 0.0550(3) 0.8928(15)
C11A C 0.17700(11) 0.5350(3) 0.7917(2)
N2A N 0.15627(9) 0.6567(2) 0.69797(13)
C12A C 0.17977(9) 0.6123(4) 0.64352(13)
O2A O 0.15923(9) 0.7207(2) 0.55206(13)
C17A C 0.1156(2) 0.8887(4) 0.5277(2)
H23A H 0.0964(9) 0.9428(11) 0.4539(8)
H24A H 0.1540(3) 0.9714(9) 0.5954(7)
H25A H 0.0669(6) 0.8648(5) 0.5175(14)
H11A H 0.19832(12) 0.3945(3) 0.5817(2)
H12A H 0.22399(11) 0.5910(3) 0.8719(2)
C14A C 0.09922(13) 0.5163(3) 0.7785(2)
H16A H 0.11637(13) 0.4355(3) 0.8446(2)
C15A C 0.0768(2) 0.7016(4) 0.7966(3)
H17A H 0.1250(5) 0.7469(12) 0.8774(7)
H18A H 0.0281(8) 0.6888(6) 0.7876(17)
H19A H 0.0632(12) 0.7862(8) 0.7361(11)
C16A C 0.02302(14) 0.4280(4) 0.6571(2)
H20A H -0.0226(5) 0.4103(24) 0.6545(8)
H21A H 0.0400(3) 0.3117(12) 0.6496(8)
H22A H 0.0035(8) 0.5062(12) 0.5905(2)
H3A H 0.43714(14) 0.8790(4) 1.0502(2)
H4A H 0.36628(13) 0.8477(3) 0.8306(2)
#END
