
#######################################################################
#
#                 Cambridge Crystallographic Data Centre
#                                CCDC
#
#######################################################################
#
# If this CIF has been generated from an entry in the Cambridge
# Structural Database, then it will include bibliographic, chemical,
# crystal, experimental, refinement or atomic coordinate data resulting
# from the CCDC's data processing and validation procedures.
#
#######################################################################

data_CSD_CIF_MIRRUB
_audit_creation_date 2008-02-26
_audit_creation_method CSD-ConQuest-V1
_database_code_CSD MIRRUB
_database_code_depnum_ccdc_archive 'CCDC 674168'
_chemical_formula_sum 'C26 H22 Mn1 N12'
_chemical_formula_moiety
;
(C26 H22 Mn1 N12)n
;
_journal_coeditor_code "IUCr CI2519"
_journal_coden_Cambridge 1370
_journal_volume 64
_journal_year 2008
_journal_page_first m29
_journal_name_full 'Acta Crystallogr.,Sect.E:Struct.Rep.Online '
loop_
_publ_author_name
"Chun-Sen Liu"
"Jun-Jie Wang"
"Li-Fen Yan"
_chemical_name_systematic
;
catena-[bis(\m~2~-1-(4-Pyridylmethyl)-1H-benzimidazole)-diazido-manganese(ii)]
;
_cell_volume    651.134
_exptl_crystal_colour 'yellow'
_exptl_crystal_density_diffrn 1.422
_exptl_crystal_description 'Block'
_diffrn_ambient_temperature 294
#These two values have been output from a single CSD field.
_refine_ls_R_factor_gt 0.0288
_refine_ls_wR_factor_gt 0.0288
_symmetry_cell_setting triclinic
_symmetry_space_group_name_H-M 'P -1'
_symmetry_Int_Tables_number 2
loop_
_symmetry_equiv_pos_site_id
_symmetry_equiv_pos_as_xyz
1 x,y,z
2 -x,-y,-z
_cell_length_a 8.4135(17)
_cell_length_b 8.5823(17)
_cell_length_c 10.399(2)
_cell_angle_alpha 67.86(3)
_cell_angle_beta 86.03(3)
_cell_angle_gamma 69.80(3)
_cell_formula_units_Z 1
loop_
_atom_type_symbol
_atom_type_radius_bond
C 0.68
H 0.23
Mn 1.35
N 0.68
loop_
_atom_site_label
_atom_site_type_symbol
_atom_site_fract_x
_atom_site_fract_y
_atom_site_fract_z
Mn1 Mn 0.00000 0.00000 0.00000
C1 C 0.86473(18) -0.75738(18) 0.18182(14)
H1 H 0.87750 -0.66350 0.10460
C2 C 0.86795(16) -1.01940(17) 0.31862(13)
C3 C 0.80176(16) -0.90468(18) 0.39082(14)
C4 C 0.7526(2) -0.9643(2) 0.52615(16)
H2 H 0.70860 -0.88700 0.57310
C5 C 0.7723(3) -1.1436(3) 0.58724(17)
H3 H 0.74060 -1.18830 0.67760
C6 C 0.8390(2) -1.2603(2) 0.51652(17)
H4 H 0.85020 -1.38040 0.56100
C7 C 0.8884(2) -1.20089(19) 0.38226(16)
H5 H 0.93350 -1.27890 0.33610
C8 C -0.74694(18) 0.57026(19) -0.32383(16)
H6 H -0.74840 0.59760 -0.42320
H7 H -0.82740 0.50910 -0.28600
C9 C -0.52740(18) 0.26337(19) -0.22661(17)
H8 H -0.60400 0.21850 -0.24750
C10 C -0.36910(19) 0.14894(19) -0.16336(17)
H9 H -0.34220 0.02690 -0.14200
C11 C -0.29472(19) 0.3804(2) -0.16510(19)
H10 H -0.21440 0.42240 -0.14640
C12 C -0.4515(2) 0.5042(2) -0.22668(19)
H11 H -0.47570 0.62540 -0.24620
C13 C -0.57138(16) 0.44572(18) -0.25881(14)
N1 N 0.90604(15) -0.92194(15) 0.18636(12)
N2 N 0.80188(14) -0.73794(15) 0.30045(12)
N3 N -0.25205(14) 0.20399(15) -0.13100(12)
N4 N 0.10239(16) 0.22079(17) -0.07304(13)
N5 N 0.16197(15) 0.28050(15) -0.01100(12)
N6 N 0.2213(2) 0.3409(2) 0.04762(16)
Mn1* Mn 1.00000 -1.00000 0.00000
Mn1** Mn -1.00000 1.00000 0.00000
C1A C -0.86473(18) 0.75738(18) -0.18182(14)
H1A H -0.87750 0.66350 -0.10460
C2A C -0.86795(16) 1.01940(17) -0.31862(13)
C3A C -0.80176(16) 0.90468(18) -0.39082(14)
C4A C -0.7526(2) 0.9643(2) -0.52615(16)
H2A H -0.70860 0.88700 -0.57310
C5A C -0.7723(3) 1.1436(3) -0.58724(17)
H3A H -0.74060 1.18830 -0.67760
C6A C -0.8390(2) 1.2603(2) -0.51652(17)
H4A H -0.85020 1.38040 -0.56100
C7A C -0.8884(2) 1.20089(19) -0.38226(16)
H5A H -0.93350 1.27890 -0.33610
C8A C 0.74694(18) -0.57026(19) 0.32383(16)
H6A H 0.74840 -0.59760 0.42320
H7A H 0.82740 -0.50910 0.28600
C9A C 0.52740(18) -0.26337(19) 0.22661(17)
H8A H 0.60400 -0.21850 0.24750
C10A C 0.36910(19) -0.14894(19) 0.16336(17)
H9A H 0.34220 -0.02690 0.14200
C11A C 0.29472(19) -0.3804(2) 0.16510(19)
H10A H 0.21440 -0.42240 0.14640
C12A C 0.4515(2) -0.5042(2) 0.22668(19)
H11A H 0.47570 -0.62540 0.24620
C13A C 0.57138(16) -0.44572(18) 0.25881(14)
N1* N -0.09396(15) 0.07806(15) 0.18636(12)
N1A N 0.09396(15) -0.07806(15) -0.18636(12)
N1A* N -0.90604(15) 0.92194(15) -0.18636(12)
N2A N -0.80188(14) 0.73794(15) -0.30045(12)
N3A N 0.25205(14) -0.20399(15) 0.13100(12)
N4A N -0.10239(16) -0.22079(17) 0.07304(13)
N5A N -0.16197(15) -0.28050(15) 0.01100(12)
N6A N -0.2213(2) -0.3409(2) -0.04762(16)
#END
