
#######################################################################
#
#                 Cambridge Crystallographic Data Centre
#                                CCDC
#
#######################################################################
#
# If this CIF has been generated from an entry in the Cambridge
# Structural Database, then it will include bibliographic, chemical,
# crystal, experimental, refinement or atomic coordinate data resulting
# from the CCDC's data processing and validation procedures.
#
#######################################################################

data_CSD_CIF_MISQEM
_audit_creation_date 2013-10-24
_audit_creation_method CSD-ConQuest-V1
_database_code_CSD MISQEM
_database_code_depnum_ccdc_archive 'CCDC 947205'
_chemical_formula_sum 'C17 H28 Fe1 O2 S2 Si2'
_chemical_formula_moiety
;
C17 H28 Fe1 O2 S2 Si2
;
_journal_coden_Cambridge 222
_journal_volume 42
_journal_year 2013
_journal_page_first 16687
_journal_name_full 'Dalton Trans. '
loop_
_publ_author_name
"Y.Sunada"
"H.Tsutsumi"
"K.Shigeta"
"R.Yoshida"
"T.Hashimoto"
"H.Nagashima"
_chemical_name_systematic
;
(1,2-phenylenebis(dimethylsilyl))-dicarbonyl-(1,3-bis(methylsulfanyl)propane)-
iron
;
_cell_volume   2133.714
_exptl_crystal_colour 'yellow'
_exptl_crystal_density_diffrn 1.371
_exptl_crystal_description 'block'
_diffrn_ambient_temperature 123
#These two values have been output from a single CSD field.
_refine_ls_R_factor_gt 0.0272
_refine_ls_wR_factor_gt 0.0272
_symmetry_cell_setting monoclinic
_symmetry_space_group_name_H-M 'C c'
_symmetry_Int_Tables_number 9
loop_
_symmetry_equiv_pos_site_id
_symmetry_equiv_pos_as_xyz
1 x,y,z
2 x,-y,1/2+z
3 1/2+x,1/2+y,z
4 1/2+x,1/2-y,1/2+z
_cell_length_a 16.522(4)
_cell_length_b 9.0451(18)
_cell_length_c 15.932(4)
_cell_angle_alpha 90
_cell_angle_beta 116.341(3)
_cell_angle_gamma 90
_cell_formula_units_Z 4
loop_
_atom_type_symbol
_atom_type_radius_bond
C 0.68
H 0.23
Fe 1.52
O 0.68
S 1.02
Si 1.20
loop_
_atom_site_label
_atom_site_type_symbol
_atom_site_fract_x
_atom_site_fract_y
_atom_site_fract_z
Fe1 Fe 0.06046(2) 1.03949(4) 0.14362(2)
S1 S 0.18103(4) 1.19654(7) 0.20856(4)
S2 S -0.03816(4) 1.17740(6) 0.17634(4)
Si1 Si 0.15255(4) 0.88442(8) 0.10564(4)
Si2 Si -0.05648(4) 0.86872(7) 0.06884(5)
O1 O 0.11204(14) 0.8274(2) 0.29773(13)
O2 O -0.00144(16) 1.1274(3) -0.05207(13)
C1 C 0.09180(16) 0.9139(3) 0.23731(17)
C2 C 0.02401(18) 1.0968(3) 0.02665(17)
C3 C 0.08043(16) 0.7227(3) 0.03655(15)
C4 C 0.11524(18) 0.6114(3) -0.00042(16)
C5 C 0.06080(19) 0.4962(3) -0.05334(17)
C6 C -0.0293(2) 0.4912(3) -0.07037(18)
C7 C -0.06405(18) 0.5999(3) -0.03385(17)
C8 C -0.01002(17) 0.7165(3) 0.02063(16)
C9 C 0.25443(19) 0.8036(4) 0.2080(2)
C10 C 0.2037(3) 0.9709(4) 0.0326(3)
C11 C -0.1032(2) 0.7841(4) 0.1465(3)
C12 C -0.1614(2) 0.9411(4) -0.0337(3)
C13 C 0.23779(19) 1.1784(4) 0.33430(18)
C14 C 0.1467(2) 1.3892(3) 0.19878(19)
C15 C 0.0789(3) 1.4290(3) 0.2359(2)
C16 C -0.0179(2) 1.3746(3) 0.1766(2)
C17 C -0.01664(18) 1.1496(3) 0.29701(17)
H1 H 0.17670 0.61520 0.01100
H2 H 0.08490 0.42150 -0.07770
H3 H -0.06710 0.41340 -0.10700
H4 H -0.12570 0.59530 -0.04600
H5 H 0.29050 0.88370 0.24900
H6 H 0.29130 0.74840 0.18460
H7 H 0.23420 0.73690 0.24340
H8 H 0.24890 1.04430 0.07020
H9 H 0.15620 1.01930 -0.02210
H10 H 0.23260 0.89410 0.01180
H11 H -0.15580 0.72300 0.10850
H12 H -0.12120 0.86280 0.17700
H13 H -0.05680 0.72240 0.19430
H14 H -0.18060 1.03350 -0.01580
H15 H -0.20990 0.86780 -0.05150
H16 H -0.14810 0.95930 -0.08700
H17 H 0.25500 1.07500 0.35100
H18 H 0.19720 1.21000 0.36070
H19 H 0.29200 1.24050 0.35950
H20 H 0.20150 1.45010 0.23250
H21 H 0.12050 1.41750 0.13190
H22 H 0.07750 1.53800 0.24120
H23 H 0.10060 1.38770 0.29980
H24 H -0.03660 1.40600 0.11110
H25 H -0.05790 1.42570 0.19870
H26 H -0.03340 1.04840 0.30500
H27 H -0.05260 1.21990 0.31320
H28 H 0.04770 1.16530 0.33810
#END
