
#######################################################################
#
#                 Cambridge Crystallographic Data Centre
#                                CCDC
#
#######################################################################
#
# If this CIF has been generated from an entry in the Cambridge
# Structural Database, then it will include bibliographic, chemical,
# crystal, experimental, refinement or atomic coordinate data resulting
# from the CCDC's data processing and validation procedures.
#
#######################################################################

data_CSD_CIF_MIZKAH
_audit_creation_date 2002-07-11
_audit_creation_method CSD-ConQuest-V1
_database_code_CSD MIZKAH
_database_code_depnum_ccdc_archive 'CCDC 141350'
_chemical_formula_sum 'C14 H20 Fe1 N2 O4 Si1'
_chemical_formula_moiety
;
C14 H20 Fe1 N2 O4 Si1
;
_journal_coden_Cambridge 36
_journal_volume 636
_journal_year 2001
_journal_page_first 17
_journal_name_full 'J.Organomet.Chem. '
loop_
_publ_author_name
"T.A.Schmedake"
"M.Haaf"
"B.J.Paradise"
"A.J.Millevolte"
"D.R.Powell"
"R.West"
_chemical_name_systematic
;
(1,3-Di-t-butyl-2,3-dihydro-1H-1,3,2-diazasilol-2-yl)-tetracarbonyl-iron
;
_cell_volume   1759.779
_exptl_crystal_colour 'yellow'
_exptl_crystal_density_diffrn 1.375
_exptl_crystal_description 'prism'
_diffrn_ambient_temperature 113
#These two values have been output from a single CSD field.
_refine_ls_R_factor_gt 0.0367
_refine_ls_wR_factor_gt 0.0367
_symmetry_cell_setting monoclinic
_symmetry_space_group_name_H-M 'C 2/c'
_symmetry_Int_Tables_number 15
loop_
_symmetry_equiv_pos_site_id
_symmetry_equiv_pos_as_xyz
1 x,y,z
2 1/2+x,1/2+y,z
3 x,-y,1/2+z
4 1/2+x,1/2-y,1/2+z
5 -x,-y,-z
6 -1/2-x,-1/2-y,-z
7 -x,y,-1/2-z
8 -1/2-x,-1/2+y,-1/2-z
_cell_length_a 18.167(3)
_cell_length_b 9.4546(18)
_cell_length_c 12.0226(11)
_cell_angle_alpha 90
_cell_angle_beta 121.550(8)
_cell_angle_gamma 90
_cell_formula_units_Z 4
loop_
_atom_type_symbol
_atom_type_radius_bond
C 0.68
H 0.23
Fe 1.34
N 0.68
O 0.68
Si 1.20
loop_
_atom_site_label
_atom_site_type_symbol
_atom_site_fract_x
_atom_site_fract_y
_atom_site_fract_z
Fe1 Fe 0.50000 0.09040(6) 0.25000
Si1 Si 0.50000 0.32262(11) 0.25000
O1 O 0.44489(16) 0.1339(3) -0.0242(2)
O2 O 0.34860(13) -0.0833(2) 0.1845(2)
N1 N 0.43400(14) 0.4487(2) 0.2559(2)
C1 C 0.46684(18) 0.1160(3) 0.0835(3)
C2 C 0.40773(18) -0.0144(3) 0.2099(3)
C3 C 0.46456(19) 0.5832(3) 0.2537(3)
H1 H 0.43740 0.66750 0.25710
C4 C 0.35292(17) 0.4418(3) 0.2598(3)
C5 C 0.3282(2) 0.2891(3) 0.2635(5)
H2 H 0.32000 0.23880 0.18650
H3 H 0.27430 0.28670 0.26370
H4 H 0.37420 0.24320 0.34270
C6 C 0.3673(2) 0.5174(4) 0.3813(3)
H5 H 0.37940 0.61760 0.37690
H6 H 0.41650 0.47450 0.45890
H7 H 0.31540 0.50870 0.38640
C7 C 0.28023(19) 0.5097(4) 0.1372(3)
H8 H 0.27240 0.45930 0.06050
H9 H 0.29450 0.60880 0.13340
H10 H 0.22670 0.50480 0.13830
C3F C 0.53544(19) 0.5832(3) 0.2463(3)
N1F N 0.56600(14) 0.4487(2) 0.2441(2)
C4F C 0.64708(17) 0.4418(3) 0.2402(3)
C5F C 0.6718(2) 0.2891(3) 0.2365(5)
H2F H 0.68000 0.23880 0.31350
H3F H 0.72570 0.28670 0.23630
H4F H 0.62580 0.24320 0.15730
C6F C 0.6327(2) 0.5174(4) 0.1187(3)
H5F H 0.62060 0.61760 0.12310
H6F H 0.58350 0.47450 0.04110
H7F H 0.68460 0.50870 0.11360
C7F C 0.71977(19) 0.5097(4) 0.3628(3)
H8F H 0.72760 0.45930 0.43950
H9F H 0.70550 0.60880 0.36660
H10F H 0.77330 0.50480 0.36170
H1F H 0.56260 0.66750 0.24290
C1F C 0.53316(18) 0.1160(3) 0.4165(3)
O1F O 0.55511(16) 0.1339(3) 0.5242(2)
C2F C 0.59227(18) -0.0144(3) 0.2901(3)
O2F O 0.65140(13) -0.0833(2) 0.3155(2)
#END
