
#######################################################################
#
#                 Cambridge Crystallographic Data Centre
#                                CCDC
#
#######################################################################
#
# If this CIF has been generated from an entry in the Cambridge
# Structural Database, then it will include bibliographic, chemical,
# crystal, experimental, refinement or atomic coordinate data resulting
# from the CCDC's data processing and validation procedures.
#
#######################################################################

data_CSD_CIF_MOCBIN
_audit_creation_date 1981-11-16
_audit_creation_method CSD-ConQuest-V1
_database_code_CSD MOCBIN
_database_code_depnum_ccdc_archive 'CCDC 1212793'
_chemical_formula_sum 'C14 H10 Cr1 O5'
_chemical_formula_moiety
;
C14 H10 Cr1 O5
;
_journal_coeditor_code "IUCr A20093"
_journal_coden_Cambridge 107
_journal_volume 37
_journal_year 1981
_journal_page_first 1071
_journal_name_full 'Acta Crystallogr.,Sect.B:Struct.Crystallogr.Cryst.Chem. '
loop_
_publ_author_name
"R.Mercier"
"J.Vebrel"
_chemical_name_systematic
;
(\h^9^-2-Methoxycarbonylindene)-tricarbonyl-chromium
;
_cell_volume    642.781
_exptl_crystal_density_diffrn 1.61
_diffrn_ambient_temperature ?
_diffrn_special_details
;
The study was carried out at room temperature,in the range 283-303K

;
#These two values have been output from a single CSD field.
_refine_ls_R_factor_gt 0.03
_refine_ls_wR_factor_gt 0.03
_symmetry_cell_setting triclinic
_symmetry_space_group_name_H-M 'P -1'
_symmetry_Int_Tables_number 2
loop_
_symmetry_equiv_pos_site_id
_symmetry_equiv_pos_as_xyz
1 x,y,z
2 -x,-y,-z
_cell_length_a 8.244(3)
_cell_length_b 11.240(4)
_cell_length_c 7.103(2)
_cell_angle_alpha 81.17(2)
_cell_angle_beta 81.28(2)
_cell_angle_gamma 87.77(3)
_cell_formula_units_Z 2
loop_
_atom_type_symbol
_atom_type_radius_bond
C 0.68
H 0.23
Cr 1.35
O 0.68
loop_
_atom_site_label
_atom_site_type_symbol
_atom_site_fract_x
_atom_site_fract_y
_atom_site_fract_z
Cr1 Cr 0.18690 0.17800 0.07440
C1 C 0.18090 0.02680 0.21490
C2 C 0.40980 0.17320 0.05740
C3 C 0.21150 0.10940 -0.14490
O1 O 0.17500 -0.06820 0.30390
O2 O 0.55110 0.17120 0.04700
O3 O 0.22890 0.06730 -0.28520
O4 O 0.26010 0.57960 -0.58630
O5 O 0.41030 0.64360 -0.38630
C4 C 0.17960 0.37920 0.04880
C5 C 0.06940 0.34420 -0.06520
C6 C -0.05320 0.25950 0.01520
C7 C -0.06450 0.21350 0.21090
C8 C 0.04710 0.24780 0.32420
C9 C 0.17110 0.32920 0.24390
C10 C 0.29350 0.47120 -0.07420
C11 C 0.23390 0.48690 -0.26120
C12 C 0.10670 0.41280 -0.25900
C13 C 0.30040 0.57300 -0.43030
C14 C 0.47470 0.73980 -0.53790
H1 H -0.12300 0.23400 -0.06200
H2 H -0.15100 0.15500 0.27000
H3 H 0.03000 0.20900 0.44800
H4 H 0.24700 0.35700 0.31400
H5 H 0.40900 0.44900 -0.08000
H6 H 0.29200 0.54600 -0.01400
H7 H 0.04400 0.39800 -0.34800
H8 H 0.39100 0.77800 -0.58600
H9 H 0.54500 0.78800 -0.47400
H10 H 0.54500 0.70700 -0.64500
#END
