
#######################################################################
#
#                 Cambridge Crystallographic Data Centre
#                                CCDC
#
#######################################################################
#
# If this CIF has been generated from an entry in the Cambridge
# Structural Database, then it will include bibliographic, chemical,
# crystal, experimental, refinement or atomic coordinate data resulting
# from the CCDC's data processing and validation procedures.
#
#######################################################################

data_CSD_CIF_MOFRAA
_audit_creation_date 2002-08-21
_audit_creation_method CSD-ConQuest-V1
_database_code_CSD MOFRAA
_database_code_depnum_ccdc_archive 'CCDC 171226'
_chemical_formula_sum 'C32 H44 Fe1 I2 N12'
_chemical_formula_moiety
;
C32 H44 Fe1 N12 2+,2(I1 1-)
;
_journal_coden_Cambridge 1290
_journal_year 2002
_journal_page_first 1190
_journal_name_full 'Eur.J.Inorg.Chem. '
loop_
_publ_author_name
"D.L.Reger"
"C.A.Little"
"M.D.Smith"
"A.L.Rheingold"
"Kin-Chung Lam"
"T.L.Concolino"
"G.J.Long"
"R.P.Hermann"
"F.Grandjean"
_chemical_name_systematic
;
bis(tris(3,5-Dimethylpyrazolyl)methane)-iron(ii) di-iodide
;
_cell_volume    949.434
_exptl_crystal_colour 'colorless'
_exptl_crystal_density_diffrn 1.585
_exptl_special_details
;
phase transition at 206K

;
_exptl_crystal_description 'block'
_exptl_crystal_preparation 'dichloromethane/hexanes'
_diffrn_ambient_temperature 294
#These two values have been output from a single CSD field.
_refine_ls_R_factor_gt 0.0454
_refine_ls_wR_factor_gt 0.0454
_symmetry_cell_setting triclinic
_symmetry_space_group_name_H-M 'P -1'
_symmetry_Int_Tables_number 2
loop_
_symmetry_equiv_pos_site_id
_symmetry_equiv_pos_as_xyz
1 x,y,z
2 -x,-y,-z
_cell_length_a 8.8062(2)
_cell_length_b 10.5421(2)
_cell_length_c 11.3549(2)
_cell_angle_alpha 104.0769(10)
_cell_angle_beta 110.2473(10)
_cell_angle_gamma 92.6385(11)
_cell_formula_units_Z 1
loop_
_atom_type_symbol
_atom_type_radius_bond
C 0.68
H 0.23
Fe 1.34
I 1.40
N 0.68
loop_
_atom_site_label
_atom_site_type_symbol
_atom_site_fract_x
_atom_site_fract_y
_atom_site_fract_z
Fe1 Fe 0.50000 0.50000 1.00000
I1 I 0.79259(5) -0.18338(5) 0.57298(4)
N1 N 0.5473(5) 0.4672(3) 0.8217(4)
N2 N 0.5772(4) 0.3423(3) 0.7728(3)
N3 N 0.6852(5) 0.3693(4) 1.0515(4)
N4 N 0.6639(4) 0.2539(3) 0.9560(3)
N5 N 0.3283(4) 0.3188(3) 0.8951(4)
N6 N 0.3808(4) 0.2196(3) 0.8226(3)
C1 C 0.5874(6) 0.5398(4) 0.7538(5)
C2 C 0.6441(6) 0.4631(5) 0.6624(5)
H1 H 0.67980 0.49170 0.60390
C3 C 0.6367(5) 0.3382(4) 0.6763(4)
C4 C 0.5705(10) 0.6830(5) 0.7769(7)
H2 H 0.52560 0.70880 0.84370
H3 H 0.49890 0.69830 0.69760
H4 H 0.67590 0.73400 0.80440
C5 C 0.6773(7) 0.2152(5) 0.6028(5)
H5 H 0.71700 0.23490 0.53950
H6 H 0.58100 0.15040 0.55910
H7 H 0.76010 0.18100 0.66260
C6 C 0.7971(6) 0.3528(5) 1.1592(5)
C7 C 0.8448(7) 0.2280(5) 1.1339(5)
H8 H 0.92070 0.19350 1.19350
C8 C 0.7587(6) 0.1655(4) 1.0046(5)
C9 C 0.8579(9) 0.4603(7) 1.2852(6)
H9 H 0.80290 0.53540 1.27350
H10 H 0.97350 0.48530 1.31170
H11 H 0.83610 0.42900 1.35130
C10 C 0.7580(9) 0.0312(5) 0.9228(7)
H12 H 0.68350 0.01960 0.83490
H13 H 0.72390 -0.03440 0.95780
H14 H 0.86600 0.02180 0.92320
C11 C 0.1761(5) 0.2713(4) 0.8767(5)
C12 C 0.1325(6) 0.1426(5) 0.7934(5)
H15 H 0.03300 0.08880 0.76570
C13 C 0.2645(5) 0.1111(4) 0.7607(4)
C14 C 0.0766(7) 0.3534(6) 0.9395(7)
H16 H 0.14040 0.43730 0.99230
H17 H 0.04450 0.30890 0.99340
H18 H -0.01920 0.36680 0.87310
C15 C 0.2869(7) -0.0125(4) 0.6755(5)
H19 H 0.18880 -0.07500 0.64140
H20 H 0.37650 -0.04940 0.72570
H21 H 0.31000 0.00710 0.60470
C16 C 0.5462(5) 0.2366(4) 0.8255(4)
H22 H 0.566(5) 0.168(5) 0.785(4)
N1A N 0.4527(5) 0.5328(3) 1.1783(4)
N2A N 0.4228(4) 0.6577(3) 1.2272(3)
C3A C 0.3633(5) 0.6618(4) 1.3237(4)
C2A C 0.3559(6) 0.5369(5) 1.3376(5)
C1A C 0.4126(6) 0.4602(4) 1.2462(5)
C4A C 0.4295(10) 0.3170(5) 1.2231(7)
H2A H 0.47440 0.29120 1.15630
H3A H 0.50110 0.30170 1.30240
H4A H 0.32410 0.26600 1.19560
H1A H 0.32020 0.50830 1.39610
C5A C 0.3227(7) 0.7848(5) 1.3972(5)
H5A H 0.28300 0.76510 1.46050
H6A H 0.41900 0.84960 1.44090
H7A H 0.23990 0.81900 1.33740
C16A C 0.4538(5) 0.7634(4) 1.1745(4)
N4A N 0.3361(4) 0.7461(3) 1.0440(3)
N3A N 0.3148(5) 0.6307(4) 0.9485(4)
N5A N 0.6717(4) 0.6812(3) 1.1049(4)
N6A N 0.6192(4) 0.7804(3) 1.1774(3)
C13A C 0.7355(5) 0.8889(4) 1.2393(4)
C12A C 0.8675(6) 0.8574(5) 1.2066(5)
C11A C 0.8239(5) 0.7287(4) 1.1233(5)
C14A C 0.9234(7) 0.6466(6) 1.0605(7)
H16A H 0.85960 0.56270 1.00770
H17A H 0.95550 0.69110 1.00660
H18A H 1.01920 0.63320 1.12690
H15A H 0.96700 0.91120 1.23430
C15A C 0.7131(7) 1.0125(4) 1.3245(5)
H19A H 0.81120 1.07500 1.35860
H20A H 0.62350 1.04940 1.27430
H21A H 0.69000 0.99290 1.39530
H22A H 0.434(5) 0.832(5) 1.215(4)
C6A C 0.2029(6) 0.6472(5) 0.8408(5)
C7A C 0.1552(7) 0.7720(5) 0.8661(5)
H8A H 0.07930 0.80650 0.80650
C8A C 0.2413(6) 0.8345(4) 0.9954(5)
C10A C 0.2420(9) 0.9688(5) 1.0772(7)
H12A H 0.31650 0.98040 1.16510
H13A H 0.27610 1.03440 1.04220
H14A H 0.13400 0.97820 1.07680
C9A C 0.1421(9) 0.5397(7) 0.7148(6)
H9A H 0.19710 0.46460 0.72650
H10A H 0.02650 0.51470 0.68830
H11A H 0.16390 0.57100 0.64870
#END
