
#######################################################################
#
#                 Cambridge Crystallographic Data Centre
#                                CCDC
#
#######################################################################
#
# If this CIF has been generated from an entry in the Cambridge
# Structural Database, then it will include bibliographic, chemical,
# crystal, experimental, refinement or atomic coordinate data resulting
# from the CCDC's data processing and validation procedures.
#
#######################################################################

data_CSD_CIF_MOHSIL
_audit_creation_date 2002-08-21
_audit_creation_method CSD-ConQuest-V1
_database_code_CSD MOHSIL
_database_code_depnum_ccdc_archive 'CCDC 188362'
_chemical_formula_sum 'C24 H24 Mn1 N6 O10'
_chemical_formula_moiety
;
C24 H24 Mn1 N6 O10
;
_journal_coden_Cambridge 4
_journal_volume 124
_journal_year 2002
_journal_page_first 6613
_journal_name_full 'J.Am.Chem.Soc. '
loop_
_publ_author_name
"J.C.Noveron"
"Myoung Soo Lah"
"R.E.Del Sesto"
"A.M.Arif"
"J.S.Miller"
"P.J.Stang"
_chemical_name_systematic
;
trans-bis(aqua-(nitrato)-(N-(4-pyridyl)benzamide))-manganese(ii)
;
_cell_volume    637.285
_exptl_crystal_colour 'pale brown'
_exptl_crystal_density_diffrn 1.593
_exptl_crystal_description 'prism'
_diffrn_ambient_temperature 200
#These two values have been output from a single CSD field.
_refine_ls_R_factor_gt 0.0329
_refine_ls_wR_factor_gt 0.0329
_symmetry_cell_setting triclinic
_symmetry_space_group_name_H-M 'P -1'
_symmetry_Int_Tables_number 2
loop_
_symmetry_equiv_pos_site_id
_symmetry_equiv_pos_as_xyz
1 x,y,z
2 -x,-y,-z
_cell_length_a 7.4848(2)
_cell_length_b 9.1264(3)
_cell_length_c 10.0961(3)
_cell_angle_alpha 75.4420(16)
_cell_angle_beta 73.0274(14)
_cell_angle_gamma 82.5842(12)
_cell_formula_units_Z 1
loop_
_atom_type_symbol
_atom_type_radius_bond
C 0.68
H 0.23
Mn 1.35
N 0.68
O 0.68
loop_
_atom_site_label
_atom_site_type_symbol
_atom_site_fract_x
_atom_site_fract_y
_atom_site_fract_z
Mn1 Mn 0.00000 0.50000 1.00000
O1 O 0.13629(17) 0.18381(13) 0.37793(11)
O2 O 0.19863(18) 0.36629(14) 1.11124(13)
O3 O -0.17084(17) 0.31739(14) 1.16629(13)
O4 O -0.41162(19) 0.39424(14) 1.08415(13)
O5 O -0.43071(18) 0.20731(14) 1.26620(14)
N1 N 0.0789(2) 0.34892(15) 0.84562(14)
N2 N 0.2295(2) 0.04914(16) 0.57029(14)
N3 N -0.33956(19) 0.30665(14) 1.17254(13)
C1 C 0.0879(3) 0.39845(19) 0.70698(17)
C2 C 0.1343(3) 0.30760(19) 0.61035(17)
C3 C 0.1758(2) 0.15358(17) 0.65680(16)
C4 C 0.1683(3) 0.10110(19) 0.80041(18)
C5 C 0.1201(3) 0.20009(19) 0.88895(18)
C6 C 0.2084(2) 0.06728(17) 0.43679(16)
C7 C 0.2766(2) -0.06418(18) 0.36775(16)
C8 C 0.3051(3) -0.0363(2) 0.22125(18)
C9 C 0.3639(3) -0.1529(2) 0.1503(2)
C10 C 0.3956(3) -0.2984(2) 0.2244(2)
C11 C 0.3682(3) -0.3269(2) 0.3697(2)
C12 C 0.3080(3) -0.2113(2) 0.44150(19)
H1 H 0.055(3) 0.504(2) 0.677(2)
H2 H 0.142(3) 0.353(2) 0.512(2)
H3 H 0.174(3) 0.304(3) 1.190(3)
H4 H 0.317(4) 0.396(3) 1.087(3)
H5 H 0.276(3) -0.034(2) 0.608(2)
H6 H 0.192(3) -0.001(2) 0.837(2)
H7 H 0.120(3) 0.161(2) 0.985(2)
H8 H 0.281(3) 0.063(2) 0.171(2)
H9 H 0.384(3) -0.131(2) 0.048(2)
H10 H 0.436(3) -0.379(2) 0.177(2)
H11 H 0.390(3) -0.425(3) 0.423(2)
H12 H 0.287(3) -0.233(2) 0.542(2)
O2A O -0.19863(18) 0.63371(14) 0.88876(13)
H3A H -0.174(3) 0.696(3) 0.810(3)
H4A H -0.317(4) 0.604(3) 0.913(3)
O3A O 0.17084(17) 0.68261(14) 0.83371(13)
N3A N 0.33956(19) 0.69335(14) 0.82746(13)
O4A O 0.41162(19) 0.60576(14) 0.91585(13)
O5A O 0.43071(18) 0.79269(14) 0.73380(14)
N1A N -0.0789(2) 0.65108(15) 1.15438(14)
C1A C -0.0879(3) 0.60155(19) 1.29302(17)
C2A C -0.1343(3) 0.69240(19) 1.38965(17)
C3A C -0.1758(2) 0.84642(17) 1.34320(16)
N2A N -0.2295(2) 0.95086(16) 1.42971(14)
C6A C -0.2084(2) 0.93272(17) 1.56321(16)
O1A O -0.13629(17) 0.81619(13) 1.62207(11)
C7A C -0.2766(2) 1.06418(18) 1.63225(16)
C8A C -0.3051(3) 1.0363(2) 1.77875(18)
C9A C -0.3639(3) 1.1529(2) 1.8497(2)
C10A C -0.3956(3) 1.2984(2) 1.7756(2)
C11A C -0.3682(3) 1.3269(2) 1.6303(2)
C12A C -0.3080(3) 1.2113(2) 1.55850(19)
H12A H -0.287(3) 1.233(2) 1.458(2)
H11A H -0.390(3) 1.425(3) 1.577(2)
H10A H -0.436(3) 1.379(2) 1.823(2)
H9A H -0.384(3) 1.131(2) 1.952(2)
H8A H -0.281(3) 0.937(2) 1.829(2)
H5A H -0.276(3) 1.034(2) 1.392(2)
C4A C -0.1683(3) 0.89890(19) 1.19959(18)
C5A C -0.1201(3) 0.79991(19) 1.11105(18)
H7A H -0.120(3) 0.839(2) 1.015(2)
H6A H -0.192(3) 1.001(2) 1.163(2)
H2A H -0.142(3) 0.647(2) 1.488(2)
H1A H -0.055(3) 0.496(2) 1.323(2)
#END
