
#######################################################################
#
#                 Cambridge Crystallographic Data Centre
#                                CCDC
#
#######################################################################
#
# If this CIF has been generated from an entry in the Cambridge
# Structural Database, then it will include bibliographic, chemical,
# crystal, experimental, refinement or atomic coordinate data resulting
# from the CCDC's data processing and validation procedures.
#
#######################################################################

data_CSD_CIF_MONTEQ
_audit_creation_date 2014-08-11
_audit_creation_method CSD-ConQuest-V1
_database_code_CSD MONTEQ
_database_code_depnum_ccdc_archive 'CCDC 889499'
_chemical_formula_sum 'C16 H12 Cl2 Fe1 N4'
_chemical_formula_moiety
;
C16 H12 Cl2 Fe1 N4
;
_journal_coden_Cambridge 1011
_journal_volume 54
_journal_year 2013
_journal_page_first 5174
_journal_name_full 'Polymer '
loop_
_publ_author_name
"Baolin Wang"
"Jifu Bi"
"Chunyu Zhang"
"Quanquan Dai"
"Chenxi Bai"
"Xuequan Zhang"
"Yanming Hu"
"Liansheng Jiang"
_chemical_name_systematic
;
dichloro-(2-(3-methyl-1H-pyrazol-1-yl)-1,10-phenanthroline)-iron(ii)
;
_cell_volume    776.863
_exptl_crystal_colour 'red'
_exptl_crystal_density_diffrn 1.663
_exptl_crystal_description 'block'
_diffrn_ambient_temperature 293
#These two values have been output from a single CSD field.
_refine_ls_R_factor_gt 0.0371
_refine_ls_wR_factor_gt 0.0371
_symmetry_cell_setting triclinic
_symmetry_space_group_name_H-M 'P -1'
_symmetry_Int_Tables_number 2
loop_
_symmetry_equiv_pos_site_id
_symmetry_equiv_pos_as_xyz
1 x,y,z
2 -x,-y,-z
_cell_length_a 8.1214(18)
_cell_length_b 9.049(2)
_cell_length_c 10.707(2)
_cell_angle_alpha 94.414(4)
_cell_angle_beta 97.127(4)
_cell_angle_gamma 93.092(4)
_cell_formula_units_Z 2
loop_
_atom_type_symbol
_atom_type_radius_bond
C 0.68
H 0.23
Cl 0.99
Fe 1.52
N 0.68
loop_
_atom_site_label
_atom_site_type_symbol
_atom_site_fract_x
_atom_site_fract_y
_atom_site_fract_z
Fe1 Fe 0.22221(5) 0.24688(4) 0.77066(4)
Cl1 Cl 0.31831(8) 0.34210(7) 0.59333(6)
Cl2 Cl 0.18562(11) 0.41969(9) 0.92679(7)
N1 N 0.4652(3) 0.1643(2) 0.8493(2)
N2 N 0.1948(3) 0.0133(2) 0.73346(19)
N3 N -0.0402(3) 0.1861(2) 0.6834(2)
N4 N -0.0717(3) 0.0382(2) 0.6472(2)
C1 C 0.5996(4) 0.2405(3) 0.9092(3)
H1 H 0.59490 0.34220 0.92800
C2 C 0.7490(4) 0.1745(4) 0.9455(3)
H2 H 0.84090 0.23200 0.98690
C3 C 0.7582(4) 0.0254(3) 0.9198(3)
H3 H 0.85660 -0.01910 0.94320
C4 C 0.6183(3) -0.0611(3) 0.8576(2)
C5 C 0.4748(3) 0.0153(3) 0.8249(2)
C6 C 0.6143(4) -0.2173(3) 0.8262(3)
H4 H 0.70950 -0.26770 0.84670
C7 C 0.4741(4) -0.2944(3) 0.7667(3)
H5 H 0.47490 -0.39620 0.74710
C8 C 0.3256(3) -0.2203(3) 0.7339(2)
C9 C 0.3292(3) -0.0666(3) 0.7623(2)
C10 C 0.1735(4) -0.2910(3) 0.6750(3)
H6 H 0.16510 -0.39340 0.65600
C11 C 0.0390(3) -0.2109(3) 0.6456(3)
H7 H -0.06130 -0.25720 0.60670
C12 C 0.0557(3) -0.0567(3) 0.6757(2)
C13 C -0.2314(3) 0.0087(3) 0.5906(2)
H8 H -0.28120 -0.08360 0.55830
C14 C -0.3031(3) 0.1409(3) 0.5908(3)
H9 H -0.41190 0.15690 0.55870
C15 C -0.1811(3) 0.2490(3) 0.6489(3)
C16 C -0.1937(4) 0.4116(3) 0.6721(3)
H10 H -0.12390 0.44760 0.74860
H11 H -0.30690 0.43180 0.68020
H12 H -0.15850 0.46060 0.60270
#END
