
#######################################################################
#
#                 Cambridge Crystallographic Data Centre
#                                CCDC
#
#######################################################################
#
# If this CIF has been generated from an entry in the Cambridge
# Structural Database, then it will include bibliographic, chemical,
# crystal, experimental, refinement or atomic coordinate data resulting
# from the CCDC's data processing and validation procedures.
#
#######################################################################

data_CSD_CIF_MTCBFE
_audit_creation_date 1977-11-18
_audit_creation_method CSD-ConQuest-V1
_database_code_CSD MTCBFE
_chemical_formula_sum 'C9 H18 Fe1 N3 O3 S3'
_chemical_formula_moiety
;
C9 H18 Fe1 N3 O3 S3
;
_journal_coden_Cambridge 9
_journal_volume 16
_journal_year 1977
_journal_page_first 935
_journal_name_full 'Inorg.Chem. '
loop_
_publ_author_name
"J.Ahmed"
"J.A.Ibers"
_chemical_name_systematic
;
tris(N,N-Dimethylthiocarbamato)-iron(iii)
;
_cell_volume    819.094
_exptl_crystal_density_diffrn 1.507
_exptl_special_details
;
Air-sensitive

;
_diffrn_ambient_temperature ?
_diffrn_special_details
;
The study was carried out at room temperature,in the range 283-303K

;
#These two values have been output from a single CSD field.
_refine_ls_R_factor_gt 0.029
_refine_ls_wR_factor_gt 0.029
_symmetry_cell_setting triclinic
_symmetry_space_group_name_H-M 'P -1'
_symmetry_Int_Tables_number 2
loop_
_symmetry_equiv_pos_site_id
_symmetry_equiv_pos_as_xyz
1 x,y,z
2 -x,-y,-z
_cell_length_a 9.329(3)
_cell_length_b 11.571(4)
_cell_length_c 8.880(2)
_cell_angle_alpha 102.92(2)
_cell_angle_beta 116.13(2)
_cell_angle_gamma 95.17(2)
_cell_formula_units_Z 2
loop_
_atom_type_symbol
_atom_type_radius_bond
C 0.68
H 0.23
Fe 1.34
N 0.68
O 0.68
S 1.02
loop_
_atom_site_label
_atom_site_type_symbol
_atom_site_fract_x
_atom_site_fract_y
_atom_site_fract_z
Fe1 Fe -0.16315 0.21618 0.03420
S1 S 0.03070 0.13028 -0.04545
S2 S -0.40556 0.05407 -0.12337
S3 S -0.06317 0.19395 0.32553
O1 O 0.02200 0.35240 0.07080
O2 O -0.32880 0.24640 -0.19440
O3 O -0.22740 0.34290 0.18680
N1 N 0.24120 0.33580 0.02160
N2 N -0.57760 0.12960 -0.40500
N3 N -0.16550 0.37750 0.47140
C1 C 0.10510 0.28570 0.02120
C2 C -0.44220 0.15030 -0.25350
C3 C -0.16090 0.31510 0.32910
C4 C 0.29320 0.46780 0.07260
C5 C 0.33770 0.26300 -0.03610
C6 C -0.59710 0.21400 -0.50900
C7 C -0.71280 0.02420 -0.47400
C8 C -0.25060 0.47780 0.46530
C9 C -0.08790 0.35090 0.63820
H1 H 0.39600 0.49500 0.18000
H2 H 0.30700 0.49300 -0.01600
H3 H 0.21300 0.50600 0.09300
H4 H -0.50100 0.27900 -0.45200
H5 H -0.61300 0.17500 -0.62300
H6 H -0.69100 0.25000 -0.52200
H7 H -0.18700 0.54600 0.56600
H8 H -0.27000 0.50400 0.36300
H9 H -0.35500 0.45500 0.45900
H10 H 0.31500 0.18200 -0.03100
H11 H 0.30900 0.25900 -0.15500
H12 H 0.45200 0.29700 0.03600
H13 H -0.81600 0.04800 -0.49400
H14 H -0.73000 -0.02900 -0.58300
H15 H -0.69100 -0.02400 -0.39300
H16 H -0.17000 0.32400 0.67100
H17 H -0.02900 0.28600 0.63200
H18 H -0.01200 0.42000 0.73100
#END
