
#######################################################################
#
#                 Cambridge Crystallographic Data Centre
#                                CCDC
#
#######################################################################
#
# If this CIF has been generated from an entry in the Cambridge
# Structural Database, then it will include bibliographic, chemical,
# crystal, experimental, refinement or atomic coordinate data resulting
# from the CCDC's data processing and validation procedures.
#
#######################################################################

data_CSD_CIF_MUDVAI
_audit_creation_date 2002-11-27
_audit_creation_method CSD-ConQuest-V1
_database_code_CSD MUDVAI
_database_code_depnum_ccdc_archive 'CCDC 186199'
_chemical_formula_sum 'C14 H24 Cl2 Fe1 N2'
_chemical_formula_moiety
;
C14 H24 Cl2 Fe1 N2
;
_journal_coden_Cambridge 182
_journal_year 2002
_journal_page_first 1850
_journal_name_full 'Chem.Commun. '
loop_
_publ_author_name
"V.C.Gibson"
"R.K.O'Reilly"
"W.Reed"
"D.F.Wass"
"A.J.P.White"
"D.J.Williams"
_chemical_name_systematic
;
Dichloro-(N,N'-dicyclohexyl-1,2-ethanedi-imine)-iron(ii)
;
_cell_volume   1734.024
_exptl_crystal_colour 'pink/magenta dichroic'
_exptl_crystal_density_diffrn 1.33
_exptl_crystal_description 'platy needles'
_exptl_crystal_preparation 'benzene'
_diffrn_ambient_temperature 293
#These two values have been output from a single CSD field.
_refine_ls_R_factor_gt 0.0519
_refine_ls_wR_factor_gt 0.0519
_symmetry_cell_setting monoclinic
_symmetry_space_group_name_H-M 'I 2/a'
_symmetry_Int_Tables_number 15
loop_
_symmetry_equiv_pos_site_id
_symmetry_equiv_pos_as_xyz
1 x,y,z
2 1/2+x,1/2+y,1/2+z
3 1/2+x,-y,z
4 x,1/2-y,1/2+z
5 -x,-y,-z
6 -1/2-x,-1/2-y,-1/2-z
7 -1/2-x,y,-z
8 -x,-1/2+y,-1/2-z
_cell_length_a 13.028(3)
_cell_length_b 6.768(2)
_cell_length_c 20.069(5)
_cell_angle_alpha 90
_cell_angle_beta 101.501(14)
_cell_angle_gamma 90
_cell_formula_units_Z 4
loop_
_atom_type_symbol
_atom_type_radius_bond
C 0.68
H 0.23
Cl 0.99
Fe 1.34
N 0.68
loop_
_atom_site_label
_atom_site_type_symbol
_atom_site_fract_x
_atom_site_fract_y
_atom_site_fract_z
Fe1 Fe 0.75000 0.20663(14) 0.50000
Cl1 Cl 0.87457(11) 0.3713(2) 0.57087(8)
C1 C 0.7184(4) -0.1983(8) 0.5273(3)
H1 H 0.6972(4) -0.3164(8) 0.5441(3)
N1 N 0.6949(2) -0.0374(5) 0.5495(2)
C2 C 0.6355(3) -0.0344(7) 0.6052(2)
H2 H 0.5984(3) -0.1602(7) 0.6056(2)
C3 C 0.7123(3) -0.0098(9) 0.6721(3)
H3 H 0.7518(3) 0.1114(9) 0.6711(3)
H4 H 0.7614(3) -0.1192(9) 0.6784(3)
C4 C 0.6554(4) -0.0029(11) 0.7312(3)
H5 H 0.6216(4) -0.1291(11) 0.7348(3)
H6 H 0.7058(4) 0.0186(11) 0.7732(3)
C5 C 0.5736(5) 0.1599(11) 0.7225(3)
H7 H 0.6079(5) 0.2877(11) 0.7250(3)
H8 H 0.5347(5) 0.1526(11) 0.7589(3)
C6 C 0.4987(4) 0.1385(9) 0.6541(3)
H9 H 0.4501(4) 0.2488(9) 0.6477(3)
H10 H 0.4583(4) 0.0180(9) 0.6541(3)
C7 C 0.5569(4) 0.1323(9) 0.5954(3)
H11 H 0.5072(4) 0.1139(9) 0.5529(3)
H12 H 0.5928(4) 0.2569(9) 0.5929(3)
Cl1F Cl 0.62543(11) 0.3713(2) 0.42913(8)
C1F C 0.7816(4) -0.1983(8) 0.4727(3)
H1F H 0.8028(4) -0.3164(8) 0.4559(3)
N1F N 0.8051(2) -0.0374(5) 0.4505(2)
C2F C 0.8645(3) -0.0344(7) 0.3948(2)
H2F H 0.9016(3) -0.1602(7) 0.3944(2)
C3F C 0.7877(3) -0.0098(9) 0.3279(3)
H3F H 0.7482(3) 0.1114(9) 0.3289(3)
H4F H 0.7386(3) -0.1192(9) 0.3216(3)
C4F C 0.8446(4) -0.0029(11) 0.2688(3)
H5F H 0.8784(4) -0.1291(11) 0.2652(3)
H6F H 0.7942(4) 0.0186(11) 0.2268(3)
C5F C 0.9264(5) 0.1599(11) 0.2775(3)
H7F H 0.8921(5) 0.2877(11) 0.2750(3)
H8F H 0.9653(5) 0.1526(11) 0.2411(3)
C6F C 1.0013(4) 0.1385(9) 0.3459(3)
H9F H 1.0499(4) 0.2488(9) 0.3523(3)
H10F H 1.0417(4) 0.0180(9) 0.3459(3)
C7F C 0.9431(4) 0.1323(9) 0.4046(3)
H11F H 0.9928(4) 0.1139(9) 0.4471(3)
H12F H 0.9072(4) 0.2569(9) 0.4071(3)
#END
