
#######################################################################
#
#                 Cambridge Crystallographic Data Centre
#                                CCDC
#
#######################################################################
#
# If this CIF has been generated from an entry in the Cambridge
# Structural Database, then it will include bibliographic, chemical,
# crystal, experimental, refinement or atomic coordinate data resulting
# from the CCDC's data processing and validation procedures.
#
#######################################################################

data_CSD_CIF_MUFJIG
_audit_creation_date 2002-11-27
_audit_creation_method CSD-ConQuest-V1
_database_code_CSD MUFJIG
_database_code_depnum_ccdc_archive 'CCDC 193720'
_chemical_formula_sum 'C6 H18 Cr1 O6 P3 S6'
_chemical_formula_moiety
;
C6 H18 Cr1 O6 P3 S6
;
_journal_coeditor_code "IUCr OB6156"
_journal_coden_Cambridge 1370
_journal_volume 58
_journal_year 2002
_journal_page_first m449
_journal_name_full 'Acta Crystallogr.,Sect.E:Struct.Rep.Online '
loop_
_publ_author_name
"T.Ito"
_chemical_name_systematic
;
tris(O,O'-Dimethyldithiophosphato)-chromium(iii)
;
_cell_volume   2051.885
_exptl_crystal_colour 'dark violet'
_exptl_crystal_density_diffrn 1.695
_exptl_crystal_description 'plate'
_exptl_crystal_preparation 'chloroform'
_diffrn_ambient_temperature 296
#These two values have been output from a single CSD field.
_refine_ls_R_factor_gt 0.021
_refine_ls_wR_factor_gt 0.021
_symmetry_cell_setting monoclinic
_symmetry_space_group_name_H-M 'C 2/c'
_symmetry_Int_Tables_number 15
loop_
_symmetry_equiv_pos_site_id
_symmetry_equiv_pos_as_xyz
1 x,y,z
2 1/2+x,1/2+y,z
3 -x,y,1/2-z
4 1/2-x,1/2+y,1/2-z
5 -x,-y,-z
6 -1/2-x,-1/2-y,-z
7 x,-y,-1/2+z
8 -1/2+x,-1/2-y,-1/2+z
_cell_length_a 14.28(2)
_cell_length_b 11.17(2)
_cell_length_c 12.98(1)
_cell_angle_alpha 90
_cell_angle_beta 97.67(9)
_cell_angle_gamma 90
_cell_formula_units_Z 4
loop_
_atom_type_symbol
_atom_type_radius_bond
C 0.68
H 0.23
Cr 1.35
O 0.68
P 1.05
S 1.02
loop_
_atom_site_label
_atom_site_type_symbol
_atom_site_fract_x
_atom_site_fract_y
_atom_site_fract_z
Cr1 Cr 0.50000 0.16066(7) 0.25000
S1 S 0.58690(7) 0.32440(9) 0.18572(8)
S2 S 0.40605(7) 0.14144(9) 0.08087(7)
S3 S 0.38408(7) 0.01686(9) 0.29695(8)
P1 P 0.50000 0.4315(1) 0.25000
P2 P 0.32474(7) 0.0319(1) 0.15038(8)
O1 O 0.5516(2) 0.5261(2) 0.3276(2)
O2 O 0.2185(2) 0.0715(2) 0.1385(2)
O3 O 0.3069(2) -0.0917(2) 0.0936(2)
C1 C 0.6161(3) 0.4874(4) 0.4156(3)
C2 C 0.1908(3) 0.1871(4) 0.1744(3)
C3 C 0.3861(3) -0.1671(4) 0.0761(3)
H1 H 0.58470 0.43700 0.45900
H2 H 0.66660 0.44470 0.39180
H3 H 0.64040 0.55570 0.45390
H4 H 0.21070 0.19360 0.24700
H5 H 0.22030 0.24790 0.13890
H6 H 0.12410 0.19630 0.16110
H7 H 0.36260 -0.23790 0.04120
H8 H 0.42530 -0.12550 0.03440
H9 H 0.42180 -0.18770 0.14070
S1B S 0.41310(7) 0.32440(9) 0.31428(8)
S2B S 0.59395(7) 0.14144(9) 0.41913(7)
P2B P 0.67526(7) 0.0319(1) 0.34962(8)
S3B S 0.61592(7) 0.01686(9) 0.20305(8)
O2B O 0.7815(2) 0.0715(2) 0.3615(2)
C2B C 0.8092(3) 0.1871(4) 0.3256(3)
H4B H 0.78930 0.19360 0.25300
H5B H 0.77970 0.24790 0.36110
H6B H 0.87590 0.19630 0.33890
O3B O 0.6931(2) -0.0917(2) 0.4064(2)
C3B C 0.6139(3) -0.1671(4) 0.4239(3)
H7B H 0.63740 -0.23790 0.45880
H8B H 0.57470 -0.12550 0.46560
H9B H 0.57820 -0.18770 0.35930
O1B O 0.4484(2) 0.5261(2) 0.1724(2)
C1B C 0.3839(3) 0.4874(4) 0.0844(3)
H1B H 0.41530 0.43700 0.04100
H2B H 0.33340 0.44470 0.10820
H3B H 0.35960 0.55570 0.04610
#END
