
#######################################################################
#
#                 Cambridge Crystallographic Data Centre
#                                CCDC
#
#######################################################################
#
# If this CIF has been generated from an entry in the Cambridge
# Structural Database, then it will include bibliographic, chemical,
# crystal, experimental, refinement or atomic coordinate data resulting
# from the CCDC's data processing and validation procedures.
#
#######################################################################

data_CSD_CIF_MUFWIW
_audit_creation_date 2020-03-26
_audit_creation_method CSD-ConQuest-V1
_database_code_CSD MUFWIW
_database_code_depnum_ccdc_archive 'CCDC 1944386'
_chemical_formula_sum 'C7 H13 Co1 N7 O9'
_chemical_formula_moiety
;
C7 H13 Co1 N6 O6 1+,N1 O3 1-
;
_journal_coden_Cambridge 1737
_journal_volume 9
_journal_year 2019
_journal_page_first 35
_journal_name_full 'Open Journal of Inorganic Chemistry '
loop_
_publ_author_name
"T.M.Seck"
"A.Sy"
"Djiby Lo"
"Papa Aly Gaye"
"M.L.Sall"
"O.Diouf"
"Mahy Diaw"
"M.Gaye"
_chemical_name_systematic
;
diaqua-(nitrato)-(N'-((pyridin-2-yl)methylidene)hydrazinecarbohydrazide)-cobal
t nitrate
;
_cell_volume    773.137
_exptl_crystal_colour 'orange'
_exptl_crystal_density_diffrn 1.71
_exptl_crystal_description 'prism'
_diffrn_ambient_temperature 293
#These two values have been output from a single CSD field.
_refine_ls_R_factor_gt 0.0452
_refine_ls_wR_factor_gt 0.0452
_symmetry_cell_setting triclinic
_symmetry_space_group_name_H-M 'P -1'
_symmetry_Int_Tables_number 2
loop_
_symmetry_equiv_pos_site_id
_symmetry_equiv_pos_as_xyz
1 x,y,z
2 -x,-y,-z
_cell_length_a 8.4248(2)
_cell_length_b 8.7674(2)
_cell_length_c 10.6885(2)
_cell_angle_alpha 82.151(2)
_cell_angle_beta 86.273(2)
_cell_angle_gamma 81.732(2)
_cell_formula_units_Z 2
loop_
_atom_type_symbol
_atom_type_radius_bond
C 0.68
H 0.23
Co 1.26
N 0.68
O 0.68
loop_
_atom_site_label
_atom_site_type_symbol
_atom_site_fract_x
_atom_site_fract_y
_atom_site_fract_z
Co1 Co 0.42794(4) 0.31548(4) 0.82232(3)
O1 O 0.2343(3) 0.5106(2) 0.86709(19)
N1 N 0.0441(3) 0.6923(3) 0.7768(2)
H1 H -0.0001(3) 0.7365(3) 0.7084(2)
O2 O 0.5967(3) 0.4734(3) 0.7928(2)
H2 H 0.6952(3) 0.4246(3) 0.792(3)
H3 H 0.593(3) 0.527(3) 0.8567(14)
O3 O 0.2572(2) 0.1629(2) 0.8668(2)
H4 H 0.300(1) 0.0713(6) 0.856(3)
H5 H 0.184(2) 0.185(2) 0.8135(18)
O4 O 0.4405(3) 0.3190(3) 1.0279(2)
O5 O 0.5956(3) 0.1401(3) 0.9502(2)
O6 O 0.5977(3) 0.1548(3) 1.1506(2)
N2 N 0.5541(3) 0.1893(2) 0.67352(19)
N3 N 0.3212(3) 0.4200(3) 0.6517(2)
N4 N 0.1980(3) 0.5370(3) 0.6578(2)
H6 H 0.1470(3) 0.5820(3) 0.5927(2)
N5 N 0.5466(3) 0.2029(3) 1.0462(2)
C1 C 0.6749(4) 0.0742(4) 0.6853(3)
H7 H 0.7084(4) 0.0340(4) 0.7659(3)
C2 C 0.7540(4) 0.0107(4) 0.5813(3)
H8 H 0.8386(4) -0.0698(4) 0.5929(3)
C3 C 0.7059(4) 0.0680(4) 0.4631(3)
H9 H 0.7573(4) 0.0274(4) 0.3928(3)
C4 C 0.5789(4) 0.1878(4) 0.4488(3)
H10 H 0.5435(4) 0.2290(4) 0.3690(3)
C5 C 0.5062(3) 0.2447(3) 0.5563(2)
C6 C 0.3725(3) 0.3709(3) 0.5477(2)
H11 H 0.3275(3) 0.4128(3) 0.4713(2)
C7 C 0.1625(3) 0.5766(3) 0.7758(3)
N6 N -0.0077(6) 0.7410(6) 0.8977(4)
H12 H 0.0383(6) 0.6951(6) 0.9649(4)
H13 H -0.0847(6) 0.8161(6) 0.9029(4)
O7 O -0.0546(4) 0.7842(6) 0.3816(7)
O8 O 0.0605(5) 0.7060(6) 0.2199(4)
O9 O 0.1408(4) 0.6144(4) 0.3958(4)
N7 N 0.0458(3) 0.7040(3) 0.3370(3)
#END
