
#######################################################################
#
#                 Cambridge Crystallographic Data Centre
#                                CCDC
#
#######################################################################
#
# If this CIF has been generated from an entry in the Cambridge
# Structural Database, then it will include bibliographic, chemical,
# crystal, experimental, refinement or atomic coordinate data resulting
# from the CCDC's data processing and validation procedures.
#
#######################################################################

data_CSD_CIF_MUKZEY
_audit_creation_date 2010-07-07
_audit_creation_method CSD-ConQuest-V1
_database_code_CSD MUKZEY
_database_code_depnum_ccdc_archive 'CCDC 733643'
_chemical_formula_sum 'C22 H46 Cl3 Co1 N6 O4 S2'
_chemical_formula_moiety
;
C22 H38 Co1 N6 S2 3+,3(Cl1 1-),4(H2 O1)
;
_journal_coden_Cambridge 960
_journal_volume 65
_journal_year 2009
_journal_page_first 39
_journal_name_full 'J.Inclusion Phenom.Macrocyclic Chem. '
loop_
_publ_author_name
"S.Hasan"
"P.V.Bernhardt"
_chemical_name_systematic
;
(6,13-dimethyl-N,N'-bis(3-thienylmethyl)-1,4,8,11-tetraazacyclotetradecane-6,1
3-diamine)-cobalt(iii) trichloride tetrahydrate
;
_cell_volume    781.764
_exptl_crystal_colour 'orange'
_exptl_crystal_density_diffrn 1.461
_exptl_crystal_description 'prism'
_diffrn_ambient_temperature 293
#These two values have been output from a single CSD field.
_refine_ls_R_factor_gt 0.0566
_refine_ls_wR_factor_gt 0.0566
_symmetry_cell_setting triclinic
_symmetry_space_group_name_H-M 'P -1'
_symmetry_Int_Tables_number 2
loop_
_symmetry_equiv_pos_site_id
_symmetry_equiv_pos_as_xyz
1 x,y,z
2 -x,-y,-z
_cell_length_a 8.5582(6)
_cell_length_b 9.0480(5)
_cell_length_c 11.6054(6)
_cell_angle_alpha 104.073(5)
_cell_angle_beta 102.418(5)
_cell_angle_gamma 108.825(6)
_cell_formula_units_Z 1
loop_
_atom_type_symbol
_atom_type_radius_bond
C 0.68
H 0.23
Cl 0.99
Co 1.26
N 0.68
O 0.68
S 1.02
loop_
_atom_site_label
_atom_site_type_symbol
_atom_site_fract_x
_atom_site_fract_y
_atom_site_fract_z
C1 C 0.4590(6) 0.1689(5) 0.9511(5)
H1 H 0.44420 0.07070 0.88560
H2 H 0.40060 0.13350 1.00860
C2 C 0.3785(6) 0.2576(6) 0.7632(4)
H3 H 0.26230 0.18770 0.70520
H4 H 0.45750 0.20730 0.74200
C3 C 0.4348(6) 0.4307(6) 0.7515(4)
C4 C 0.3132(6) 0.5169(6) 0.7762(4)
H5 H 0.34780 0.61900 0.75720
H6 H 0.19510 0.44590 0.72210
C5 C 0.3489(6) 0.7295(6) 0.9794(5)
H7 H 0.28410 0.72990 1.03840
H8 H 0.30710 0.77860 0.92030
C6 C 0.4520(7) 0.4210(7) 0.6222(5)
H9 H 0.52920 0.36720 0.60680
H10 H 0.49820 0.53110 0.61870
H11 H 0.33960 0.35880 0.55960
C7 C 0.7580(6) 0.5037(6) 0.8479(5)
H12 H 0.72160 0.38660 0.80280
H13 H 0.83570 0.52870 0.93080
C8 C 0.8577(6) 0.6025(6) 0.7807(4)
C9 C 0.9383(7) 0.7703(6) 0.8246(5)
H14 H 0.93620 0.83720 0.89860
C10 C 0.8817(7) 0.5315(7) 0.6659(5)
H15 H 0.83380 0.41810 0.62220
C11 C 0.9866(6) 0.6515(6) 0.6243(4)
H16 H 1.01890 0.62900 0.55250
N1 N 0.3798(5) 0.2704(4) 0.8946(3)
H17 H 0.26730 0.23700 0.89420
N2 N 0.3193(4) 0.5550(4) 0.9107(3)
H18 H 0.21550 0.48730 0.91260
N3 N 0.6017(4) 0.5352(4) 0.8613(3)
H19 H 0.62580 0.64280 0.86700
S1 S 1.0431(2) 0.84424(19) 0.72938(15)
Cl1 Cl 0.97988(15) 0.21751(16) 0.85072(12)
Cl2 Cl 0.3926(4) 0.8827(4) 0.5716(3)
Co1 Co 0.50000 0.50000 1.00000
O1 O 0.9347(7) 0.1152(7) 0.5549(4)
H20 H 0.87860 0.05250 0.59450
H21 H 0.87590 0.06920 0.47220
O2 O 0.6185(7) 0.8907(6) 0.7987(5)
H22 H 0.58270 0.93690 0.74320
H23 H 0.73450 0.92130 0.81610
C1A C 0.5410(6) 0.8311(5) 1.0489(5)
H1A H 0.55580 0.92930 1.11440
H2A H 0.59940 0.86650 0.99140
C2A C 0.6215(6) 0.7424(6) 1.2368(4)
H3A H 0.73770 0.81230 1.29480
H4A H 0.54250 0.79270 1.25800
C3A C 0.5652(6) 0.5693(6) 1.2485(4)
C4A C 0.6868(6) 0.4831(6) 1.2238(4)
H5A H 0.65220 0.38100 1.24280
H6A H 0.80490 0.55410 1.27790
C5A C 0.6511(6) 0.2705(6) 1.0206(5)
H7A H 0.71590 0.27010 0.96160
H8A H 0.69290 0.22140 1.07970
C6A C 0.5480(7) 0.5790(7) 1.3778(5)
H9A H 0.47080 0.63280 1.39320
H10A H 0.50180 0.46890 1.38130
H11A H 0.66040 0.64120 1.44040
C7A C 0.2420(6) 0.4963(6) 1.1521(5)
H12A H 0.27840 0.61340 1.19720
H13A H 0.16430 0.47130 1.06920
C8A C 0.1423(6) 0.3975(6) 1.2193(4)
C9A C 0.0617(7) 0.2297(6) 1.1754(5)
H14A H 0.06380 0.16280 1.10140
C10A C 0.1183(7) 0.4685(7) 1.3341(5)
H15A H 0.16620 0.58190 1.37780
C11A C 0.0134(6) 0.3485(6) 1.3757(4)
H16A H -0.01890 0.37100 1.44750
N1A N 0.6202(5) 0.7296(4) 1.1054(3)
H17A H 0.73270 0.76300 1.10580
N2A N 0.6807(4) 0.4450(4) 1.0893(3)
H18A H 0.78450 0.51270 1.08740
N3A N 0.3983(4) 0.4648(4) 1.1387(3)
H19A H 0.37420 0.35720 1.13300
S1A S -0.0431(2) 0.15576(19) 1.27062(15)
#END
