
#######################################################################
#
#                 Cambridge Crystallographic Data Centre
#                                CCDC
#
#######################################################################
#
# If this CIF has been generated from an entry in the Cambridge
# Structural Database, then it will include bibliographic, chemical,
# crystal, experimental, refinement or atomic coordinate data resulting
# from the CCDC's data processing and validation procedures.
#
#######################################################################

data_CSD_CIF_MULWUN
_audit_creation_date 2015-06-03
_audit_creation_method CSD-ConQuest-V1
_database_code_CSD MULWUN
_database_code_depnum_ccdc_archive 'CCDC 1058439'
_chemical_formula_sum 'C17 H16 Br1 Fe1 N3 O2'
_chemical_formula_moiety
;
C17 H16 Br1 Fe1 N3 O2
;
_journal_coden_Cambridge 1220
_journal_volume 21
_journal_year 2015
_journal_page_first 9370
_journal_name_full 'Chem.-Eur.J. '
loop_
_publ_author_name
"D.Dailler"
"G.Danoun"
"B.Ourri"
"O.Baudoin"
_chemical_name_systematic
;
5-azido-4-bromocyclohex-3-en-1-yl ferrocenecarboxylate
;
_cell_volume    850.848
_exptl_crystal_colour 'orange'
_exptl_crystal_density_diffrn 1.679
_exptl_crystal_description 'plate'
_diffrn_ambient_temperature 293
#These two values have been output from a single CSD field.
_refine_ls_R_factor_gt 0.0458
_refine_ls_wR_factor_gt 0.0458
_symmetry_cell_setting triclinic
_symmetry_space_group_name_H-M 'P -1'
_symmetry_Int_Tables_number 2
loop_
_symmetry_equiv_pos_site_id
_symmetry_equiv_pos_as_xyz
1 x,y,z
2 -x,-y,-z
_cell_length_a 6.9918(2)
_cell_length_b 9.8222(5)
_cell_length_c 13.3704(7)
_cell_angle_alpha 71.394(5)
_cell_angle_beta 89.242(3)
_cell_angle_gamma 78.306(3)
_cell_formula_units_Z 2
loop_
_atom_type_symbol
_atom_type_radius_bond
C 0.68
H 0.23
Br 1.21
Fe 1.52
N 0.68
O 0.68
loop_
_atom_site_label
_atom_site_type_symbol
_atom_site_fract_x
_atom_site_fract_y
_atom_site_fract_z
Br1 Br 0.54057(7) 0.32036(5) 0.77100(3)
C1 C 0.6107(5) 0.2938(3) 0.6399(2)
C2 C 0.4869(5) 0.2615(4) 0.5831(3)
C3 C 0.5352(5) 0.2325(4) 0.4818(3)
C4 C 0.7537(4) 0.2014(3) 0.4721(2)
O1 O 0.7966(3) 0.2113(2) 0.36390(16)
C5 C 0.8035(4) 0.0899(3) 0.3360(2)
O2 O 0.7950(4) -0.0281(2) 0.39761(19)
C6 C 0.8247(4) 0.1214(3) 0.2222(2)
Fe1 Fe 0.58630(5) 0.19476(4) 0.12101(3)
C7 C 0.8144(4) 0.0195(4) 0.1668(3)
C8 C 0.8217(4) 0.0963(4) 0.0579(3)
C9 C 0.8355(4) 0.2421(4) 0.0457(3)
C10 C 0.8346(4) 0.2609(3) 0.1458(2)
C11 C 0.3531(5) 0.3434(5) 0.1401(4)
C12 C 0.3495(5) 0.3408(4) 0.0355(3)
C13 C 0.3392(5) 0.2004(5) 0.0382(3)
C14 C 0.3395(4) 0.1113(4) 0.1427(3)
C15 C 0.3460(4) 0.2024(6) 0.2071(3)
C16 C 0.8445(4) 0.3137(3) 0.4973(2)
C17 C 0.8165(4) 0.3058(3) 0.6116(2)
N1 N 0.8631(5) 0.4424(3) 0.6229(2)
N2 N 0.9472(4) 0.4267(4) 0.7069(3)
N3 N 1.0226(6) 0.4287(5) 0.7797(3)
H1 H 0.35980 0.25670 0.60690
H2 H 0.47500 0.32020 0.42280
H3 H 0.48020 0.14920 0.47790
H4 H 0.81490 0.09920 0.51900
H5 H 0.81120 -0.08810 0.19970
H6 H 0.81360 0.05570 -0.00040
H7 H 0.83550 0.32310 -0.02390
H8 H 0.84570 0.35060 0.16200
H9 H 0.36360 0.42740 0.16290
H10 H 0.35050 0.42670 -0.02840
H11 H 0.33970 0.16440 -0.02400
H12 H 0.33070 0.00570 0.16650
H13 H 0.34750 0.16770 0.28500
H14 H 0.98440 0.29620 0.48470
H15 H 0.78360 0.41190 0.45120
H16 H 0.90920 0.21800 0.65930
#END
