
#######################################################################
#
#                 Cambridge Crystallographic Data Centre
#                                CCDC
#
#######################################################################
#
# If this CIF has been generated from an entry in the Cambridge
# Structural Database, then it will include bibliographic, chemical,
# crystal, experimental, refinement or atomic coordinate data resulting
# from the CCDC's data processing and validation procedures.
#
#######################################################################

data_CSD_CIF_MURFAH
_audit_creation_date 2010-11-12
_audit_creation_method CSD-ConQuest-V1
_database_code_CSD MURFAH
_database_code_depnum_ccdc_archive 'CCDC 619415'
_chemical_formula_sum 'C12 H22 Cl3 Fe1 N6 O2'
_chemical_formula_moiety
;
C12 H18 Cl3 Fe1 N6,2(H2 O1)
;
_journal_coden_Cambridge 155
_journal_volume 363
_journal_year 2010
_journal_page_first 1805
_journal_name_full 'Inorg.Chim.Acta '
loop_
_publ_author_name
"Zhong Zhang"
"Zhi-Rong Geng"
"Xian-Wen Kan"
"Qun Zhao"
"Yi-Zhi Li"
"Zhi-Lin Wang"
_chemical_name_systematic
;
Trichloro-(1,4,7-tris(cyanomethyl)-1,4,7-triazacyclononane)-iron(iii) 
dihydrate
;
_cell_volume    971.340
_exptl_crystal_colour 'yellow'
_exptl_crystal_density_diffrn 1.52
_exptl_crystal_description 'plate'
_diffrn_ambient_temperature 293
#These two values have been output from a single CSD field.
_refine_ls_R_factor_gt 0.0652
_refine_ls_wR_factor_gt 0.0652
_symmetry_cell_setting hexagonal
_symmetry_space_group_name_H-M 'P 3 2 1'
_symmetry_Int_Tables_number 150
loop_
_symmetry_equiv_pos_site_id
_symmetry_equiv_pos_as_xyz
1 x,y,z
2 -y,x-y,z
3 -x+y,-x,z
4 y,x,-z
5 x-y,-y,-z
6 -x,-x+y,-z
_cell_length_a 10.1687(15)
_cell_length_b 10.1687(15)
_cell_length_c 10.847(2)
_cell_angle_alpha 90
_cell_angle_beta 90
_cell_angle_gamma 120
_cell_formula_units_Z 2
loop_
_atom_type_symbol
_atom_type_radius_bond
C 0.68
H 0.23
Cl 0.99
Fe 1.52
N 0.68
O 0.68
loop_
_atom_site_label
_atom_site_type_symbol
_atom_site_fract_x
_atom_site_fract_y
_atom_site_fract_z
C1 C 0.7742(10) 0.2029(7) 0.1795(6)
H1 H 0.76250 0.13830 0.10970
H2 H 0.83750 0.19060 0.24000
C2 C 0.8551(11) 0.3705(8) 0.1362(6)
H3 H 0.96050 0.40400 0.11760
H4 H 0.80710 0.37870 0.06150
C3 C 0.5640(11) 0.0048(7) 0.2970(6)
H5 H 0.46180 -0.02990 0.32680
H6 H 0.62760 0.01550 0.36720
C4 C 0.5625(11) -0.1093(8) 0.2084(7)
Cl1 Cl 0.74367(22) 0.55421(16) 0.48485(13)
Fe1 Fe 0.66670 0.33330 0.38152(13)
N1 N 0.6229(8) 0.1531(6) 0.2344(5)
N2 N 0.5658(11) -0.1960(7) 0.1422(6)
O1 O 0.00000 1.00000 0.50000
O2 O 0.00000 0.00000 0.2512(8)
H7? H 0.04980 0.08340 0.18770
H8? H 0.07800 -0.03220 0.27490
O3 O 0.00000 0.00000 1.00000
H9? H 0.02520 0.08730 0.95270
H10? H 0.01730 0.94640 0.43130
H11? H 0.02030 0.95720 0.58140
C1A C 0.7971(10) 0.5713(7) 0.1795(6)
C1B C 0.4287(10) 0.2258(7) 0.1795(6)
H1A H 0.86170 0.62420 0.10970
H1B H 0.37580 0.23750 0.10970
H2A H 0.80940 0.64690 0.24000
H2B H 0.35310 0.16250 0.24000
C2A C 0.6295(11) 0.4846(8) 0.1362(6)
C2B C 0.5154(11) 0.1449(8) 0.1362(6)
H3A H 0.59600 0.55650 0.11760
H3B H 0.44350 0.03950 0.11760
H4A H 0.62130 0.42840 0.06150
H4B H 0.57160 0.19290 0.06150
C3A C 0.9952(11) 0.5592(7) 0.2970(6)
C3B C 0.4408(11) 0.4360(7) 0.2970(6)
H5A H 1.02990 0.49170 0.32680
H5B H 0.50830 0.53820 0.32680
H6A H 0.98450 0.61210 0.36720
H6B H 0.38790 0.37240 0.36720
C4A C 1.1093(11) 0.6718(8) 0.2084(7)
C4B C 0.3282(11) 0.4375(8) 0.2084(7)
Cl1B Cl 0.81054(22) 0.25633(16) 0.48485(13)
Cl1A Cl 0.44579(22) 0.18946(16) 0.48485(13)
N1A N 0.8469(8) 0.4698(6) 0.2344(5)
N1B N 0.5302(8) 0.3771(6) 0.2344(5)
N2A N 1.1960(11) 0.7618(7) 0.1422(6)
N2B N 0.2382(11) 0.4342(7) 0.1422(6)
#END
