
#######################################################################
#
#                 Cambridge Crystallographic Data Centre
#                                CCDC
#
#######################################################################
#
# If this CIF has been generated from an entry in the Cambridge
# Structural Database, then it will include bibliographic, chemical,
# crystal, experimental, refinement or atomic coordinate data resulting
# from the CCDC's data processing and validation procedures.
#
#######################################################################

data_CSD_CIF_MYNBCO
_audit_creation_date 1975-01-07
_audit_creation_method CSD-ConQuest-V1
_database_code_CSD MYNBCO
_chemical_formula_sum 'C13 H25 Co1 N4 O2'
_chemical_formula_moiety
;
C13 H25 Co1 N4 O2
;
_journal_coden_Cambridge 186
_journal_year 1974
_journal_page_first 1628
_journal_name_full 'J.Chem.Soc.,Dalton Trans. '
loop_
_publ_author_name
"M.Calligaris"
_chemical_name_systematic
;
Dimethyl-(3,3'-(trimethylenedinitrilo)-bis(butan-2-one oximato))-cobalt(iii)
;
_cell_volume    791.169
_exptl_crystal_density_diffrn 1.379
_diffrn_ambient_temperature ?
_diffrn_special_details
;
The study was carried out at room temperature,in the range 283-303K

;
#These two values have been output from a single CSD field.
_refine_ls_R_factor_gt 0.034
_refine_ls_wR_factor_gt 0.034
_symmetry_cell_setting monoclinic
_symmetry_space_group_name_H-M 'P c'
_symmetry_Int_Tables_number 7
loop_
_symmetry_equiv_pos_site_id
_symmetry_equiv_pos_as_xyz
1 x,y,z
2 x,-y,1/2+z
_cell_length_a 7.600(8)
_cell_length_b 8.301(8)
_cell_length_c 13.675(6)
_cell_angle_alpha 90
_cell_angle_beta 113.5(3)
_cell_angle_gamma 90
_cell_formula_units_Z 2
loop_
_atom_type_symbol
_atom_type_radius_bond
C 0.68
H 0.20
Co 1.26
N 0.68
O 0.68
loop_
_atom_site_label
_atom_site_type_symbol
_atom_site_fract_x
_atom_site_fract_y
_atom_site_fract_z
Co1 Co 0.10080 0.13210 0.09900
C1 C -0.11520 0.54550 -0.08520
C2 C -0.02200 -0.14560 0.15480
C3 C -0.15470 -0.27400 0.16400
C4 C 0.12310 0.01950 -0.02890
C5 C 0.06580 0.24600 0.22260
C6 C 0.00660 0.41420 -0.01590
C7 C 0.21430 0.41470 0.03780
C8 C 0.33260 0.54920 0.02030
C9 C 0.49500 0.26890 0.15970
C10 C 0.54330 0.16570 0.25360
C11 C 0.47890 -0.00820 0.23240
C12 C 0.28410 -0.29020 0.28030
C13 C 0.18590 -0.14960 0.20890
H1 H -0.30500 0.10000 -0.00200
H2 H 0.69740 0.16640 0.29880
H3 H 0.47480 0.21810 0.30370
H4 H 0.52870 -0.05840 0.17520
H5 H 0.53920 -0.07670 0.30650
H6 H 0.17980 -0.37890 0.28000
H7 H 0.36750 -0.25010 0.36080
H8 H 0.38280 -0.34790 0.24930
H9 H -0.30440 -0.24160 0.11660
H10 H -0.12440 -0.38970 0.13930
H11 H -0.13860 -0.28360 0.24830
H12 H -0.26500 0.51640 -0.10880
H13 H 0.27240 0.01670 -0.01770
H14 H 0.04000 0.08580 -0.10100
H15 H 0.06840 -0.10200 -0.03480
H16 H -0.08610 0.26820 0.20260
H17 H 0.14140 0.36080 0.23940
H18 H 0.12230 0.17140 0.29420
H19 H -0.08140 0.56560 -0.15260
H20 H -0.08500 0.65740 -0.03640
H21 H 0.23850 0.63910 -0.03270
H22 H 0.43110 0.50430 -0.01140
H23 H 0.41460 0.60790 0.09790
H24 H 0.55660 0.21410 0.10670
H25 H 0.55890 0.38700 0.18320
N1 N -0.06680 0.28080 0.00490
N2 N 0.28400 0.28750 0.09780
N3 N 0.26910 -0.02390 0.18960
N4 N -0.08170 -0.01800 0.09510
O1 O -0.25680 0.26280 -0.03800
O2 O -0.27180 -0.00140 0.04000
#END
