
#######################################################################
#
#                 Cambridge Crystallographic Data Centre
#                                CCDC
#
#######################################################################
#
# If this CIF has been generated from an entry in the Cambridge
# Structural Database, then it will include bibliographic, chemical,
# crystal, experimental, refinement or atomic coordinate data resulting
# from the CCDC's data processing and validation procedures.
#
#######################################################################

data_CSD_CIF_NABKUZ
_audit_creation_date 2016-02-01
_audit_creation_method CSD-ConQuest-V1
_database_code_CSD NABKUZ
_database_code_depnum_ccdc_archive 'CCDC 1433064'
_chemical_formula_sum 'C14 H22 Mn1 N4 O10'
_chemical_formula_moiety
;
C14 H22 Mn1 N2 O4 2+,2(N1 O3 1-)
;
_journal_coden_Cambridge 119
_journal_volume 1126
_journal_year 2016
_journal_page_first 37
_journal_name_full 'J.Mol.Struct. '
loop_
_publ_author_name
"M.Zienkiewicz-Machnik"
"J.Masternak"
"K.Kazimierczuk"
"B.Barszcz"
_chemical_name_systematic
;
bis(2-(pyridin-2-yl)ethanol)-diaqua-manganese(ii) dinitrate
;
_chemical_name_common
;
bis(2-hydroxyethylpyridine-N,O)-diaqua-manganese(ii) dinitrate
;
_cell_volume    478.271
_exptl_crystal_colour 'colorless'
_exptl_crystal_density_diffrn 1.602
_exptl_crystal_description 'plate'
_diffrn_ambient_temperature 120
#These two values have been output from a single CSD field.
_refine_ls_R_factor_gt 0.052
_refine_ls_wR_factor_gt 0.052
_symmetry_cell_setting triclinic
_symmetry_space_group_name_H-M 'P -1'
_symmetry_Int_Tables_number 2
loop_
_symmetry_equiv_pos_site_id
_symmetry_equiv_pos_as_xyz
1 x,y,z
2 -x,-y,-z
_cell_length_a 7.7624(9)
_cell_length_b 8.2558(9)
_cell_length_c 8.9219(10)
_cell_angle_alpha 96.855(9)
_cell_angle_beta 112.759(11)
_cell_angle_gamma 109.026(10)
_cell_formula_units_Z 1
loop_
_atom_type_symbol
_atom_type_radius_bond
C 0.68
H 0.23
Mn 1.61
N 0.68
O 0.68
loop_
_atom_site_label
_atom_site_type_symbol
_atom_site_fract_x
_atom_site_fract_y
_atom_site_fract_z
C1 C 0.3219(5) 0.6263(5) 0.1808(5)
H1 H 0.34770 0.72150 0.26870
C2 C 0.2455(6) 0.6382(5) 0.0178(5)
H2 H 0.22320 0.74070 -0.00610
C3 C 0.2021(5) 0.4975(5) -0.1106(5)
H3 H 0.14890 0.50130 -0.22490
C4 C 0.2370(5) 0.3505(5) -0.0703(5)
H4 H 0.20540 0.25150 -0.15740
C5 C 0.3180(5) 0.3483(5) 0.0969(5)
C6 C 0.3628(6) 0.1916(5) 0.1431(5)
H5 H 0.51240 0.23280 0.21090
H6 H 0.32040 0.10160 0.03760
C7 C 0.2577(6) 0.1014(5) 0.2428(5)
H7 H 0.11180 0.08150 0.18830
H8 H 0.26490 -0.01620 0.24180
Mn1 Mn 0.50000 0.50000 0.50000
N1 N 0.3623(4) 0.4865(4) 0.2226(4)
O1 O 0.3544(4) 0.2103(4) 0.4142(4)
O2 O 0.2211(5) 0.5030(5) 0.5042(4)
H9 H 0.318(8) 0.157(7) 0.482(7)
H10 H 0.211(9) 0.599(8) 0.498(7)
H11 H 0.132(6) 0.426(6) 0.452(5)
N2 N 0.8263(5) 0.1012(4) 0.4044(4)
O3 O 0.8233(4) 0.1847(3) 0.5300(3)
O4 O 0.8836(4) 0.1816(3) 0.3102(3)
O5 O 0.7695(4) -0.0651(3) 0.3716(4)
C1A C 0.6781(5) 0.3737(5) 0.8192(5)
H1A H 0.65230 0.27850 0.73130
C2A C 0.7545(6) 0.3618(5) 0.9822(5)
H2A H 0.77680 0.25930 1.00610
C3A C 0.7979(5) 0.5025(5) 1.1106(5)
H3A H 0.85110 0.49870 1.22490
C4A C 0.7630(5) 0.6495(5) 1.0703(5)
H4A H 0.79460 0.74850 1.15740
C5A C 0.6820(5) 0.6517(5) 0.9031(5)
C6A C 0.6372(6) 0.8084(5) 0.8569(5)
H5A H 0.48760 0.76720 0.78910
H6A H 0.67960 0.89840 0.96240
C7A C 0.7423(6) 0.8986(5) 0.7572(5)
H7A H 0.88820 0.91850 0.81170
H8A H 0.73510 1.01620 0.75820
N1A N 0.6377(4) 0.5135(4) 0.7774(4)
O1A O 0.6456(4) 0.7897(4) 0.5858(4)
O2A O 0.7789(5) 0.4970(5) 0.4958(4)
H9A H 0.682(8) 0.843(7) 0.518(7)
H10A H 0.789(9) 0.401(8) 0.502(7)
H11A H 0.868(6) 0.574(6) 0.548(5)
#END
