
#######################################################################
#
#                 Cambridge Crystallographic Data Centre
#                                CCDC
#
#######################################################################
#
# If this CIF has been generated from an entry in the Cambridge
# Structural Database, then it will include bibliographic, chemical,
# crystal, experimental, refinement or atomic coordinate data resulting
# from the CCDC's data processing and validation procedures.
#
#######################################################################

data_CSD_CIF_NABNIP
_audit_creation_date 2011-04-19
_audit_creation_method CSD-ConQuest-V1
_database_code_CSD NABNIP
_database_code_depnum_ccdc_archive 'CCDC 768261'
_chemical_formula_sum 'C20 H22 Cl2 Co1 N18 O2'
_chemical_formula_moiety
;
C20 H22 Co1 N18 O2 2+,2(Cl1 1-)
;
_journal_coden_Cambridge 687
_journal_volume 2010
_journal_year 2010
_journal_page_first 104329
_journal_name_full 'Bioinorg.Chem.Appl. '
loop_
_publ_author_name
"G.E.Kostakis"
"C.E.Anson"
"A.K.Powell"
_chemical_name_systematic
;
bis(Acetonitrile)-diaqua-bis(1,3-bis(tetrazol-5-yl)benzene-N)-cobalt(ii) 
dichloride
;
_cell_volume    708.853
_exptl_crystal_colour 'orange'
_exptl_crystal_density_diffrn 1.584
_exptl_crystal_description 'block'
_diffrn_ambient_temperature 100
#These two values have been output from a single CSD field.
_refine_ls_R_factor_gt 0.0337
_refine_ls_wR_factor_gt 0.0337
_symmetry_cell_setting triclinic
_symmetry_space_group_name_H-M 'P -1'
_symmetry_Int_Tables_number 2
loop_
_symmetry_equiv_pos_site_id
_symmetry_equiv_pos_as_xyz
1 x,y,z
2 -x,-y,-z
_cell_length_a 8.3341(4)
_cell_length_b 8.4696(5)
_cell_length_c 11.4730(6)
_cell_angle_alpha 84.682(1)
_cell_angle_beta 73.522(1)
_cell_angle_gamma 65.938(1)
_cell_formula_units_Z 1
loop_
_atom_type_symbol
_atom_type_radius_bond
C 0.68
H 0.23
Cl 0.99
Co 1.26
N 0.68
O 0.68
loop_
_atom_site_label
_atom_site_type_symbol
_atom_site_fract_x
_atom_site_fract_y
_atom_site_fract_z
Co1 Co 0.50000 0.50000 0.50000
C1 C 0.9892(2) 0.6436(2) 0.10605(15)
C2 C 0.8678(2) 0.7881(2) 0.06196(15)
H1 H 0.746(3) 0.834(3) 0.1049(19)
C3 C 0.9307(2) 0.8584(2) -0.04759(15)
C4 C 1.1156(2) 0.7832(2) -0.11218(16)
H2 H 1.156(3) 0.831(3) -0.186(2)
C5 C 1.2349(2) 0.6394(2) -0.06785(16)
H3 H 1.359(3) 0.588(3) -0.111(2)
C6 C 1.1731(2) 0.5688(2) 0.04133(16)
H4 H 1.256(3) 0.470(3) 0.0696(18)
C7 C 0.9186(2) 0.5666(2) 0.21797(15)
N1 N 0.7445(2) 0.61804(19) 0.28040(13)
N2 N 0.7431(2) 0.5053(2) 0.37193(13)
N3 N 0.9061(2) 0.3894(2) 0.36847(14)
N4 N 1.0175(2) 0.4280(2) 0.27194(13)
H5 H 1.131(4) 0.364(3) 0.259(2)
C8 C 0.8072(2) 1.0108(2) -0.09580(15)
N5 N 0.8462(2) 1.0759(2) -0.20473(14)
N6 N 0.6923(2) 1.2177(2) -0.20812(14)
N7 N 0.5649(2) 1.2400(2) -0.10714(14)
N8 N 0.6352(2) 1.10975(19) -0.03630(14)
H6 H 0.573(3) 1.113(3) 0.042(2)
O1 O 0.61132(19) 0.4951(2) 0.63769(12)
H7 H 0.602(3) 0.575(4) 0.668(2)
H8 H 0.635(4) 0.410(4) 0.683(3)
N9 N 0.6212(2) 0.2273(2) 0.49106(14)
C9 C 0.7026(3) 0.0824(2) 0.47649(16)
C10 C 0.8092(4) -0.1033(3) 0.4563(2)
H9 H 0.90900 -0.12430 0.38170
H10 H 0.73040 -0.15930 0.44830
H11 H 0.85970 -0.15120 0.52540
Cl1 Cl 0.58027(6) 0.82114(5) 0.76749(4)
C1A C 0.0108(2) 0.3564(2) 0.89395(15)
C2A C 0.1322(2) 0.2119(2) 0.93804(15)
H1A H 0.254(3) 0.166(3) 0.8951(19)
C3A C 0.0693(2) 0.1416(2) 1.04759(15)
C4A C -0.1156(2) 0.2168(2) 1.11218(16)
H2A H -0.156(3) 0.169(3) 1.186(2)
C5A C -0.2349(2) 0.3606(2) 1.06785(16)
H3A H -0.359(3) 0.412(3) 1.111(2)
C6A C -0.1731(2) 0.4312(2) 0.95867(16)
H4A H -0.256(3) 0.530(3) 0.9304(18)
C7A C 0.0814(2) 0.4334(2) 0.78203(15)
N1A N 0.2555(2) 0.38196(19) 0.71960(13)
N2A N 0.2569(2) 0.4947(2) 0.62807(13)
N3A N 0.0939(2) 0.6106(2) 0.63153(14)
N4A N -0.0175(2) 0.5720(2) 0.72806(13)
H5A H -0.131(4) 0.636(3) 0.741(2)
C8A C 0.1928(2) -0.0108(2) 1.09580(15)
N5A N 0.1538(2) -0.0759(2) 1.20473(14)
N6A N 0.3077(2) -0.2177(2) 1.20812(14)
N7A N 0.4351(2) -0.2400(2) 1.10714(14)
N8A N 0.3648(2) -0.10975(19) 1.03630(14)
H6A H 0.427(3) -0.113(3) 0.958(2)
O1A O 0.38868(19) 0.5049(2) 0.36231(12)
H7A H 0.398(3) 0.425(4) 0.332(2)
H8A H 0.365(4) 0.590(4) 0.317(3)
N9A N 0.3788(2) 0.7727(2) 0.50894(14)
C9A C 0.2974(3) 0.9176(2) 0.52351(16)
C10A C 0.1908(4) 1.1033(3) 0.5437(2)
H9A H 0.09100 1.12430 0.61830
H10A H 0.26960 1.15930 0.55170
H11A H 0.14030 1.15120 0.47460
#END
