
#######################################################################
#
#                 Cambridge Crystallographic Data Centre
#                                CCDC
#
#######################################################################
#
# If this CIF has been generated from an entry in the Cambridge
# Structural Database, then it will include bibliographic, chemical,
# crystal, experimental, refinement or atomic coordinate data resulting
# from the CCDC's data processing and validation procedures.
#
#######################################################################

data_CSD_CIF_NACNUB
_audit_creation_date 2004-11-24
_audit_creation_method CSD-ConQuest-V1
_database_code_CSD NACNUB
_database_code_depnum_ccdc_archive 'CCDC 237629'
_chemical_formula_sum 'C14 H26 Mn1 N2 O12'
_chemical_formula_moiety
;
(C10 H16 Mn1 N2 O4 2+)n,n(C4 H2 O4 2-),4n(H2 O1)
;
_journal_coden_Cambridge 211
_journal_volume 57
_journal_year 2004
_journal_page_first 459
_journal_name_full 'J.Coord.Chem. '
loop_
_publ_author_name
"Er-Bo Ying"
"Yue-Qing Zheng"
"Hong-Jie Zhang"
_chemical_name_systematic
;
catena-((\m~2~-4,4'-Bipyridine)-tetraaqua-manganese(ii) fumarate tetrahydrate)
;
_cell_volume    520.152
_exptl_crystal_colour 'yellow'
_exptl_crystal_density_diffrn 1.498
_exptl_special_details
;
isostructural with the manganese-succinate and zinc-succinate analogues

;
_exptl_crystal_description 'block'
_diffrn_ambient_temperature 293
#These two values have been output from a single CSD field.
_refine_ls_R_factor_gt 0.0296
_refine_ls_wR_factor_gt 0.0296
_symmetry_cell_setting triclinic
_symmetry_space_group_name_H-M 'P -1'
_symmetry_Int_Tables_number 2
loop_
_symmetry_equiv_pos_site_id
_symmetry_equiv_pos_as_xyz
1 x,y,z
2 -x,-y,-z
_cell_length_a 7.1270(14)
_cell_length_b 7.8000(16)
_cell_length_c 9.945(2)
_cell_angle_alpha 80.26(3)
_cell_angle_beta 87.86(3)
_cell_angle_gamma 72.69(3)
_cell_formula_units_Z 1
loop_
_atom_type_symbol
_atom_type_radius_bond
C 0.68
H 0.23
Mn 1.35
N 0.68
O 0.68
loop_
_atom_site_label
_atom_site_type_symbol
_atom_site_fract_x
_atom_site_fract_y
_atom_site_fract_z
Mn1 Mn 0.00000 0.00000 0.00000
N1 N -0.0258(2) 0.19538(17) -0.19702(12)
C1 C -0.0821(3) 0.3751(2) -0.20042(16)
C2 C -0.0734(3) 0.4978(2) -0.31587(16)
C3 C -0.0048(2) 0.43561(19) -0.43663(14)
C4 C 0.0519(3) 0.2497(2) -0.43270(16)
C5 C 0.0401(3) 0.1356(2) -0.31258(16)
O1 O -0.27379(19) 0.16631(18) 0.06429(13)
O2 O -0.16943(19) -0.15042(17) -0.08996(13)
O3 O -0.3563(2) 0.39339(17) 0.23872(12)
O4 O -0.3969(2) 0.19570(16) 0.41712(12)
C6 C -0.4007(2) 0.3513(2) 0.36073(15)
C7 C -0.4622(3) 0.5049(2) 0.44017(16)
O5 O -0.4099(2) 0.7422(2) 0.11253(13)
O6 O -0.5763(2) -0.02066(19) 0.31246(14)
H1 H -0.124(3) 0.414(3) -0.117(2)
H2 H -0.108(3) 0.622(3) -0.313(2)
H3 H 0.097(4) 0.197(3) -0.510(2)
H4 H 0.079(3) 0.014(3) -0.311(2)
H5 H -0.301(4) 0.240(3) 0.123(3)
H6 H -0.367(4) 0.197(3) 0.014(3)
H7 H -0.240(4) -0.094(3) -0.155(3)
H8 H -0.236(3) -0.189(3) -0.031(2)
H9 H -0.445(4) 0.812(4) 0.170(3)
H10 H -0.387(4) 0.641(4) 0.149(2)
H11 H -0.599(4) -0.077(4) 0.382(3)
H12 H -0.517(4) 0.055(4) 0.335(3)
H13 H -0.446(3) 0.615(3) 0.396(2)
C3A C 0.0048(2) 0.56439(19) -0.56337(14)
C2A C 0.0734(3) 0.5022(2) -0.68413(16)
C1A C 0.0821(3) 0.6249(2) -0.79958(16)
N1A N 0.0258(2) 0.80462(17) -0.80298(12)
Mn1A Mn 0.00000 1.00000 -1.00000
C5A C -0.0401(3) 0.8644(2) -0.68742(16)
C4A C -0.0519(3) 0.7503(2) -0.56730(16)
H3A H -0.097(4) 0.803(3) -0.490(2)
H4A H -0.079(3) 0.986(3) -0.689(2)
H1A H 0.124(3) 0.586(3) -0.883(2)
H2A H 0.108(3) 0.378(3) -0.687(2)
N1A* N 0.0258(2) -0.19538(17) 0.19702(12)
O1A O 0.27379(19) -0.16631(18) -0.06429(13)
O2A O 0.16943(19) 0.15042(17) 0.08996(13)
C7A C -0.5378(3) 0.4951(2) 0.55983(16)
C6A C -0.5993(2) 0.6487(2) 0.63927(15)
O3A O -0.6437(2) 0.60661(17) 0.76128(12)
O4A O -0.6031(2) 0.80430(16) 0.58288(12)
H13A H -0.554(3) 0.385(3) 0.604(2)
H5A H 0.301(4) -0.240(3) -0.123(3)
H6A H 0.367(4) -0.197(3) -0.014(3)
H7A H 0.240(4) 0.094(3) 0.155(3)
H8A H 0.236(3) 0.189(3) 0.031(2)
#END
