
#######################################################################
#
#                 Cambridge Crystallographic Data Centre
#                                CCDC
#
#######################################################################
#
# If this CIF has been generated from an entry in the Cambridge
# Structural Database, then it will include bibliographic, chemical,
# crystal, experimental, refinement or atomic coordinate data resulting
# from the CCDC's data processing and validation procedures.
#
#######################################################################

data_CSD_CIF_NACNOV01
_audit_creation_date 2008-03-13
_audit_creation_method CSD-ConQuest-V1
_database_code_CSD NACNOV01
_database_code_depnum_ccdc_archive 'CCDC 630682'
_chemical_formula_sum 'C14 H28 Mn1 N2 O12'
_chemical_formula_moiety
;
(C10 H16 Mn1 N2 O4 2+)n,n(C4 H4 O4 2-),4n(H2 O1)
;
_journal_coden_Cambridge 208
_journal_volume 180
_journal_year 2007
_journal_page_first 3136
_journal_name_full 'J.Solid State Chem. '
loop_
_publ_author_name
"Xinxin Xu"
"Ying Ma"
"Enbo Wang"
_chemical_name_systematic
;
catena-((\m~2~-4,4'-bipyridine)-tetra-aqua-manganese(ii) succinate 
tetrahydrate)
;
_cell_volume    530.109
_exptl_crystal_colour 'yellow'
_exptl_crystal_density_diffrn 1.476
_exptl_crystal_description 'block'
_diffrn_ambient_temperature 293
#These two values have been output from a single CSD field.
_refine_ls_R_factor_gt 0.0461
_refine_ls_wR_factor_gt 0.0461
_symmetry_cell_setting triclinic
_symmetry_space_group_name_H-M 'P -1'
_symmetry_Int_Tables_number 2
loop_
_symmetry_equiv_pos_site_id
_symmetry_equiv_pos_as_xyz
1 x,y,z
2 -x,-y,-z
_cell_length_a 7.1428(14)
_cell_length_b 7.9415(16)
_cell_length_c 9.960(2)
_cell_angle_alpha 79.61(3)
_cell_angle_beta 86.83(3)
_cell_angle_gamma 72.54(3)
_cell_formula_units_Z 1
loop_
_atom_type_symbol
_atom_type_radius_bond
C 0.68
H 0.23
Mn 1.35
N 0.68
O 0.68
loop_
_atom_site_label
_atom_site_type_symbol
_atom_site_fract_x
_atom_site_fract_y
_atom_site_fract_z
Mn1 Mn 0.00000 0.00000 0.00000
O1 O 0.1568(4) 0.1469(3) 0.0915(3)
O2 O -0.5996(4) 0.8024(3) 0.5851(3)
O3 O 0.2689(4) -0.1538(3) -0.0652(2)
O4 O -0.6461(5) 0.6055(4) 0.7674(3)
N1 N -0.0248(4) 0.1897(3) -0.1908(3)
C1 C -0.5996(5) 0.6467(4) 0.6431(3)
C2 C -0.0050(4) 0.4348(4) -0.4357(3)
C3 C -0.5372(5) 0.4939(4) 0.5621(3)
H1 H -0.44190 0.39690 0.61820
H2 H -0.65160 0.45350 0.55740
C4 C -0.0715(5) 0.4944(4) -0.3099(4)
H3 H -0.10920 0.61610 -0.30600
C5 C 0.0401(5) 0.1332(4) -0.3108(3)
H4 H 0.07820 0.01080 -0.31220
O5 O -0.5893(4) 0.2545(4) -0.1093(3)
O6 O -0.4200(4) 0.0217(4) -0.3119(3)
C6 C 0.0523(5) 0.2491(5) -0.4319(4)
H5 H 0.09890 0.20280 -0.51070
C7 C -0.0802(6) 0.3715(4) -0.1933(3)
H6 H -0.12570 0.41430 -0.11300
H7 H 0.361(4) -0.189(5) -0.013(4)
H8 H 0.227(5) 0.191(5) 0.040(3)
H9 H 0.229(5) 0.081(4) 0.152(3)
H10 H 0.301(6) -0.225(4) -0.118(3)
H11 H -0.5344(19) 0.069(5) -0.304(4)
H12 H -0.386(6) 0.067(5) -0.384(2)
H13 H -0.620(6) 0.358(2) -0.149(4)
H14 H -0.528(5) 0.193(5) -0.162(3)
Mn1* Mn 0.00000 1.00000 -1.00000
O1A O -0.1568(4) -0.1469(3) -0.0915(3)
O2A O -0.4004(4) 0.1976(3) 0.4149(3)
O3A O -0.2689(4) 0.1538(3) 0.0652(2)
O4A O -0.3539(5) 0.3945(4) 0.2326(3)
N1A N 0.0248(4) 0.8103(3) -0.8092(3)
N1A* N 0.0248(4) -0.1897(3) 0.1908(3)
C1A C -0.4004(5) 0.3533(4) 0.3569(3)
C2A C 0.0050(4) 0.5652(4) -0.5643(3)
C3A C -0.4628(5) 0.5061(4) 0.4379(3)
H1A H -0.55810 0.60310 0.38180
H2A H -0.34840 0.54650 0.44260
C4A C 0.0715(5) 0.5056(4) -0.6901(4)
H3A H 0.10920 0.38390 -0.69400
C5A C -0.0401(5) 0.8668(4) -0.6892(3)
H4A H -0.07820 0.98920 -0.68780
C6A C -0.0523(5) 0.7509(5) -0.5681(4)
H5A H -0.09890 0.79720 -0.48930
C7A C 0.0802(6) 0.6285(4) -0.8067(3)
H6A H 0.12570 0.58570 -0.88700
H7A H -0.361(4) 0.189(5) 0.013(4)
H8A H -0.227(5) -0.191(5) -0.040(3)
H9A H -0.229(5) -0.081(4) -0.152(3)
H10A H -0.301(6) 0.225(4) 0.118(3)
#END
