
#######################################################################
#
#                 Cambridge Crystallographic Data Centre
#                                CCDC
#
#######################################################################
#
# If this CIF has been generated from an entry in the Cambridge
# Structural Database, then it will include bibliographic, chemical,
# crystal, experimental, refinement or atomic coordinate data resulting
# from the CCDC's data processing and validation procedures.
#
#######################################################################

data_CSD_CIF_NADVEU
_audit_creation_date 2004-11-24
_audit_creation_method CSD-ConQuest-V1
_database_code_CSD NADVEU
_database_code_depnum_ccdc_archive 'CCDC 186179'
_chemical_formula_sum 'C20 H46 Cl8 Co2 N10 O2 Zn1'
_chemical_formula_moiety
;
2(C10 H21 Cl1 Co1 N5 2+),Cl4 Zn1 2-,2(Cl1 1-),2(H2 O1)
;
_journal_coden_Cambridge 119
_journal_volume 703
_journal_year 2004
_journal_page_first 83
_journal_name_full 'J.Mol.Struct. '
loop_
_publ_author_name
"Tao Zhu"
"Zhu Qian-jiang"
"Xie Sai-feng"
"W.G.Jackson"
"Zhou Zhong-Yuan"
"Zhou Xiang-Ge"
_chemical_name_systematic
;
bis(fac-trans(Cl)-cis(N*)-(Diethylenetriamine)-(2-aminomethylpyridyl)-chloro-c
obalt(iii)) dichloride tetrachloro-zinc(ii) dihydrate
;
_cell_volume    909.595
_exptl_crystal_colour 'red'
_exptl_crystal_density_diffrn 1.69
_exptl_crystal_description 'prism'
_diffrn_ambient_temperature 294
#These two values have been output from a single CSD field.
_refine_ls_R_factor_gt 0.0461
_refine_ls_wR_factor_gt 0.0461
_symmetry_cell_setting triclinic
_symmetry_space_group_name_H-M 'P 1'
_symmetry_Int_Tables_number 1
loop_
_symmetry_equiv_pos_site_id
_symmetry_equiv_pos_as_xyz
1 x,y,z
_cell_length_a 7.7225(18)
_cell_length_b 8.359(2)
_cell_length_c 15.898(4)
_cell_angle_alpha 96.025(4)
_cell_angle_beta 93.289(5)
_cell_angle_gamma 116.191(4)
_cell_formula_units_Z 1
loop_
_atom_type_symbol
_atom_type_radius_bond
C 0.68
H 0.23
Cl 0.99
Co 1.33
N 0.68
O 0.68
Zn 1.45
loop_
_atom_site_label
_atom_site_type_symbol
_atom_site_fract_x
_atom_site_fract_y
_atom_site_fract_z
Co1 Co 0.41410(4) 1.44418(4) 0.52332(3)
Cl1 Cl 0.11685(11) 1.30390(12) 0.44851(6)
N1 N 0.4751(4) 1.6478(4) 0.4615(2)
H1 H 0.45590 1.60860 0.40520
H2 H 0.39370 1.69600 0.47260
N2 N 0.6826(4) 1.5734(4) 0.5769(2)
H3 H 0.68300 1.56310 0.63330
N3 N 0.5130(4) 1.3328(4) 0.43750(19)
H4 H 0.46960 1.21550 0.44250
H5 H 0.46740 1.33980 0.38530
N4 N 0.3489(4) 1.2406(4) 0.58626(19)
H6 H 0.30520 1.13760 0.54960
H7 H 0.45560 1.25410 0.61840
N5 N 0.3180(4) 1.5391(4) 0.61854(18)
C1 C 0.6800(6) 1.7901(6) 0.4849(3)
H8 H 0.68410 1.90830 0.48940
H9 H 0.75900 1.78160 0.44100
C2 C 0.7593(5) 1.7655(5) 0.5686(3)
H10 H 0.90000 1.81960 0.57260
H11 H 0.72410 1.82630 0.61490
C3 C 0.7994(5) 1.4860(5) 0.5387(3)
H12 H 0.93580 1.57210 0.54610
H13 H 0.78490 1.38490 0.56750
C4 C 0.7311(6) 1.4225(6) 0.4464(3)
H14 H 0.77810 1.33780 0.42480
H15 H 0.77870 1.52340 0.41450
C5 C 0.1966(5) 1.2312(5) 0.6416(3)
H16 H 0.06870 1.16080 0.61010
H17 H 0.20530 1.17370 0.69050
C6 C 0.2270(4) 1.4180(5) 0.6703(2)
C7 C 0.1638(5) 1.4644(5) 0.7440(2)
H18 H 0.10770 1.37940 0.78010
C8 C 0.1837(5) 1.6373(5) 0.7644(3)
H19 H 0.13920 1.67030 0.81320
C9 C 0.2728(5) 1.7594(5) 0.7091(2)
H20 H 0.28810 1.87670 0.71990
C10 C 0.3383(5) 1.7052(5) 0.6379(2)
H21 H 0.39950 1.78890 0.60180
Co2 Co 0.24892(5) -0.09268(4) 1.19144(3)
Cl2 Cl 0.54553(11) 0.04897(12) 1.26507(6)
N6 N 0.1847(4) -0.2946(4) 1.2554(2)
H22 H 0.26000 -0.34860 1.24250
H23 H 0.21130 -0.25240 1.31140
N7 N -0.0224(4) -0.2206(4) 1.1387(2)
H24 H -0.02360 -0.21580 1.08180
N8 N 0.1533(4) 0.0241(4) 1.27679(19)
H25 H 0.18960 0.00890 1.32900
H26 H 0.20740 0.14310 1.27420
N9 N 0.3144(4) 0.1057(4) 1.1251(2)
H27 H 0.20780 0.09020 1.09230
H28 H 0.35790 0.21040 1.16040
N10 N 0.3433(4) -0.1949(4) 1.09789(18)
C11 C -0.0196(6) -0.4279(6) 1.2372(3)
H29 H -0.09290 -0.40700 1.28090
H30 H -0.03050 -0.54810 1.23720
C12 C -0.1008(6) -0.4134(6) 1.1515(3)
H31 H -0.06630 -0.47900 1.10700
H32 H -0.24140 -0.46700 1.14790
C13 C -0.1338(5) -0.1286(6) 1.1738(3)
H33 H -0.12220 -0.03380 1.14080
H34 H -0.27010 -0.21420 1.16920
C14 C -0.0617(5) -0.0507(7) 1.2636(3)
H35 H -0.11960 -0.14300 1.29960
H36 H -0.09890 0.04410 1.27930
C15 C 0.4646(6) 0.1120(5) 1.0715(3)
H37 H 0.59220 0.18600 1.10260
H38 H 0.45420 0.16500 1.02120
C16 C 0.4391(5) -0.0752(5) 1.0459(2)
C17 C 0.5126(5) -0.1214(5) 0.9745(2)
H39 H 0.57860 -0.03630 0.93970
C18 C 0.4848(6) -0.2963(5) 0.9566(2)
H40 H 0.53200 -0.33090 0.90910
C19 C 0.3859(5) -0.4219(5) 1.0097(2)
H41 H 0.36480 -0.54100 0.99820
C20 C 0.3207(5) -0.3631(5) 1.0798(2)
H42 H 0.25780 -0.44490 1.11640
Zn1 Zn 0.64553(6) 1.31873(7) 0.81500(3)
Cl3 Cl 0.67838(14) 1.16180(14) 0.69657(7)
Cl4 Cl 0.34304(17) 1.17447(19) 0.85380(8)
Cl5 Cl 0.70030(14) 1.59395(14) 0.77893(7)
Cl6 Cl 0.8609(2) 1.3744(2) 0.92893(9)
Cl7 Cl 0.44220(13) 0.47576(11) 0.25880(6)
Cl8 Cl 0.21397(13) 0.87457(11) 0.45324(6)
O1 O 0.0217(9) 0.1555(9) 1.0178(5)
O2 O 0.0071(7) -0.1726(9) 0.9543(3)
#END
