
#######################################################################
#
#                 Cambridge Crystallographic Data Centre
#                                CCDC
#
#######################################################################
#
# If this CIF has been generated from an entry in the Cambridge
# Structural Database, then it will include bibliographic, chemical,
# crystal, experimental, refinement or atomic coordinate data resulting
# from the CCDC's data processing and validation procedures.
#
#######################################################################

data_CSD_CIF_NADVAQ
_audit_creation_date 2004-11-24
_audit_creation_method CSD-ConQuest-V1
_database_code_CSD NADVAQ
_database_code_depnum_ccdc_archive 'CCDC 186178'
_chemical_formula_sum 'C10 H21 Cl5 Co1 N5 Zn1'
_chemical_formula_moiety
;
C10 H21 Cl1 Co1 N5 2+,Cl4 Zn1 2-
;
_journal_coden_Cambridge 119
_journal_volume 703
_journal_year 2004
_journal_page_first 83
_journal_name_full 'J.Mol.Struct. '
loop_
_publ_author_name
"Tao Zhu"
"Zhu Qian-jiang"
"Xie Sai-feng"
"W.G.Jackson"
"Zhou Zhong-Yuan"
"Zhou Xiang-Ge"
_chemical_name_systematic
;
fac-cis(Cl)-cis(N*)-(Diethylenetriamine)-(2-aminomethylpyridyl)-chloro-cobalt(
iii) tetrachloro-zinc(ii)
;
_cell_volume    928.863
_exptl_crystal_colour 'red'
_exptl_crystal_density_diffrn 1.834
_exptl_crystal_description 'prism'
_diffrn_ambient_temperature 294
#These two values have been output from a single CSD field.
_refine_ls_R_factor_gt 0.0342
_refine_ls_wR_factor_gt 0.0342
loop_
_citation_database_id_CSD
_citation_special_details
NADTIW "is a stereoisomer of this entry"
NADTOC "is a stereoisomer of this entry"
_symmetry_cell_setting triclinic
_symmetry_space_group_name_H-M 'P -1'
_symmetry_Int_Tables_number 2
loop_
_symmetry_equiv_pos_site_id
_symmetry_equiv_pos_as_xyz
1 x,y,z
2 -x,-y,-z
_cell_length_a 7.5832(19)
_cell_length_b 10.307(3)
_cell_length_c 12.710(3)
_cell_angle_alpha 99.106(5)
_cell_angle_beta 107.020(4)
_cell_angle_gamma 94.857(5)
_cell_formula_units_Z 2
loop_
_atom_type_symbol
_atom_type_radius_bond
C 0.68
H 0.23
Cl 0.99
Co 1.33
N 0.68
Zn 1.45
loop_
_atom_site_label
_atom_site_type_symbol
_atom_site_fract_x
_atom_site_fract_y
_atom_site_fract_z
Co1 Co 0.810579(19) 0.794477(14) 0.769017(11)
Cl1 Cl 1.10490(4) 0.85036(3) 0.88668(2)
N1 N 0.86028(14) 0.9257(1) 0.68257(8)
H1 H 0.829(3) 0.8991(18) 0.6175(15)
H2 H 0.986(2) 0.9531(17) 0.7126(14)
N2 N 0.72960(13) 0.93773(10) 0.85785(8)
H3 H 0.7888(18) 0.9486(13) 0.9254(10)
N3 N 0.54436(14) 0.75384(10) 0.68097(8)
H4 H 0.522(2) 0.7538(17) 0.6068(15)
H5 H 0.505(2) 0.6683(15) 0.6891(13)
N4 N 0.77714(13) 0.65095(9) 0.84857(8)
N5 N 0.88013(15) 0.65467(10) 0.67231(8)
H6 H 0.862(2) 0.6639(17) 0.6009(14)
H7 H 0.999(3) 0.6577(18) 0.7009(16)
C1 C 0.76139(19) 1.04050(12) 0.70020(11)
H8 H 0.810(3) 1.1127(18) 0.6849(15)
H9 H 0.640(2) 1.0129(16) 0.6530(14)
C2 C 0.77009(19) 1.06506(12) 0.82161(12)
H10 H 0.880(2) 1.0992(15) 0.8648(12)
H11 H 0.683(3) 1.1183(18) 0.8336(15)
C3 C 0.52951(16) 0.90181(13) 0.84473(11)
H12 H 0.5210(19) 0.8417(14) 0.8894(11)
H13 H 0.4869(19) 0.9719(14) 0.8709(11)
C4 C 0.42884(17) 0.84698(13) 0.72317(11)
H14 H 0.411(2) 0.9207(16) 0.6823(13)
H15 H 0.320(2) 0.8036(16) 0.7189(14)
C5 C 0.76825(18) 0.66202(13) 0.9531(1)
H16 H 0.775(2) 0.7391(14) 0.9885(12)
C6 C 0.7476(2) 0.55380(15) 1.00163(11)
H17 H 0.744(2) 0.5654(17) 1.0635(14)
C7 C 0.7408(2) 0.42955(14) 0.94192(13)
H18 H 0.726(3) 0.3505(19) 0.9715(15)
C8 C 0.7537(2) 0.41700(13) 0.83506(13)
H19 H 0.750(2) 0.3399(17) 0.7936(14)
C9 C 0.77057(17) 0.52913(12) 0.78982(10)
C10 C 0.78170(19) 0.52504(12) 0.67324(11)
H20 H 0.837(2) 0.4534(16) 0.6489(14)
H21 H 0.6546(19) 0.5109(14) 0.6139(11)
Zn1 Zn 0.22514(2) 0.288856(14) 0.654905(11)
Cl2 Cl -0.05238(5) 0.23549(4) 0.51907(3)
Cl3 Cl 0.25120(5) 0.16779(3) 0.79005(3)
Cl4 Cl 0.27701(5) 0.51157(3) 0.72590(3)
Cl5 Cl 0.44240(5) 0.23967(4) 0.56757(3)
#END
