
#######################################################################
#
#                 Cambridge Crystallographic Data Centre
#                                CCDC
#
#######################################################################
#
# If this CIF has been generated from an entry in the Cambridge
# Structural Database, then it will include bibliographic, chemical,
# crystal, experimental, refinement or atomic coordinate data resulting
# from the CCDC's data processing and validation procedures.
#
#######################################################################

data_CSD_CIF_NADVAQ01
_audit_creation_date 2004-11-24
_audit_creation_method CSD-ConQuest-V1
_database_code_CSD NADVAQ01
_database_code_depnum_ccdc_archive 'CCDC 186177'
_chemical_formula_sum 'C10 H21 Cl5 Co1 N5 Zn1'
_chemical_formula_moiety
;
C10 H21 Cl1 Co1 N5 2+,Cl4 Zn1 2-
;
_journal_coden_Cambridge 119
_journal_volume 703
_journal_year 2004
_journal_page_first 83
_journal_name_full 'J.Mol.Struct. '
loop_
_publ_author_name
"Tao Zhu"
"Zhu Qian-jiang"
"Xie Sai-feng"
"W.G.Jackson"
"Zhou Zhong-Yuan"
"Zhou Xiang-Ge"
_chemical_name_systematic
;
fac-cis(Cl)-cis(N*)-(Diethylenetriamine)-(2-aminomethylpyridine)-chloro-cobalt
(iii) tetrachloro-zinc(ii)
;
_cell_volume    928.994
_exptl_crystal_colour 'red'
_exptl_crystal_density_diffrn 1.833
_exptl_crystal_description 'prismatic'
_diffrn_ambient_temperature 293.15
#These two values have been output from a single CSD field.
_refine_ls_R_factor_gt 0.028
_refine_ls_wR_factor_gt 0.028
loop_
_citation_database_id_CSD
_citation_special_details
NADTIW "is a stereoisomer of this entry"
NADTOC "is a stereoisomer of this entry"
_symmetry_cell_setting triclinic
_symmetry_space_group_name_H-M 'P -1'
_symmetry_Int_Tables_number 2
loop_
_symmetry_equiv_pos_site_id
_symmetry_equiv_pos_as_xyz
1 x,y,z
2 -x,-y,-z
_cell_length_a 10.318(1)
_cell_length_b 12.706(3)
_cell_length_c 7.578(1)
_cell_angle_alpha 107.01(2)
_cell_angle_beta 94.90(1)
_cell_angle_gamma 99.07(1)
_cell_formula_units_Z 2
loop_
_atom_type_symbol
_atom_type_radius_bond
C 0.68
H 0.23
Cl 0.99
Co 1.33
N 0.68
Zn 1.45
loop_
_atom_site_label
_atom_site_type_symbol
_atom_site_fract_x
_atom_site_fract_y
_atom_site_fract_z
Zn1 Zn 0.71106(3) 0.84511(2) 0.77500(4)
Co1 Co 0.20543(3) 0.73094(2) 0.18943(4)
Cl1 Cl 0.83221(6) 0.71011(6) 0.74917(10)
Cl2 Cl 0.76020(8) 0.93243(6) 0.55763(9)
Cl3 Cl 0.48835(6) 0.77406(6) 0.72301(9)
Cl4 Cl 0.76458(8) 0.98107(6) 1.05264(10)
Cl5 Cl 0.14961(6) 0.61321(5) -0.10507(7)
N1 N 0.0624(2) 0.6420(2) 0.2699(3)
N2 N 0.0743(2) 0.8175(2) 0.1399(3)
N3 N 0.2461(2) 0.8188(2) 0.4556(3)
N4 N 0.3452(2) 0.8276(2) 0.1206(3)
N5 N 0.3491(2) 0.6515(2) 0.2231(3)
C1 C -0.0656(2) 0.6788(2) 0.2290(4)
C2 C -0.0406(2) 0.7995(2) 0.2382(4)
C3 C 0.0979(2) 0.6544(2) 0.4697(3)
C4 C 0.1530(2) 0.7767(2) 0.5701(3)
C5 C 0.4748(2) 0.8268(2) 0.2184(4)
C6 C 0.4707(2) 0.7104(2) 0.2295(3)
C7 C 0.5834(2) 0.6655(2) 0.2462(4)
C8 C 0.5706(3) 0.5589(3) 0.2586(4)
C9 C 0.4458(3) 0.4980(2) 0.2524(4)
C10 C 0.3374(2) 0.5465(2) 0.2318(3)
H1 H 0.05340 0.56960 0.20780
H2 H -0.10100 0.62900 0.10050
H3 H -0.12520 0.65490 0.29940
H4 H -0.11970 0.80460 0.17090
H5 H -0.02300 0.85170 0.36290
H6 H 0.04360 0.79850 0.01930
H7 H 0.11510 0.89780 0.17300
H8 H 0.16510 0.61500 0.48810
H9 H 0.02510 0.62490 0.51320
H10 H 0.08230 0.82320 0.58990
H11 H 0.19710 0.77800 0.68040
H12 H 0.24700 0.89730 0.46770
H13 H 0.32750 0.81790 0.49620
H14 H 0.33850 0.90010 0.13070
H15 H 0.34870 0.80090 0.00300
H16 H 0.49330 0.87790 0.34620
H17 H 0.54360 0.84860 0.15370
H18 H 0.66140 0.69900 0.22300
H19 H 0.64920 0.52360 0.28500
H20 H 0.43220 0.41950 0.26170
H21 H 0.25100 0.50220 0.21540
#END
