
#######################################################################
#
#                 Cambridge Crystallographic Data Centre
#                                CCDC
#
#######################################################################
#
# If this CIF has been generated from an entry in the Cambridge
# Structural Database, then it will include bibliographic, chemical,
# crystal, experimental, refinement or atomic coordinate data resulting
# from the CCDC's data processing and validation procedures.
#
#######################################################################

data_CSD_CIF_NAFTUK
_audit_creation_date 2004-11-24
_audit_creation_method CSD-ConQuest-V1
_database_code_CSD NAFTUK
_database_code_depnum_ccdc_archive 'CCDC 242374'
_chemical_formula_sum 'C8 H33 Co1 N8 Sb1 Se4'
_chemical_formula_moiety
;
C6 H24 Co1 N6 2+,C2 H9 N2 1+,Sb1 Se4 3-
;
_journal_coden_Cambridge 603
_journal_volume 23
_journal_year 2004
_journal_page_first 731
_journal_name_full 'Jiegou Huaxue(Chin.)(Chin.J.Struct.Chem.) '
loop_
_publ_author_name
"Ming-Lai Fu"
"Wen-Tong Chen"
"Li-Zhen Cai"
"Bing Liu"
"Guo-Cong Guo"
"Jin-Shun Huang"
_chemical_name_systematic
;
2-aminoethylammonium tris(1,2-ethylenediamine)-cobalt tetraselenoantimonate
;
_cell_volume   1110.759
_exptl_crystal_colour 'orange'
_exptl_crystal_density_diffrn 2.207
_exptl_crystal_description 'needle'
_diffrn_ambient_temperature 293
#These two values have been output from a single CSD field.
_refine_ls_R_factor_gt 0.0648
_refine_ls_wR_factor_gt 0.0648
_symmetry_cell_setting triclinic
_symmetry_space_group_name_H-M 'P -1'
_symmetry_Int_Tables_number 2
loop_
_symmetry_equiv_pos_site_id
_symmetry_equiv_pos_as_xyz
1 x,y,z
2 -x,-y,-z
_cell_length_a 8.900(4)
_cell_length_b 9.663(5)
_cell_length_c 14.361(6)
_cell_angle_alpha 104.783(18)
_cell_angle_beta 92.422(1)
_cell_angle_gamma 109.992(1)
_cell_formula_units_Z 2
loop_
_atom_type_symbol
_atom_type_radius_bond
C 0.68
H 0.23
Co 1.33
N 0.68
Sb 1.46
Se 1.22
loop_
_atom_site_label
_atom_site_type_symbol
_atom_site_fract_x
_atom_site_fract_y
_atom_site_fract_z
Sb1 Sb 0.88109(3) 0.57529(3) 0.72814(2)
Co1 Co 1.21146(6) 0.18662(5) 0.81604(4)
Se1 Se 0.71133(5) 0.67805(4) 0.83695(3)
Se2 Se 0.76355(5) 0.29026(4) 0.66482(3)
Se3 Se 1.16393(5) 0.66488(4) 0.80867(3)
Se4 Se 0.89179(5) 0.68615(4) 0.58979(3)
N1 N 1.2731(3) -0.3439(3) 0.5735(2)
H1 H 1.21640 -0.44450 0.55530
H2 H 1.24090 -0.30080 0.53260
H3 H 1.25760 -0.30240 0.63340
N2 N 1.5421(4) -0.0817(3) 0.7043(2)
H4 H 1.48000 -0.13640 0.73620
H5 H 1.59840 0.01370 0.73220
N3 N 1.1837(4) 0.2827(3) 0.7005(2)
H6 H 1.09710 0.31090 0.70400
H7 H 1.27190 0.36580 0.70370
N4 N 1.2370(4) 0.0126(3) 0.6958(2)
H8 H 1.32750 -0.00440 0.70990
H9 H 1.15220 -0.07610 0.68580
N5 N 1.2634(3) 0.0807(3) 0.9225(2)
H10 H 1.22530 0.11260 0.97790
H11 H 1.21600 -0.02220 0.89980
N6 N 1.4701(4) 0.3056(3) 0.8463(2)
H12 H 1.51700 0.26510 0.79780
H13 H 1.49470 0.40570 0.85050
N7 N 1.1523(3) 0.3557(3) 0.9239(2)
H14 H 1.20070 0.36760 0.98320
H15 H 1.18970 0.44680 0.91090
N8 N 0.9542(4) 0.0729(3) 0.8064(2)
H16 H 0.90230 0.08950 0.75760
H17 H 0.92870 -0.02910 0.79460
C1 C 1.4422(5) -0.3179(4) 0.5720(3)
H18 H 1.45740 -0.36420 0.50640
H19 H 1.47450 -0.36970 0.61420
C2 C 1.5520(5) -0.1503(4) 0.6036(3)
H20 H 1.66240 -0.14160 0.59640
H21 H 1.51990 -0.09630 0.56280
C3 C 1.1618(6) 0.1610(5) 0.6097(3)
H22 H 1.04750 0.09900 0.59290
H23 H 1.19300 0.20950 0.55860
C4 C 1.2451(5) 0.0628(4) 0.6090(3)
H24 H 1.35730 0.11520 0.60360
H25 H 1.19990 -0.02630 0.55250
C5 C 1.4447(5) 0.1272(4) 0.9418(3)
H26 H 1.47440 0.11710 1.00490
H27 H 1.47850 0.05850 0.89290
C6 C 1.5311(5) 0.2900(4) 0.9401(3)
H28 H 1.51030 0.36090 0.99450
H29 H 1.64670 0.31330 0.94520
C7 C 0.9757(4) 0.3074(4) 0.9239(3)
H30 H 0.92830 0.34150 0.87630
H31 H 0.95240 0.35250 0.98740
C8 C 0.9062(5) 0.1356(4) 0.8992(3)
H32 H 0.94660 0.10190 0.94980
H33 H 0.78940 0.09990 0.89410
#END
