
#######################################################################
#
#                 Cambridge Crystallographic Data Centre
#                                CCDC
#
#######################################################################
#
# If this CIF has been generated from an entry in the Cambridge
# Structural Database, then it will include bibliographic, chemical,
# crystal, experimental, refinement or atomic coordinate data resulting
# from the CCDC's data processing and validation procedures.
#
#######################################################################

data_CSD_CIF_NAKXUT
_audit_creation_date 2005-07-19
_audit_creation_method CSD-ConQuest-V1
_database_code_CSD NAKXUT
_database_code_depnum_ccdc_archive 'CCDC 268009'
_chemical_formula_sum 'C14 H12 Mn1 N1 O3'
_chemical_formula_moiety
;
C14 H12 Mn1 N1 O3
;
_journal_coden_Cambridge 579
_journal_volume 24
_journal_year 2005
_journal_page_first 1737
_journal_name_full 'Organometallics '
loop_
_publ_author_name
"J.Cipot"
"D.Wechsler"
"R.McDonald"
"M.J.Ferguson"
"M.Stradiotto"
_chemical_name_systematic
;
Tricarbonyl-(\h^5^-2-(dimethylamino)-indenyl)-manganese(i)
;
_cell_volume    643.741
_exptl_crystal_colour 'yellow'
_exptl_crystal_density_diffrn 1.533
_exptl_crystal_description 'block'
_diffrn_ambient_temperature 193
#These two values have been output from a single CSD field.
_refine_ls_R_factor_gt 0.0241
_refine_ls_wR_factor_gt 0.0241
_symmetry_cell_setting triclinic
_symmetry_space_group_name_H-M 'P -1'
_symmetry_Int_Tables_number 2
loop_
_symmetry_equiv_pos_site_id
_symmetry_equiv_pos_as_xyz
1 x,y,z
2 -x,-y,-z
_cell_length_a 6.9708(4)
_cell_length_b 7.1061(4)
_cell_length_c 13.3302(7)
_cell_angle_alpha 80.2151(8)
_cell_angle_beta 81.6179(8)
_cell_angle_gamma 88.1763(8)
_cell_formula_units_Z 2
loop_
_atom_type_symbol
_atom_type_radius_bond
C 0.68
H 0.23
Mn 1.35
N 0.68
O 0.68
loop_
_atom_site_label
_atom_site_type_symbol
_atom_site_fract_x
_atom_site_fract_y
_atom_site_fract_z
Mn1 Mn 0.26026(3) 0.31482(3) 0.247365(15)
O1 O -0.04507(18) 0.06067(18) 0.36967(10)
O2 O -0.02355(19) 0.61017(19) 0.18298(11)
O3 O 0.2461(2) 0.1329(3) 0.06679(12)
N1 N 0.71286(19) 0.21609(19) 0.15719(10)
C1 C 0.4978(2) 0.1996(2) 0.32517(11)
H1 H 0.51670 0.06220 0.35440
C2 C 0.5858(2) 0.2948(2) 0.22705(11)
C3 C 0.5156(2) 0.4882(2) 0.21407(11)
H2 H 0.54970 0.58820 0.15200
C4 C 0.4116(2) 0.5199(2) 0.31145(11)
C5 C 0.3261(2) 0.6871(2) 0.34578(13)
H3 H 0.32830 0.80560 0.30020
C6 C 0.2414(2) 0.6727(2) 0.44543(13)
H4 H 0.18760 0.78390 0.46970
C7 C 0.2315(2) 0.4959(3) 0.51408(13)
H5 H 0.17200 0.49190 0.58320
C8 C 0.3054(2) 0.3317(2) 0.48310(12)
H6 H 0.29360 0.21350 0.52900
C9 C 0.4008(2) 0.3416(2) 0.38027(11)
C10 C 0.7470(3) 0.3175(3) 0.05171(13)
H7 H 0.77950 0.45070 0.05170
H8 H 0.62970 0.31350 0.01950
H9 H 0.85470 0.25660 0.01290
C11 C 0.7225(3) 0.0087(2) 0.16738(14)
H10 H 0.73410 -0.04690 0.23870
H11 H 0.83550 -0.02830 0.12180
H12 H 0.60430 -0.03810 0.14840
C12 C 0.0737(2) 0.1597(2) 0.32198(12)
C13 C 0.0865(2) 0.4940(2) 0.20694(12)
C14 C 0.2533(2) 0.2038(3) 0.13761(13)
#END
