
#######################################################################
#
#                 Cambridge Crystallographic Data Centre
#                                CCDC
#
#######################################################################
#
# If this CIF has been generated from an entry in the Cambridge
# Structural Database, then it will include bibliographic, chemical,
# crystal, experimental, refinement or atomic coordinate data resulting
# from the CCDC's data processing and validation procedures.
#
#######################################################################

data_CSD_CIF_NAKXUU
_audit_creation_date 2010-12-02
_audit_creation_method CSD-ConQuest-V1
_database_code_CSD NAKXUU
_database_code_depnum_ccdc_archive 'CCDC 799449'
_chemical_formula_sum 'C11 H15 Cr1 N2 O10'
_chemical_formula_moiety
;
C7 H11 N2 1+,C4 H4 Cr1 O10 1-
;
_journal_coeditor_code "IUCr BX2312"
_journal_coden_Cambridge 1370
_journal_volume 66
_journal_year 2010
_journal_page_first m1410
_journal_name_full 'Acta Crystallogr.,Sect.E:Struct.Rep.Online '
loop_
_publ_author_name
"J.Nenwa"
"M.M.Belombe"
"J.Ngoune"
"B.P.T.Fokwa"
_chemical_name_systematic
;
4-(Dimethylamino)pyridinium trans-diaqua-bis[oxalato]-chromium(iii)
;
_cell_volume   1485.853
_exptl_crystal_colour 'dark violet'
_exptl_crystal_density_diffrn 1.731
_exptl_crystal_description 'prism'
_diffrn_ambient_temperature 293
#These two values have been output from a single CSD field.
_refine_ls_R_factor_gt 0.0333
_refine_ls_wR_factor_gt 0.0333
_symmetry_cell_setting monoclinic
_symmetry_space_group_name_H-M 'C 2/c'
_symmetry_Int_Tables_number 15
loop_
_symmetry_equiv_pos_site_id
_symmetry_equiv_pos_as_xyz
1 x,y,z
2 -x,y,1/2-z
3 1/2+x,1/2+y,z
4 1/2-x,1/2+y,1/2-z
5 -x,-y,-z
6 x,-y,-1/2+z
7 -1/2-x,-1/2-y,-z
8 -1/2+x,-1/2-y,-1/2+z
_cell_length_a 11.524(4)
_cell_length_b 20.372(8)
_cell_length_c 7.355(2)
_cell_angle_alpha 90
_cell_angle_beta 120.626(6)
_cell_angle_gamma 90
_cell_formula_units_Z 4
loop_
_atom_type_symbol
_atom_type_radius_bond
C 0.68
H 0.23
Cr 1.39
N 0.68
O 0.68
loop_
_atom_site_label
_atom_site_type_symbol
_atom_site_fract_x
_atom_site_fract_y
_atom_site_fract_z
Cr1 Cr 0.00000 0.148676(17) 0.25000
O1 O 0.10432(13) 0.15066(6) 0.5670(2)
H1 H 0.1841(11) 0.1603(11) 0.618(4)
H2 H 0.097(2) 0.1194(8) 0.626(3)
O2 O 0.11598(12) 0.22143(6) 0.2606(2)
O3 O 0.10971(12) 0.07688(6) 0.2448(2)
O4 O 0.12757(13) 0.33040(6) 0.2756(2)
O5 O 0.11585(14) -0.03196(7) 0.2324(2)
C1 C 0.06468(17) 0.01913(8) 0.2430(3)
C2 C 0.07080(16) 0.27821(8) 0.2608(3)
N1 N 0.50000 0.15711(11) 0.25000
N2 N 0.50000 -0.04417(12) 0.25000
H3 H 0.50000 -0.08640 0.25000
C3 C 0.3808(3) 0.19340(12) 0.2074(5)
H4 H 0.39980 0.23960 0.21910
H5 H 0.35480 0.18110 0.30770
H6 H 0.30870 0.18360 0.06710
C4 C 0.50000 0.09124(12) 0.25000
C5 C 0.38704(18) 0.05453(10) 0.2186(3)
H7 H 0.30970 0.07600 0.19670
C6 C 0.3915(2) -0.01145(10) 0.2204(3)
H8 H 0.31670 -0.03490 0.20050
O1A O -0.10432(13) 0.15066(6) -0.0670(2)
H1A H -0.1841(11) 0.1603(11) -0.118(4)
H2A H -0.097(2) 0.1194(8) -0.126(3)
O2A O -0.11598(12) 0.22143(6) 0.2394(2)
O3A O -0.10971(12) 0.07688(6) 0.2552(2)
O4A O -0.12757(13) 0.33040(6) 0.2244(2)
O5A O -0.11585(14) -0.03196(7) 0.2676(2)
C1A C -0.06468(17) 0.01913(8) 0.2570(3)
C2A C -0.07080(16) 0.27821(8) 0.2392(3)
C3A C 0.6192(3) 0.19340(12) 0.2926(5)
H4A H 0.60020 0.23960 0.28090
H5A H 0.64520 0.18110 0.19230
H6A H 0.69130 0.18360 0.43290
C5A C 0.61296(18) 0.05453(10) 0.2814(3)
H7A H 0.69030 0.07600 0.30330
C6A C 0.6085(2) -0.01145(10) 0.2796(3)
H8A H 0.68330 -0.03490 0.29950
#END
