
#######################################################################
#
#                 Cambridge Crystallographic Data Centre
#                                CCDC
#
#######################################################################
#
# If this CIF has been generated from an entry in the Cambridge
# Structural Database, then it will include bibliographic, chemical,
# crystal, experimental, refinement or atomic coordinate data resulting
# from the CCDC's data processing and validation procedures.
#
#######################################################################

data_CSD_CIF_NALGEP
_audit_creation_date 2016-02-09
_audit_creation_method CSD-ConQuest-V1
_database_code_CSD NALGEP
_database_code_depnum_ccdc_archive 'CCDC 1443353'
_chemical_formula_sum 'C16 H24 Br2 Mn1 N12 O6'
_chemical_formula_moiety
;
C16 H24 Mn1 N12 O6 2+,2(Br1 1-)
;
_journal_coden_Cambridge 155
_journal_volume 452
_journal_year 2016
_journal_page_first 229
_journal_name_full 'Inorg.Chim.Acta '
loop_
_publ_author_name
"N.Marino"
"D.Armentano"
"G.De Munno"
_chemical_name_systematic
;
tetrakis(4-aminopyrimidin-2(1H)-one)-diaqua-manganese(ii) bis(bromide)
;
_cell_volume    676.926
_exptl_crystal_density_diffrn 1.706
_diffrn_ambient_temperature 293
#These two values have been output from a single CSD field.
_refine_ls_R_factor_gt 0.0211
_refine_ls_wR_factor_gt 0.0211
_symmetry_cell_setting triclinic
_symmetry_space_group_name_H-M 'P -1'
_symmetry_Int_Tables_number 2
loop_
_symmetry_equiv_pos_site_id
_symmetry_equiv_pos_as_xyz
1 x,y,z
2 -x,-y,-z
_cell_length_a 6.3998(16)
_cell_length_b 9.083(2)
_cell_length_c 11.702(3)
_cell_angle_alpha 88.311(12)
_cell_angle_beta 87.859(12)
_cell_angle_gamma 84.993(12)
_cell_formula_units_Z 1
loop_
_atom_type_symbol
_atom_type_radius_bond
C 0.68
H 0.23
Br 1.21
Mn 1.61
N 0.68
O 0.68
loop_
_atom_site_label
_atom_site_type_symbol
_atom_site_fract_x
_atom_site_fract_y
_atom_site_fract_z
Mn1 Mn 0.00000 0.00000 0.00000
O1 O 0.1681(2) 0.11887(18) 0.12682(12)
H1 H 0.271(3) 0.068(3) 0.172(2)
H2 H 0.085(4) 0.168(3) 0.1853(18)
N1 N 0.1875(3) 0.1598(2) -0.25536(15)
H3 H 0.06500 0.17520 -0.22290
C1 C 0.3302(3) 0.0538(2) -0.20953(16)
O2 O 0.2836(2) -0.01173(16) -0.11525(12)
N2 N 0.5198(3) 0.02218(19) -0.26336(14)
C2 C 0.5677(3) 0.0993(2) -0.36055(17)
N3 N 0.7564(4) 0.0652(3) -0.41159(19)
H4 H 0.791(5) 0.116(3) -0.471(2)
H5 H 0.830(5) -0.016(3) -0.389(3)
C3 C 0.4245(4) 0.2151(3) -0.40661(19)
H6 H 0.46020 0.26970 -0.47180
C4 C 0.2367(4) 0.2412(3) -0.35165(19)
H7 H 0.13990 0.31490 -0.37920
N4 N 0.4594(3) -0.26923(18) 0.03544(14)
H8 H 0.46020 -0.19970 -0.01610
C5 C 0.2752(3) -0.2930(2) 0.09503(16)
O3 O 0.1096(2) -0.20878(17) 0.07373(14)
N5 N 0.2663(3) -0.40275(19) 0.17452(15)
C6 C 0.4456(3) -0.4898(2) 0.19540(18)
N6 N 0.4313(3) -0.6014(3) 0.2715(2)
H9 H 0.545(4) -0.651(3) 0.295(3)
H10 H 0.308(3) -0.614(4) 0.305(3)
C7 C 0.6426(3) -0.4656(2) 0.13729(19)
H11 H 0.76510 -0.52370 0.15420
C8 C 0.6422(3) -0.3551(2) 0.05717(18)
H12 H 0.76570 -0.33720 0.01670
Br1 Br 1.06966(3) -0.26936(3) -0.35874(2)
O1A O -0.1681(2) -0.11887(18) -0.12682(12)
H1A H -0.271(3) -0.068(3) -0.172(2)
H2A H -0.085(4) -0.168(3) -0.1853(18)
N1A N -0.1875(3) -0.1598(2) 0.25536(15)
H3A H -0.06500 -0.17520 0.22290
C1A C -0.3302(3) -0.0538(2) 0.20953(16)
O2A O -0.2836(2) 0.01173(16) 0.11525(12)
N2A N -0.5198(3) -0.02218(19) 0.26336(14)
C2A C -0.5677(3) -0.0993(2) 0.36055(17)
N3A N -0.7564(4) -0.0652(3) 0.41159(19)
H4A H -0.791(5) -0.116(3) 0.471(2)
H5A H -0.830(5) 0.016(3) 0.389(3)
C3A C -0.4245(4) -0.2151(3) 0.40661(19)
H6A H -0.46020 -0.26970 0.47180
C4A C -0.2367(4) -0.2412(3) 0.35165(19)
H7A H -0.13990 -0.31490 0.37920
N4A N -0.4594(3) 0.26923(18) -0.03544(14)
H8A H -0.46020 0.19970 0.01610
C5A C -0.2752(3) 0.2930(2) -0.09503(16)
O3A O -0.1096(2) 0.20878(17) -0.07373(14)
N5A N -0.2663(3) 0.40275(19) -0.17452(15)
C6A C -0.4456(3) 0.4898(2) -0.19540(18)
N6A N -0.4313(3) 0.6014(3) -0.2715(2)
H9A H -0.545(4) 0.651(3) -0.295(3)
H10A H -0.308(3) 0.614(4) -0.305(3)
C7A C -0.6426(3) 0.4656(2) -0.13729(19)
H11A H -0.76510 0.52370 -0.15420
C8A C -0.6422(3) 0.3551(2) -0.05717(18)
H12A H -0.76570 0.33720 -0.01670
#END
