
#######################################################################
#
#                 Cambridge Crystallographic Data Centre
#                                CCDC
#
#######################################################################
#
# If this CIF has been generated from an entry in the Cambridge
# Structural Database, then it will include bibliographic, chemical,
# crystal, experimental, refinement or atomic coordinate data resulting
# from the CCDC's data processing and validation procedures.
#
#######################################################################

data_CSD_CIF_NALRUN
_audit_creation_date 1997-01-23
_audit_creation_method CSD-ConQuest-V1
_database_code_CSD NALRUN
_chemical_formula_sum 'C16 H32 B2 Cl2 F4 Fe1 N5 O4'
_chemical_formula_moiety
;
C8 H12 B2 Cl2 F4 Fe1 N4 O4 1-,C8 H20 N1 1+
;
_journal_coden_Cambridge 9
_journal_volume 35
_journal_year 1996
_journal_page_first 6210
_journal_name_full 'Inorg.Chem. '
loop_
_publ_author_name
"I.Vernik"
"D.V.Stynes"
_chemical_name_systematic
;
Tetraethylammonium dichloro-bis(dimethylglyoximato(difluoroborato))-iron(iii)
;
_cell_volume    625.149
_exptl_crystal_colour 'amber'
_exptl_crystal_density_diffrn 1.548
_diffrn_ambient_temperature ?
_diffrn_special_details
;
The study was carried out at room temperature,in the range 283-303K

;
_refine_special_details
;
The cation is disordered.

;
#These two values have been output from a single CSD field.
_refine_ls_R_factor_gt 0.0437
_refine_ls_wR_factor_gt 0.0437
_symmetry_cell_setting triclinic
_symmetry_space_group_name_H-M 'P -1'
_symmetry_Int_Tables_number 2
loop_
_symmetry_equiv_pos_site_id
_symmetry_equiv_pos_as_xyz
1 x,y,z
2 -x,-y,-z
_cell_length_a 7.811(2)
_cell_length_b 8.045(2)
_cell_length_c 11.748(2)
_cell_angle_alpha 76.53(3)
_cell_angle_beta 73.10(3)
_cell_angle_gamma 63.04(3)
_cell_formula_units_Z 1
loop_
_atom_type_symbol
_atom_type_radius_bond
C 0.64
H 0.23
B 0.83
Cl 0.99
F 0.64
Fe 1.34
N 0.68
O 0.68
loop_
_atom_site_label
_atom_site_type_symbol
_atom_site_fract_x
_atom_site_fract_y
_atom_site_fract_z
Fe1 Fe 0.00000 0.00000 0.00000
N1 N 0.1975(4) 0.0392(4) -0.1248(2)
N2 N 0.0499(4) 0.1571(4) 0.0704(2)
O1 O 0.2466(4) -0.0164(4) -0.2346(2)
O2 O -0.0293(4) 0.1921(4) 0.1863(2)
C1 C 0.2680(5) 0.1479(5) -0.1098(3)
C2 C 0.1865(5) 0.2110(5) 0.0098(3)
C3 C 0.4098(7) 0.2091(7) -0.2012(4)
H1 H 0.4441(7) 0.1516(7) -0.2724(4)
H2 H 0.3514(7) 0.3433(7) -0.2196(4)
H3 H 0.5259(7) 0.1718(7) -0.1716(4)
C4 C 0.2548(6) 0.3245(6) 0.0534(4)
H4 H 0.1821(6) 0.3498(6) 0.1334(4)
H5 H 0.3925(6) 0.2571(6) 0.0534(4)
H6 H 0.2327(6) 0.4408(6) 0.0020(4)
B1 B 0.2194(8) -0.1843(7) -0.2419(4)
F1 F 0.3652(4) -0.3395(4) -0.1899(3)
F2 F 0.2543(5) -0.1966(5) -0.3591(2)
Cl1 Cl -0.21990(13) 0.24681(12) -0.08954(8)
N3 N 0.00000 0.50000 0.50000
C5 C 0.0584(15) 0.6132(15) 0.3934(7)
H7 H -0.0513(15) 0.7314(15) 0.3827(7)
H8? H 0.0977(15) 0.5503(15) 0.3240(7)
C6 C -0.0749(16) 0.6016(14) 0.6133(7)
H9 H 0.0309(16) 0.6105(14) 0.6335(7)
H10 H -0.1296(16) 0.5319(14) 0.6794(7)
C7 C -0.2394(11) 0.8007(11) 0.5908(8)
H11 H -0.2901(11) 0.8666(11) 0.6600(8)
H12 H -0.1828(11) 0.8688(11) 0.5246(8)
H13 H -0.3442(11) 0.7897(11) 0.5707(8)
C8 C 0.2370(11) 0.6527(11) 0.4071(5)
H14 H 0.2744(11) 0.7279(11) 0.3367(5)
H15 H 0.1967(11) 0.7169(11) 0.4760(5)
H16 H 0.3469(11) 0.5343(11) 0.4168(5)
C9? C 0.1602(18) 0.3129(16) 0.5312(10)
C10? C 0.1749(15) 0.5226(16) 0.5213(7)
O2A O 0.0293(4) -0.1921(4) -0.1863(2)
N2A N -0.0499(4) -0.1571(4) -0.0704(2)
N1A N -0.1975(4) -0.0392(4) 0.1248(2)
O1A O -0.2466(4) 0.0164(4) 0.2346(2)
B1A B -0.2194(8) 0.1843(7) 0.2419(4)
Cl1A Cl 0.21990(13) -0.24681(12) 0.08954(8)
F1A F -0.3652(4) 0.3395(4) 0.1899(3)
F2A F -0.2543(5) 0.1966(5) 0.3591(2)
C1A C -0.2680(5) -0.1479(5) 0.1098(3)
C2A C -0.1865(5) -0.2110(5) -0.0098(3)
C4A C -0.2548(6) -0.3245(6) -0.0534(4)
H4A H -0.1821(6) -0.3498(6) -0.1334(4)
H5A H -0.3925(6) -0.2571(6) -0.0534(4)
H6A H -0.2327(6) -0.4408(6) -0.0020(4)
C3A C -0.4098(7) -0.2091(7) 0.2012(4)
H1A H -0.4441(7) -0.1516(7) 0.2724(4)
H2A H -0.3514(7) -0.3433(7) 0.2196(4)
H3A H -0.5259(7) -0.1718(7) 0.1716(4)
C5A C -0.0584(15) 0.3868(15) 0.6066(7)
H7A H 0.0513(15) 0.2686(15) 0.6173(7)
C8A C -0.2370(11) 0.3473(11) 0.5929(5)
H14A H -0.2744(11) 0.2721(11) 0.6633(5)
H15A H -0.1967(11) 0.2831(11) 0.5240(5)
H16A H -0.3469(11) 0.4657(11) 0.5832(5)
C6A C 0.0749(16) 0.3984(14) 0.3867(7)
H9A H -0.0309(16) 0.3895(14) 0.3665(7)
H10A H 0.1296(16) 0.4681(14) 0.3206(7)
C7A C 0.2394(11) 0.1993(11) 0.4092(8)
H11A H 0.2901(11) 0.1334(11) 0.3400(8)
H12A H 0.1828(11) 0.1312(11) 0.4754(8)
H13A H 0.3442(11) 0.2103(11) 0.4293(8)
#END
