
#######################################################################
#
#                 Cambridge Crystallographic Data Centre
#                                CCDC
#
#######################################################################
#
# If this CIF has been generated from an entry in the Cambridge
# Structural Database, then it will include bibliographic, chemical,
# crystal, experimental, refinement or atomic coordinate data resulting
# from the CCDC's data processing and validation procedures.
#
#######################################################################

data_CSD_CIF_NALSOK
_audit_creation_date 2012-04-10
_audit_creation_method CSD-ConQuest-V1
_database_code_CSD NALSOK
_database_code_depnum_ccdc_archive 'CCDC 814539'
_chemical_formula_sum 'C11 H12 Cl3 Fe1 N2 O1'
_chemical_formula_moiety
;
C11 H12 Cl3 Fe1 N2 O1
;
_journal_coden_Cambridge 155
_journal_volume 382
_journal_year 2012
_journal_page_first 84
_journal_name_full 'Inorg.Chim.Acta '
loop_
_publ_author_name
"W.T.Eckenhoff"
"A.B.Biernesser"
"T.Pintauer"
_chemical_name_systematic
;
(2,2'-Bipyridine)-trichloro-methanol-iron(iii)
;
_cell_volume   1387.945
_exptl_crystal_colour 'orange'
_exptl_crystal_density_diffrn 1.677
_exptl_crystal_description 'rhomboid'
_diffrn_ambient_temperature 150
#These two values have been output from a single CSD field.
_refine_ls_R_factor_gt 0.0454
_refine_ls_wR_factor_gt 0.0454
_symmetry_cell_setting monoclinic
_symmetry_space_group_name_H-M 'C 2/m'
_symmetry_Int_Tables_number 12
loop_
_symmetry_equiv_pos_site_id
_symmetry_equiv_pos_as_xyz
1 x,y,z
2 -x,y,-z
3 1/2+x,1/2+y,z
4 1/2-x,1/2+y,-z
5 -x,-y,-z
6 x,-y,z
7 -1/2-x,-1/2-y,-z
8 -1/2+x,-1/2-y,z
_cell_length_a 16.1195(6)
_cell_length_b 14.3755(6)
_cell_length_c 6.4120(3)
_cell_angle_alpha 90
_cell_angle_beta 110.913(2)
_cell_angle_gamma 90
_cell_formula_units_Z 4
loop_
_atom_type_symbol
_atom_type_radius_bond
C 0.68
H 0.23
Cl 0.99
Fe 1.52
N 0.68
O 0.68
loop_
_atom_site_label
_atom_site_type_symbol
_atom_site_fract_x
_atom_site_fract_y
_atom_site_fract_z
Fe1 Fe 0.27689(4) 0.50000 0.1939(1)
Cl1 Cl 0.36882(5) 0.61931(6) 0.19148(15)
Cl2 Cl 0.19533(7) 0.50000 -0.19107(19)
O1 O 0.3259(2) 0.50000 0.5475(5)
N1 N 0.17652(16) 0.40879(18) 0.2376(4)
C1 C 0.10394(19) 0.4488(2) 0.2569(5)
C2 C 0.1824(2) 0.3154(2) 0.2414(6)
H1 H 0.23340 0.28720 0.22700
C3 C 0.0354(2) 0.3952(3) 0.2773(5)
H2 H -0.01600 0.42420 0.28740
C4 C 0.1169(3) 0.2590(3) 0.2654(7)
H3 H 0.12320 0.19330 0.26980
C5 C 0.0426(3) 0.2997(3) 0.2828(6)
H4 H -0.00350 0.26230 0.29850
C6 C 0.4184(3) 0.50000 0.6927(8)
H5 H 0.292(5) 0.50000 0.609(12)
H6 H 0.449(3) 0.450(3) 0.656(7)
H7 H 0.418(5) 0.50000 0.850(13)
Cl1E Cl 0.36882(5) 0.38069(6) 0.19148(15)
N1E N 0.17652(16) 0.59121(18) 0.2376(4)
C1E C 0.10394(19) 0.5512(2) 0.2569(5)
C2E C 0.1824(2) 0.6846(2) 0.2414(6)
H1E H 0.23340 0.71280 0.22700
C3E C 0.0354(2) 0.6048(3) 0.2773(5)
H2E H -0.01600 0.57580 0.28740
C4E C 0.1169(3) 0.7410(3) 0.2654(7)
H3E H 0.12320 0.80670 0.26980
C5E C 0.0426(3) 0.7003(3) 0.2828(6)
H4E H -0.00350 0.73770 0.29850
H6E H 0.449(3) 0.550(3) 0.656(7)
#END
