
#######################################################################
#
#                 Cambridge Crystallographic Data Centre
#                                CCDC
#
#######################################################################
#
# If this CIF has been generated from an entry in the Cambridge
# Structural Database, then it will include bibliographic, chemical,
# crystal, experimental, refinement or atomic coordinate data resulting
# from the CCDC's data processing and validation procedures.
#
#######################################################################

data_CSD_CIF_NANNUM
_audit_creation_date 2005-09-27
_audit_creation_method CSD-ConQuest-V1
_database_code_CSD NANNUM
_database_code_depnum_ccdc_archive 'CCDC 247298'
_chemical_formula_sum 'C6 H12 Co1 N1 O9 P1'
_chemical_formula_moiety
;
C6 H10 Co1 N1 O8 P1,H2 O1
;
_journal_coden_Cambridge 1147
_journal_volume 5
_journal_year 2005
_journal_page_first 1263
_journal_name_full 'Cryst.Growth Des. '
loop_
_publ_author_name
"Deyuan Kong"
"A.Clearfield"
_chemical_name_systematic
;
(6-phosphonopyridine-2-carboxylato)-triaqua-cobalt(ii) monohydrate
;
_cell_volume    590.333
_exptl_crystal_colour 'red'
_exptl_crystal_density_diffrn 1.868
_exptl_crystal_description 'cubic'
_diffrn_ambient_temperature 110
#These two values have been output from a single CSD field.
_refine_ls_R_factor_gt 0.0541
_refine_ls_wR_factor_gt 0.0541
_symmetry_cell_setting triclinic
_symmetry_space_group_name_H-M 'P -1'
_symmetry_Int_Tables_number 2
loop_
_symmetry_equiv_pos_site_id
_symmetry_equiv_pos_as_xyz
1 x,y,z
2 -x,-y,-z
_cell_length_a 7.292(4)
_cell_length_b 8.255(4)
_cell_length_c 10.055(5)
_cell_angle_alpha 97.329(8)
_cell_angle_beta 90.552(8)
_cell_angle_gamma 100.293(9)
_cell_formula_units_Z 2
loop_
_atom_type_symbol
_atom_type_radius_bond
C 0.68
H 0.23
Co 1.33
N 0.68
O 0.68
P 1.05
loop_
_atom_site_label
_atom_site_type_symbol
_atom_site_fract_x
_atom_site_fract_y
_atom_site_fract_z
Co1 Co 0.28000(12) 0.18062(12) 0.63833(7)
P1 P 0.2104(2) -0.1951(2) 0.69475(14)
N1 N 0.2662(7) 0.1098(8) 0.8291(5)
C1 C 0.2427(9) -0.0483(10) 0.8494(6)
C2 C 0.238(1) -0.0928(10) 0.9794(6)
H1 H 0.22290 -0.20620 0.99300
C3 C 0.2555(10) 0.030(1) 1.0864(6)
H2 H 0.25320 0.00250 1.17530
C4 C 0.2769(10) 0.1960(9) 1.0643(6)
H3 H 0.28850 0.28200 1.13800
C5 C 0.2808(9) 0.2342(9) 0.9336(6)
C6 C 0.2955(9) 0.4047(10) 0.8937(6)
O1 O 0.2874(7) 0.5246(7) 0.9792(4)
O2 O 0.3164(6) 0.4159(6) 0.7683(4)
O3 O 0.2480(6) -0.0864(6) 0.5827(4)
O4 O 0.0214(6) -0.2991(6) 0.6910(4)
O5 O 0.3686(6) -0.2998(6) 0.6943(4)
H4 H 0.32710 -0.39110 0.72130
O6 O 0.1557(7) 0.5853(7) 0.2301(4)
H5 H 0.19650 0.56470 0.15200
H6 H 0.10020 0.49460 0.25400
O7 O 0.5618(6) 0.2016(7) 0.6304(4)
H7 H 0.61970 0.29410 0.66980
H8 H 0.59850 0.18490 0.55060
O8 O 0.2814(7) 0.2379(8) 0.4433(4)
H9 H 0.38640 0.28990 0.42260
H10 H 0.19460 0.28910 0.42590
O9 O -0.0037(6) 0.1667(7) 0.6370(4)
H11 H -0.05040 0.14500 0.55750
H12 H -0.03250 0.25670 0.67420
#END
