
#######################################################################
#
#                 Cambridge Crystallographic Data Centre
#                                CCDC
#
#######################################################################
#
# If this CIF has been generated from an entry in the Cambridge
# Structural Database, then it will include bibliographic, chemical,
# crystal, experimental, refinement or atomic coordinate data resulting
# from the CCDC's data processing and validation procedures.
#
#######################################################################

data_CSD_CIF_NAQQAY
_audit_creation_date 2005-09-27
_audit_creation_method CSD-ConQuest-V1
_database_code_CSD NAQQAY
_database_code_depnum_ccdc_archive 'CCDC 251110'
_chemical_formula_sum 'C28 H62 Mn1 P4 Si2'
_chemical_formula_moiety
;
C28 H62 Mn1 P4 Si2
;
_journal_coden_Cambridge 579
_journal_volume 24
_journal_year 2005
_journal_page_first 2834
_journal_name_full 'Organometallics '
loop_
_publ_author_name
"K.Venkatesan"
"T.Fox"
"H.W.Schmalle"
"H.Berke"
_chemical_name_systematic
;
trans-bis(1,2-bis(Dimethylphosphino)ethane)-bis((triethylsilyl)ethynyl)-mangan
ese(ii)
;
_cell_volume    917.010
_exptl_crystal_colour 'yellow'
_exptl_crystal_density_diffrn 1.148
_exptl_crystal_description 'block'
_diffrn_ambient_temperature 183
#These two values have been output from a single CSD field.
_refine_ls_R_factor_gt 0.0437
_refine_ls_wR_factor_gt 0.0437
_symmetry_cell_setting triclinic
_symmetry_space_group_name_H-M 'P -1'
_symmetry_Int_Tables_number 2
loop_
_symmetry_equiv_pos_site_id
_symmetry_equiv_pos_as_xyz
1 x,y,z
2 -x,-y,-z
_cell_length_a 9.2055(8)
_cell_length_b 9.6007(8)
_cell_length_c 10.5978(10)
_cell_angle_alpha 101.262(11)
_cell_angle_beta 93.235(11)
_cell_angle_gamma 90.261(11)
_cell_formula_units_Z 1
loop_
_atom_type_symbol
_atom_type_radius_bond
C 0.68
H 0.23
Mn 1.35
P 1.05
Si 1.20
loop_
_atom_site_label
_atom_site_type_symbol
_atom_site_fract_x
_atom_site_fract_y
_atom_site_fract_z
Mn1 Mn 0.50000 0.50000 0.00000
P1 P 0.38104(7) 0.43134(6) 0.15934(5)
P2 P 0.31307(7) 0.65105(6) -0.00375(6)
Si1 Si 0.24646(7) 0.13252(6) -0.34099(5)
C1 C 0.3911(2) 0.3560(2) -0.1282(2)
C2 C 0.3250(3) 0.2665(2) -0.2098(2)
C3 C 0.1837(7) 0.6247(7) 0.1125(6)
H1 H 0.17270 0.71670 0.17220
H2 H 0.08820 0.60000 0.06540
C4 C 0.2123(5) 0.5277(7) 0.1827(6)
H3 H 0.13110 0.45730 0.16620
H4 H 0.21230 0.57470 0.27460
C5 C 0.4622(4) 0.4635(4) 0.3222(2)
H5 H 0.38950 0.44550 0.38150
H6 H 0.49650 0.56240 0.34650
H7 H 0.54450 0.40000 0.32690
C6 C 0.3185(6) 0.2492(4) 0.1433(3)
H8 H 0.25310 0.24260 0.21190
H9 H 0.40230 0.18790 0.15020
H10 H 0.26620 0.21850 0.05920
C7 C 0.3452(4) 0.8420(3) 0.0398(4)
H11 H 0.25180 0.89080 0.04340
H12 H 0.40310 0.87270 -0.02490
H13 H 0.39810 0.86520 0.12430
C8 C 0.1942(4) 0.6388(3) -0.1476(4)
H14 H 0.10840 0.69720 -0.12740
H15 H 0.16340 0.53970 -0.17920
H16 H 0.24630 0.67290 -0.21410
C9 C 0.2347(3) 0.2050(3) -0.4938(2)
H17 H 0.33360 0.23350 -0.51210
H18 H 0.19930 0.12840 -0.56590
C10 C 0.1349(4) 0.3319(3) -0.4892(3)
H19 H 0.03610 0.30440 -0.47290
H20 H 0.13370 0.36350 -0.57180
H21 H 0.17070 0.40960 -0.41990
C11 C 0.0590(3) 0.0786(3) -0.3065(2)
H22 H -0.00490 0.16200 -0.30090
H23 H 0.02020 0.00520 -0.37980
C12 C 0.0512(4) 0.0207(3) -0.1833(3)
H24 H 0.11460 -0.06160 -0.18730
H25 H -0.04930 -0.00810 -0.17400
H26 H 0.08320 0.09460 -0.10920
C13 C 0.3640(3) -0.0290(3) -0.3628(2)
H27 H 0.46240 -0.00100 -0.38300
H28 H 0.37360 -0.06230 -0.28010
C14 C 0.3083(4) -0.1530(3) -0.4683(3)
H29 H 0.21320 -0.18550 -0.44720
H30 H 0.37730 -0.23110 -0.47420
H31 H 0.29870 -0.12180 -0.55100
P1A P 0.61896(7) 0.56866(6) -0.15934(5)
P2A P 0.68693(7) 0.34895(6) 0.00375(6)
Si1A Si 0.75354(7) 0.86748(6) 0.34099(5)
C1A C 0.6089(2) 0.6440(2) 0.1282(2)
C2A C 0.6750(3) 0.7335(2) 0.2098(2)
C3A C 0.8163(7) 0.3753(7) -0.1125(6)
H1A H 0.82730 0.28330 -0.17220
H2A H 0.91180 0.40000 -0.06540
C4A C 0.7877(5) 0.4723(7) -0.1827(6)
H3A H 0.86890 0.54270 -0.16620
H4A H 0.78770 0.42530 -0.27460
C5A C 0.5378(4) 0.5365(4) -0.3222(2)
H5A H 0.61050 0.55450 -0.38150
H6A H 0.50350 0.43760 -0.34650
H7A H 0.45550 0.60000 -0.32690
C6A C 0.6815(6) 0.7508(4) -0.1433(3)
H8A H 0.74690 0.75740 -0.21190
H9A H 0.59770 0.81210 -0.15020
H10A H 0.73380 0.78150 -0.05920
C7A C 0.6548(4) 0.1580(3) -0.0398(4)
H11A H 0.74820 0.10920 -0.04340
H12A H 0.59690 0.12730 0.02490
H13A H 0.60190 0.13480 -0.12430
C8A C 0.8058(4) 0.3612(3) 0.1476(4)
H14A H 0.89160 0.30280 0.12740
H15A H 0.83660 0.46030 0.17920
H16A H 0.75370 0.32710 0.21410
C9A C 0.7653(3) 0.7950(3) 0.4938(2)
H17A H 0.66640 0.76650 0.51210
H18A H 0.80070 0.87160 0.56590
C10A C 0.8651(4) 0.6681(3) 0.4892(3)
H19A H 0.96390 0.69560 0.47290
H20A H 0.86630 0.63650 0.57180
H21A H 0.82930 0.59040 0.41990
C11A C 0.9410(3) 0.9214(3) 0.3065(2)
H22A H 1.00490 0.83800 0.30090
H23A H 0.97980 0.99480 0.37980
C12A C 0.9488(4) 0.9793(3) 0.1833(3)
H24A H 0.88540 1.06160 0.18730
H25A H 1.04930 1.00810 0.17400
H26A H 0.91680 0.90540 0.10920
C13A C 0.6360(3) 1.0290(3) 0.3628(2)
H27A H 0.53760 1.00100 0.38300
H28A H 0.62640 1.06230 0.28010
C14A C 0.6917(4) 1.1530(3) 0.4683(3)
H29A H 0.78680 1.18550 0.44720
H30A H 0.62270 1.23110 0.47420
H31A H 0.70130 1.12180 0.55100
#END
