
#######################################################################
#
#                 Cambridge Crystallographic Data Centre
#                                CCDC
#
#######################################################################
#
# If this CIF has been generated from an entry in the Cambridge
# Structural Database, then it will include bibliographic, chemical,
# crystal, experimental, refinement or atomic coordinate data resulting
# from the CCDC's data processing and validation procedures.
#
#######################################################################

data_CSD_CIF_NAQVOQ
_audit_creation_date 2001-11-12
_audit_creation_method CSD-ConQuest-V1
_database_code_CSD NAQVOQ
_chemical_formula_sum 'C16 H12 Fe1 O4 S2'
_chemical_formula_moiety
;
C16 H12 Fe1 O4 S2
;
_journal_coden_Cambridge 579
_journal_volume 19
_journal_year 2000
_journal_page_first 4127
_journal_name_full 'Organometallics '
loop_
_publ_author_name
"F.Ortega-Jimenez"
"M.C.Ortega-Alfaro"
"J.G.Lopez-Cortes"
"R.Gutierrez-Perez"
"R.A.Toscano"
"L.Velasco-Ibarra"
"E.Pena-Cabrera"
"C.Alvarez-Toledano"
_chemical_name_systematic
;
(\h^4^-4-Phenyl-1-(1,3-dithiolane-2-ylidene)-3E-buten-2-one)-tricarbonyl-iron(
0)
;
_chemical_melting_point 378.15
_cell_volume    827.695
_exptl_crystal_colour 'red'
_exptl_crystal_density_diffrn 1.558
_exptl_special_details
;
Melts with decomposition.

;
_exptl_crystal_description 'prism'
_diffrn_ambient_temperature 293
#These two values have been output from a single CSD field.
_refine_ls_R_factor_gt 0.041
_refine_ls_wR_factor_gt 0.041
_symmetry_cell_setting triclinic
_symmetry_space_group_name_H-M 'P -1'
_symmetry_Int_Tables_number 2
loop_
_symmetry_equiv_pos_site_id
_symmetry_equiv_pos_as_xyz
1 x,y,z
2 -x,-y,-z
_cell_length_a 7.416(2)
_cell_length_b 10.182(3)
_cell_length_c 11.486(4)
_cell_angle_alpha 75.62(2)
_cell_angle_beta 87.70(2)
_cell_angle_gamma 80.13(2)
_cell_formula_units_Z 2
loop_
_atom_type_symbol
_atom_type_radius_bond
C 0.68
H 0.23
Fe 1.34
O 0.68
S 1.02
loop_
_atom_site_label
_atom_site_type_symbol
_atom_site_fract_x
_atom_site_fract_y
_atom_site_fract_z
Fe1 Fe 0.2305(1) 0.6712(1) 0.7861(1)
S1 S -0.1313(1) 0.6420(1) 0.5181(1)
S2 S -0.2869(2) 0.9277(1) 0.4020(1)
O1 O -0.0177(4) 0.6344(3) 0.7498(2)
O2 O 0.5361(5) 0.8042(4) 0.8198(3)
O3 O 0.3675(6) 0.3899(4) 0.9280(4)
O4 O 0.3636(6) 0.6758(5) 0.5401(3)
C1 C -0.1207(5) 0.8590(4) 0.6188(4)
C2 C -0.0412(5) 0.7690(4) 0.7311(3)
C3 C 0.0234(5) 0.8181(4) 0.8235(3)
C4 C 0.0752(5) 0.7210(4) 0.9334(3)
C5 C -0.1719(5) 0.8140(4) 0.5269(3)
C6 C -0.2320(6) 0.6713(4) 0.3705(4)
C7 C -0.2224(6) 0.8169(5) 0.3013(4)
C8 C 0.1591(5) 0.7550(4) 1.0350(3)
C9 C 0.2179(6) 0.8800(4) 1.0259(4)
C10 C 0.2902(6) 0.9083(5) 1.1240(4)
C11 C 0.3055(6) 0.8138(5) 1.2338(4)
C12 C 0.2500(6) 0.6882(5) 1.2438(4)
C13 C 0.1775(5) 0.6585(4) 1.1463(3)
C14 C 0.4175(6) 0.7511(4) 0.8076(3)
C15 C 0.3199(6) 0.4983(4) 0.8721(4)
C16 C 0.3095(6) 0.6751(5) 0.6332(4)
H1 H -0.13700 0.95660 0.61000
H2 H 0.03260 0.91340 0.81230
H3 H 0.05410 0.62850 0.94260
H4 H -0.35740 0.65810 0.37880
H5 H -0.16540 0.60800 0.32830
H6 H -0.10010 0.82370 0.27280
H7 H -0.30520 0.84310 0.23420
H8 H 0.20830 0.94730 0.95030
H9 H 0.33040 0.99490 1.11580
H10 H 0.35380 0.83470 1.30220
H11 H 0.26200 0.62090 1.31950
H12 H 0.13930 0.57110 1.15490
#END
