
#######################################################################
#
#                 Cambridge Crystallographic Data Centre
#                                CCDC
#
#######################################################################
#
# If this CIF has been generated from an entry in the Cambridge
# Structural Database, then it will include bibliographic, chemical,
# crystal, experimental, refinement or atomic coordinate data resulting
# from the CCDC's data processing and validation procedures.
#
#######################################################################

data_CSD_CIF_NATBIT
_audit_creation_date 1998-03-31
_audit_creation_method CSD-ConQuest-V1
_database_code_CSD NATBIT
_database_code_depnum_ccdc_journal 186/511
_chemical_formula_sum 'C20 H20 Cl2 Fe1 N4 O10'
_chemical_formula_moiety
;
(C10 H12 Cl2 Fe1 N2 O10)n,n(C10 H8 N2)
;
_journal_coden_Cambridge 186
_journal_year 1997
_journal_page_first 1801
_journal_name_full 'J.Chem.Soc.,Dalton Trans. '
loop_
_publ_author_name
"L.Carlucci"
"G.Ciani"
"D.M.Proserpio"
"A.Sironi"
_chemical_name_systematic
;
catena-((\m~2~-4,4'-Bipyridyl)-diaqua-bis(perchlorato-O)-iron(ii) 
4,4'-bipyridine solvate)
;
_cell_volume    608.247
_exptl_crystal_density_diffrn 1.647
_diffrn_ambient_temperature ?
_diffrn_special_details
;
The study was carried out at room temperature,in the range 283-303K

;
#These two values have been output from a single CSD field.
_refine_ls_R_factor_gt 0.0541
_refine_ls_wR_factor_gt 0.0541
_symmetry_cell_setting triclinic
_symmetry_space_group_name_H-M 'P -1'
_symmetry_Int_Tables_number 2
loop_
_symmetry_equiv_pos_site_id
_symmetry_equiv_pos_as_xyz
1 x,y,z
2 -x,-y,-z
_cell_length_a 7.524(2)
_cell_length_b 9.016(2)
_cell_length_c 10.106(5)
_cell_angle_alpha 105.13(3)
_cell_angle_beta 95.90(3)
_cell_angle_gamma 109.90(2)
_cell_formula_units_Z 1
loop_
_atom_type_symbol
_atom_type_radius_bond
C 0.68
H 0.23
Cl 0.99
Fe 1.34
N 0.68
O 0.68
loop_
_atom_site_label
_atom_site_type_symbol
_atom_site_fract_x
_atom_site_fract_y
_atom_site_fract_z
Fe1 Fe 1.00000 0.50000 0.50000
Cl1 Cl 0.6305(4) 0.3844(3) 0.6726(3)
O1 O 0.8048(9) 0.3870(9) 0.6256(7)
O2 O 0.6548(13) 0.3933(11) 0.8131(8)
O3 O 0.4795(12) 0.2365(11) 0.5898(10)
O4 O 0.5987(14) 0.5268(12) 0.6589(10)
O5 O 0.8655(9) 0.6584(7) 0.4633(6)
N1 N 0.8153(10) 0.3062(9) 0.3113(7)
C1 C 0.8051(13) 0.3343(12) 0.1885(10)
C2 C 0.6832(13) 0.2206(11) 0.0658(10)
C3 C 0.5640(11) 0.0637(10) 0.0644(8)
C4 C 0.5769(13) 0.0328(12) 0.1916(9)
C5 C 0.7035(13) 0.1528(11) 0.3093(10)
N2 N 0.9210(12) -0.2010(11) 0.2592(9)
C6 C 1.055(2) -0.0510(14) 0.2885(12)
C7 C 1.093(2) 0.0334(13) 0.1894(11)
C8 C 0.9843(13) -0.0418(11) 0.0544(9)
C9 C 0.846(2) -0.1977(13) 0.0255(11)
C10 C 0.821(2) -0.2703(14) 0.1302(11)
H1 H 0.8854(13) 0.4372(12) 0.1854(10)
H2 H 0.6805(13) 0.2488(11) -0.0164(10)
H3 H 0.4994(13) -0.0696(12) 0.1974(9)
H4 H 0.7123(13) 0.1266(11) 0.3922(10)
H5 H 1.129(2) 0.0016(14) 0.3794(12)
H6 H 1.189(2) 0.1390(13) 0.2146(11)
H7 H 0.770(2) -0.2545(13) -0.0642(11)
H8 H 0.726(2) -0.3764(14) 0.1073(11)
O1A O 1.1952(9) 0.6130(9) 0.3744(7)
Cl1A Cl 1.3695(4) 0.6156(3) 0.3274(3)
O2A O 1.3452(13) 0.6067(11) 0.1869(8)
O3A O 1.5205(12) 0.7635(11) 0.4102(10)
O4A O 1.4013(14) 0.4732(12) 0.3411(10)
O5A O 1.1345(9) 0.3416(7) 0.5367(6)
C3A C 0.4360(11) -0.0637(10) -0.0644(8)
C2A C 0.3168(13) -0.2206(11) -0.0658(10)
C1A C 0.1949(13) -0.3343(12) -0.1885(10)
N1A N 0.1847(10) -0.3062(9) -0.3113(7)
Fe1A Fe 0.00000 -0.50000 -0.50000
C5A C 0.2965(13) -0.1528(11) -0.3093(10)
C4A C 0.4231(13) -0.0328(12) -0.1916(9)
H3A H 0.5006(13) 0.0696(12) -0.1974(9)
H4A H 0.2877(13) -0.1266(11) -0.3922(10)
H1A H 0.1146(13) -0.4372(12) -0.1854(10)
H2A H 0.3195(13) -0.2488(11) 0.0164(10)
N1A* N 1.1847(10) 0.6938(9) 0.6887(7)
C8A C 1.0157(13) 0.0418(11) -0.0544(9)
C7A C 0.907(2) -0.0334(13) -0.1894(11)
C6A C 0.945(2) 0.0510(14) -0.2885(12)
N2A N 1.0790(12) 0.2010(11) -0.2592(9)
C10A C 1.179(2) 0.2703(14) -0.1302(11)
C9A C 1.154(2) 0.1977(13) -0.0255(11)
H7A H 1.230(2) 0.2545(13) 0.0642(11)
H8A H 1.274(2) 0.3764(14) -0.1073(11)
H5A H 0.871(2) -0.0016(14) -0.3794(12)
H6A H 0.811(2) -0.1390(13) -0.2146(11)
#END
