
#######################################################################
#
#                 Cambridge Crystallographic Data Centre
#                                CCDC
#
#######################################################################
#
# If this CIF has been generated from an entry in the Cambridge
# Structural Database, then it will include bibliographic, chemical,
# crystal, experimental, refinement or atomic coordinate data resulting
# from the CCDC's data processing and validation procedures.
#
#######################################################################

data_CSD_CIF_NATKEY
_audit_creation_date 1998-03-31
_audit_creation_method CSD-ConQuest-V1
_database_code_CSD NATKEY
_database_code_depnum_ccdc_journal 186/481
_chemical_formula_sum 'C12 H32 Cl2 Fe1 N4'
_chemical_formula_moiety
;
C12 H32 Cl2 Fe1 N4
;
_journal_coden_Cambridge 186
_journal_year 1997
_journal_page_first 1981
_journal_name_full 'J.Chem.Soc.,Dalton Trans. '
loop_
_publ_author_name
"S.C.Davies"
"D.L.Hughes"
"G.J.Leigh"
"J.R.Sanders"
"J.S.de Souza"
_chemical_name_systematic
;
trans-Dichloro-bis(tetramethylethylenediamine)-iron(ii)
;
_cell_volume    921.651
_exptl_crystal_colour 'colorless'
_exptl_crystal_density_diffrn 1.294
_exptl_special_details
;
Crystals are highly air- and moisture-sensitive

;
_exptl_crystal_description 'plate'
_diffrn_ambient_temperature ?
_diffrn_special_details
;
The study was carried out at room temperature,in the range 283-303K

;
_refine_special_details
;
Atom C2 in the tetramethylethylenediamine bridge is equally disordered over 
two positions.
;
#These two values have been output from a single CSD field.
_refine_ls_R_factor_gt 0.052
_refine_ls_wR_factor_gt 0.052
_symmetry_cell_setting monoclinic
_symmetry_space_group_name_H-M 'P 21/n'
_symmetry_Int_Tables_number 14
loop_
_symmetry_equiv_pos_site_id
_symmetry_equiv_pos_as_xyz
1 x,y,z
2 1/2-x,1/2+y,1/2-z
3 -x,-y,-z
4 -1/2+x,-1/2-y,-1/2+z
_cell_length_a 9.405(1)
_cell_length_b 12.333(1)
_cell_length_c 8.012(1)
_cell_angle_alpha 90
_cell_angle_beta 97.369(8)
_cell_angle_gamma 90
_cell_formula_units_Z 2
loop_
_atom_type_symbol
_atom_type_radius_bond
C 0.68
H 0.23
Cl 0.99
Fe 1.34
N 0.68
loop_
_atom_site_label
_atom_site_type_symbol
_atom_site_fract_x
_atom_site_fract_y
_atom_site_fract_z
Fe1 Fe 0.50000 0.50000 0.50000
N1 N 0.2643(3) 0.5194(2) 0.3555(4)
C1 C 0.1973(5) 0.6250(4) 0.3760(8)
C2 C 0.2488(8) 0.4963(6) 0.1764(7)
C3 C 0.1815(6) 0.4370(5) 0.4349(9)
C4 C 0.2366(8) 0.3450(6) 0.5096(10)
C5? C 0.2317(10) 0.3954(8) 0.5924(12)
N2 N 0.3764(3) 0.3643(2) 0.6350(4)
C6 C 0.4242(7) 0.2534(3) 0.6171(9)
C7 C 0.3636(11) 0.3812(5) 0.8098(8)
Cl1 Cl 0.5538(1) 0.36991(7) 0.2948(1)
H1 H 0.1936(52) 0.6360(27) 0.4972(17)
H2 H 0.2614(32) 0.6810(15) 0.3386(60)
H3 H 0.1020(21) 0.6295(22) 0.3143(47)
H4 H 0.2891(45) 0.4244(17) 0.1584(32)
H5 H 0.1489(16) 0.4963(31) 0.1252(32)
H6 H 0.2993(39) 0.5522(24) 0.1198(29)
H7 H 0.5241(17) 0.2451(21) 0.6632(52)
H8 H 0.4072(46) 0.2361(22) 0.4962(17)
H9 H 0.3649(29) 0.2030(15) 0.6734(40)
H10 H 0.4561(20) 0.3620(33) 0.8741(27)
H11 H 0.2920(32) 0.3306(26) 0.8449(30)
H12 H 0.3342(49) 0.4548(15) 0.8328(35)
N1B N 0.7357(3) 0.4806(2) 0.6445(4)
C1B C 0.8027(5) 0.3750(4) 0.6240(8)
H1B H 0.8064(52) 0.3640(27) 0.5028(17)
H2B H 0.7386(32) 0.3190(15) 0.6614(60)
H3B H 0.8980(21) 0.3705(22) 0.6857(47)
C2B C 0.7512(8) 0.5037(6) 0.8236(7)
H4B H 0.7109(45) 0.5756(17) 0.8416(32)
H5B H 0.8511(16) 0.5037(31) 0.8748(32)
H6B H 0.7007(39) 0.4478(24) 0.8802(29)
C3B C 0.8185(6) 0.5630(5) 0.5651(9)
C4B C 0.7634(8) 0.6550(6) 0.4904(10)
N2B N 0.6236(3) 0.6357(2) 0.3650(4)
Cl1B Cl 0.4462(1) 0.63009(7) 0.7052(1)
C6B C 0.5758(7) 0.7466(3) 0.3829(9)
H7B H 0.4759(17) 0.7549(21) 0.3368(52)
H8B H 0.5928(46) 0.7639(22) 0.5038(17)
H9B H 0.6351(29) 0.7970(15) 0.3266(40)
C7B C 0.6364(11) 0.6188(5) 0.1902(8)
H10B H 0.5439(20) 0.6380(33) 0.1259(27)
H11B H 0.7080(32) 0.6694(26) 0.1551(30)
H12B H 0.6658(49) 0.5452(15) 0.1672(35)
#END
