
#######################################################################
#
#                 Cambridge Crystallographic Data Centre
#                                CCDC
#
#######################################################################
#
# If this CIF has been generated from an entry in the Cambridge
# Structural Database, then it will include bibliographic, chemical,
# crystal, experimental, refinement or atomic coordinate data resulting
# from the CCDC's data processing and validation procedures.
#
#######################################################################

data_CSD_CIF_NAZYEV
_audit_creation_date 2017-08-07
_audit_creation_method CSD-ConQuest-V1
_database_code_CSD NAZYEV
_database_code_depnum_ccdc_archive 'CCDC 1546197'
_chemical_formula_sum 'C14 H21 Cl3 Co1 N4 O1.5'
_chemical_formula_moiety
;
C14 H20 Cl1 Co1 N4 O1 2+,2(Cl1 1-),0.5(H2 O1)
;
_journal_coden_Cambridge 155
_journal_volume 472
_journal_year 2018
_journal_page_first 234
_journal_name_full 'Inorg.Chim.Acta '
loop_
_publ_author_name
"P.Buglyo"
"I.Kacsir"
"M.Kozsup"
"Imre Nagy"
"S.Nagy"
"A.C.Benyei"
"E.Kovats"
"E.Farkas"
_chemical_name_systematic
;
aqua-(N,N-bis((pyridin-2-yl)methyl)ethane-1,2-diamine)-chloro-cobalt(iii) 
dichloride hemihydrate
;
_cell_volume   1862.728
_exptl_crystal_colour 'purple'
_exptl_crystal_density_diffrn 1.55
_exptl_crystal_description 'plate'
_diffrn_ambient_temperature 293
#These two values have been output from a single CSD field.
_refine_ls_R_factor_gt 0.0379
_refine_ls_wR_factor_gt 0.0379
_symmetry_cell_setting monoclinic
_symmetry_space_group_name_H-M 'C c'
_symmetry_Int_Tables_number 9
loop_
_symmetry_equiv_pos_site_id
_symmetry_equiv_pos_as_xyz
1 x,y,z
2 x,-y,1/2+z
3 1/2+x,1/2+y,z
4 1/2+x,1/2-y,1/2+z
_cell_length_a 12.8726(2)
_cell_length_b 7.7648(1)
_cell_length_c 18.7982(3)
_cell_angle_alpha 90
_cell_angle_beta 97.532(1)
_cell_angle_gamma 90
_cell_formula_units_Z 4
loop_
_atom_type_symbol
_atom_type_radius_bond
C 0.68
H 0.23
Cl 0.99
Co 1.26
N 0.68
O 0.68
loop_
_atom_site_label
_atom_site_type_symbol
_atom_site_fract_x
_atom_site_fract_y
_atom_site_fract_z
C1 C 0.3667(4) 0.5308(6) 0.4356(3)
C2 C 0.3263(5) 0.4428(8) 0.3740(3)
H1 H 0.30440 0.32920 0.37650
C3 C 0.3194(5) 0.527(1) 0.3089(3)
H2 H 0.29280 0.47020 0.26690
C4 C 0.3522(6) 0.6966(9) 0.3066(3)
H3 H 0.34740 0.75540 0.26320
C5 C 0.3918(5) 0.7764(7) 0.3696(3)
H4 H 0.41420 0.89010 0.36810
C6 C 0.4905(4) 0.6989(6) 0.6701(3)
C7 C 0.5206(5) 0.7056(8) 0.7432(3)
H5 H 0.52080 0.60680 0.77110
C8 C 0.5502(5) 0.8621(11) 0.7738(3)
H6 H 0.57000 0.87030 0.82310
C9 C 0.5505(5) 1.0072(9) 0.7310(3)
H7 H 0.57020 1.11370 0.75100
C10 C 0.5210(4) 0.9906(7) 0.6576(3)
H8 H 0.52150 1.08750 0.62860
C11 C 0.3798(5) 0.4496(6) 0.5081(3)
H9 H 0.32080 0.37440 0.51260
H10 H 0.44320 0.38080 0.51450
C12 C 0.4564(4) 0.5381(6) 0.6308(2)
H11 H 0.41930 0.46450 0.66080
H12 H 0.51680 0.47570 0.61850
C13 C 0.2807(4) 0.6389(6) 0.5835(3)
H13 H 0.23500 0.53940 0.58220
H14 H 0.28850 0.68610 0.63170
C14 C 0.2338(4) 0.7717(6) 0.5308(3)
H15 H 0.21170 0.71890 0.48460
H16 H 0.17330 0.82470 0.54770
N1 N 0.3993(3) 0.6956(5) 0.4330(2)
N2 N 0.4918(3) 0.8398(5) 0.6276(2)
N3 N 0.3861(3) 0.5862(5) 0.56433(19)
N4 N 0.3158(3) 0.9022(5) 0.5246(2)
H17 H 0.31880 0.98290 0.56420
H18 H 0.29920 0.96590 0.48020
Cl1 Cl 0.51684(10) 1.03009(15) 0.48550(7)
Co1 Co 0.44868(4) 0.78978(7) 0.52588(3)
O1 O 0.5767(3) 0.6589(5) 0.52260(17)
H19 H 0.630(4) 0.666(11) 0.553(3)
H20 H 0.597(6) 0.637(11) 0.483(2)
Cl2 Cl 0.76285(10) 0.69253(13) 0.63334(6)
Cl3 Cl 0.66383(11) 0.5645(2) 0.38771(7)
O2 O 0.7017(8) 0.3615(8) 0.7234(3)
H21 H 0.763(3) 0.38(2) 0.738(8)
H22 H 0.666(9) 0.40(2) 0.753(6)
#END
