
#######################################################################
#
#                 Cambridge Crystallographic Data Centre
#                                CCDC
#
#######################################################################
#
# If this CIF has been generated from an entry in the Cambridge
# Structural Database, then it will include bibliographic, chemical,
# crystal, experimental, refinement or atomic coordinate data resulting
# from the CCDC's data processing and validation procedures.
#
#######################################################################

data_CSD_CIF_NCCPCR
_audit_creation_date 1979-05-11
_audit_creation_method CSD-ConQuest-V1
_database_code_CSD NCCPCR
_database_code_depnum_ccdc_archive 'CCDC 1217910'
_chemical_formula_sum 'C7 H5 Cr1 N1 O3'
_chemical_formula_moiety
;
C7 H5 Cr1 N1 O3
;
_journal_coden_Cambridge 36
_journal_volume 165
_journal_year 1979
_journal_page_first 65
_journal_name_full 'J.Organomet.Chem. '
loop_
_publ_author_name
"J.L.Atwood"
"R.Shakir"
"J.T.Malito"
"M.Herberhold"
"W.Kremnitz"
"W.P.E.Bernhagen"
"H.G.Alt"
_chemical_name_systematic
;
Dicarbonyl-cyclopentadienyl-nitrosyl-chromium
;
_cell_volume    831.329
_exptl_crystal_density_diffrn 1.63
_diffrn_ambient_temperature ?
_diffrn_special_details
;
The study was carried out at room temperature,in the range 283-303K

;
_refine_special_details
;
Nitrosyl and carbonyl ligands are distributed over same positions.

;
#These two values have been output from a single CSD field.
_refine_ls_R_factor_gt 0.038
_refine_ls_wR_factor_gt 0.038
_symmetry_cell_setting monoclinic
_symmetry_space_group_name_H-M 'P 21/n'
_symmetry_Int_Tables_number 14
loop_
_symmetry_equiv_pos_site_id
_symmetry_equiv_pos_as_xyz
1 x,y,z
2 1/2-x,1/2+y,1/2-z
3 -x,-y,-z
4 -1/2+x,-1/2-y,-1/2+z
_cell_length_a 10.998(4)
_cell_length_b 7.066(3)
_cell_length_c 11.940(4)
_cell_angle_alpha 90
_cell_angle_beta 116.37(4)
_cell_angle_gamma 90
_cell_formula_units_Z 4
loop_
_atom_type_symbol
_atom_type_radius_bond
C 0.68
H 0.23
Cr 1.35
O 0.68
loop_
_atom_site_label
_atom_site_type_symbol
_atom_site_fract_x
_atom_site_fract_y
_atom_site_fract_z
Cr1 Cr 0.47657 0.01863 0.71408
O1 O 0.39400 0.31130 0.51480
O2 O 0.56120 0.30120 0.91320
O3 O 0.75390 -0.02890 0.73350
C1 C 0.42730 0.19580 0.59190
C2 C 0.52870 0.18960 0.83370
C3 C 0.64720 -0.00900 0.72520
C4 C 0.44680 -0.28800 0.69520
C5 C 0.44520 -0.23120 0.80620
C6 C 0.33370 -0.11310 0.77290
C7 C 0.27130 -0.09590 0.64560
C8 C 0.34170 -0.20320 0.59520
H1 H 0.50720 -0.36250 0.68890
H2 H 0.50430 -0.26170 0.88940
H3 H 0.31050 -0.05780 0.83700
H4 H 0.19370 -0.02370 0.59350
H5 H 0.31960 -0.20970 0.50410
#END
