
#######################################################################
#
#                 Cambridge Crystallographic Data Centre
#                                CCDC
#
#######################################################################
#
# If this CIF has been generated from an entry in the Cambridge
# Structural Database, then it will include bibliographic, chemical,
# crystal, experimental, refinement or atomic coordinate data resulting
# from the CCDC's data processing and validation procedures.
#
#######################################################################

data_CSD_CIF_NEDKOZ
_audit_creation_date 2017-08-08
_audit_creation_method CSD-ConQuest-V1
_database_code_CSD NEDKOZ
_database_code_depnum_ccdc_archive 'CCDC 1529384'
_chemical_formula_sum 'C11 H12 Cl2 Fe1 N2 O4 Si1'
_chemical_formula_moiety
;
C11 H12 Cl2 Fe1 N2 O4 Si1
;
_journal_coden_Cambridge 9
_journal_volume 56
_journal_year 2017
_journal_page_first 10061
_journal_name_full 'Inorg.Chem. '
loop_
_publ_author_name
"C.Eisenhut"
"T.Szilvasi"
"G.Dubek"
"N.C.Breit"
"Shigeyoshi Inoue"
_chemical_name_systematic
;
(dichloro(1,3,4,5-tetramethyl-imidazol-2-ylidene)silyl)-tetracarbonyl-iron
;
_cell_volume    800.650
_exptl_crystal_colour 'colorless'
_exptl_crystal_density_diffrn 1.622
_exptl_special_details
;
Absolute configuration

;
_exptl_crystal_description 'plate'
_diffrn_ambient_temperature 150
#These two values have been output from a single CSD field.
_refine_ls_R_factor_gt 0.0765
_refine_ls_wR_factor_gt 0.0765
_symmetry_cell_setting monoclinic
_symmetry_space_group_name_H-M 'P 21'
_symmetry_Int_Tables_number 4
loop_
_symmetry_equiv_pos_site_id
_symmetry_equiv_pos_as_xyz
1 x,y,z
2 -x,1/2+y,-z
_cell_length_a 6.5729(1)
_cell_length_b 14.1468(3)
_cell_length_c 8.7119(2)
_cell_angle_alpha 90
_cell_angle_beta 98.751(2)
_cell_angle_gamma 90
_cell_formula_units_Z 2
loop_
_atom_type_symbol
_atom_type_radius_bond
C 0.68
H 0.23
Cl 0.99
Fe 1.52
N 0.68
O 0.68
Si 1.20
loop_
_atom_site_label
_atom_site_type_symbol
_atom_site_fract_x
_atom_site_fract_y
_atom_site_fract_z
Fe1 Fe 0.5298(2) 0.11535(11) 0.68706(15)
Si1 Si 0.6368(4) 0.2064(2) 0.5044(3)
Cl1 Cl 0.4191(5) 0.3034(2) 0.3975(3)
Cl2 Cl 0.8871(5) 0.2920(2) 0.5942(3)
O1 O 0.4057(14) -0.0018(7) 0.9354(9)
O2 O 0.9309(12) 0.0212(6) 0.7090(9)
O3 O 0.1834(14) 0.0628(9) 0.4489(10)
O4 O 0.5025(17) 0.2883(7) 0.8684(10)
N1 N 0.7600(13) 0.0684(6) 0.2774(9)
N2 N 0.8415(12) 0.2123(6) 0.2272(9)
C1 C 0.7387(15) 0.1597(7) 0.3238(11)
C2 C 0.8746(15) 0.0637(8) 0.1577(11)
C3 C 0.9251(16) 0.1537(7) 0.1252(10)
C4 C 0.6757(17) -0.0168(8) 0.3409(12)
H1 H 0.59600 0.00130 0.42260
H2 H 0.78880 -0.05860 0.38450
H3 H 0.58610 -0.04990 0.25780
C5 C 0.8563(19) 0.3155(8) 0.2200(13)
H4 H 0.76430 0.34400 0.28570
H5 H 0.81610 0.33650 0.11250
H6 H 0.99830 0.33510 0.25710
C6 C 0.9304(19) -0.0283(8) 0.0910(12)
H7 H 0.99570 -0.01640 -0.00110
H8 H 0.80570 -0.06620 0.06160
H9 H 1.02630 -0.06260 0.16860
C7 C 1.0528(16) 0.1921(9) 0.0117(11)
H10 H 1.12610 0.14020 -0.03040
H11 H 1.15250 0.23760 0.06420
H12 H 0.96340 0.22390 -0.07310
C8 C 0.4531(17) 0.0435(8) 0.8342(12)
C9 C 0.7743(15) 0.0606(8) 0.6997(11)
C10 C 0.3190(16) 0.0847(10) 0.5456(12)
C11 C 0.5121(17) 0.2190(8) 0.7930(12)
#END
