
#######################################################################
#
#                 Cambridge Crystallographic Data Centre
#                                CCDC
#
#######################################################################
#
# If this CIF has been generated from an entry in the Cambridge
# Structural Database, then it will include bibliographic, chemical,
# crystal, experimental, refinement or atomic coordinate data resulting
# from the CCDC's data processing and validation procedures.
#
#######################################################################

data_CSD_CIF_NEFWIF
_audit_creation_date 2006-04-06
_audit_creation_method CSD-ConQuest-V1
_database_code_CSD NEFWIF
_database_code_depnum_ccdc_archive 'CCDC 276933'
_chemical_formula_sum 'C14 H14 Cr1 O6'
_chemical_formula_moiety
;
C14 H14 Cr1 O6
;
_journal_coden_Cambridge 1291
_journal_year 2005
_journal_page_first 5224
_journal_name_full 'Eur.J.Org.Chem. '
loop_
_publ_author_name
"D.Leinweber"
"I.Weidner"
"R.Wilhelm"
"R.Wartchow"
"H.Butenschon"
_chemical_name_systematic
;
(-)-(1R)-endo-Tricarbonyl-(\h^6^-2,2-dimethoxyindan-1-ol)-chromium(0)
;
_chemical_melting_point 434.15
_cell_volume    693.982
_exptl_crystal_colour 'yellow'
_exptl_crystal_density_diffrn 1.58
_exptl_special_details
;
Absolute configuration

;
_exptl_crystal_description 'irregular shape'
_exptl_crystal_preparation 't-butyl methyl ether/petroleum ether'
_diffrn_ambient_temperature 300
#These two values have been output from a single CSD field.
_refine_ls_R_factor_gt 0.0257
_refine_ls_wR_factor_gt 0.0257
loop_
_citation_database_id_CSD
_citation_special_details
NAZKUV "is a racemate of this entry"
_symmetry_cell_setting monoclinic
_symmetry_space_group_name_H-M 'P 21'
_symmetry_Int_Tables_number 4
loop_
_symmetry_equiv_pos_site_id
_symmetry_equiv_pos_as_xyz
1 x,y,z
2 -x,1/2+y,-z
_cell_length_a 8.815(2)
_cell_length_b 7.140(1)
_cell_length_c 11.595(2)
_cell_angle_alpha 90
_cell_angle_beta 108.02(2)
_cell_angle_gamma 90
_cell_formula_units_Z 2
loop_
_atom_type_symbol
_atom_type_radius_bond
C 0.68
H 0.23
Cr 1.35
O 0.68
loop_
_atom_site_label
_atom_site_type_symbol
_atom_site_fract_x
_atom_site_fract_y
_atom_site_fract_z
Cr1 Cr 0.25552(4) 0.14298(5) 0.17378(3)
O1 O 0.5987(2) 0.4912(3) 0.2613(2)
H1 H 0.5827(38) 0.4845(53) 0.3249(31)
O2 O 0.6366(2) 0.2557(2) 0.43627(13)
O3 O 0.8672(2) 0.1681(3) 0.39357(14)
O4 O -0.0762(3) 0.0083(4) 0.1416(2)
O5 O 0.1249(3) 0.5285(3) 0.1730(2)
O6 O 0.3072(2) 0.1409(4) 0.44057(12)
C1 C 0.6351(3) 0.3071(3) 0.2366(2)
H2 H 0.7167(3) 0.3140(3) 0.1954(2)
C2 C 0.7007(2) 0.1786(3) 0.3493(2)
C3 C 0.6379(3) -0.0175(4) 0.3091(2)
H3 H 0.7184(3) -0.0924(4) 0.2895(2)
H4 H 0.6063(3) -0.0803(4) 0.3722(2)
C4 C 0.4970(3) 0.0130(4) 0.1990(2)
C5 C 0.3794(3) -0.1145(4) 0.1379(2)
H5 H 0.3788(3) -0.2357(4) 0.1671(2)
C6 C 0.2624(3) -0.0564(4) 0.0318(2)
H6 H 0.1826(3) -0.1396(4) -0.0090(2)
C7 C 0.2639(3) 0.1257(6) -0.0137(2)
H7 H 0.1885(3) 0.1602(6) -0.0862(2)
C8 C 0.3785(3) 0.2554(4) 0.0498(2)
H8 H 0.3764(3) 0.3778(4) 0.0220(2)
C9 C 0.4974(3) 0.1978(3) 0.1568(2)
C10 C 0.6877(3) 0.1710(5) 0.5530(2)
H9 H 0.6379(3) 0.2329(5) 0.6053(2)
H10 H 0.8015(3) 0.1819(5) 0.5864(2)
H11 H 0.6583(3) 0.0411(5) 0.5461(2)
C11 C 0.9460(3) 0.3433(4) 0.4292(3)
H12 H 1.0592(3) 0.3236(4) 0.4583(3)
H13 H 0.9113(3) 0.3976(4) 0.4925(3)
H14 H 0.9204(3) 0.4264(4) 0.3608(3)
C12 C 0.0544(3) 0.0587(4) 0.1548(2)
C13 C 0.1764(3) 0.3796(4) 0.1740(2)
C14 C 0.2913(2) 0.1384(5) 0.3382(2)
#END
