
#######################################################################
#
#                 Cambridge Crystallographic Data Centre
#                                CCDC
#
#######################################################################
#
# If this CIF has been generated from an entry in the Cambridge
# Structural Database, then it will include bibliographic, chemical,
# crystal, experimental, refinement or atomic coordinate data resulting
# from the CCDC's data processing and validation procedures.
#
#######################################################################

data_CSD_CIF_NENQON
_audit_creation_date 2006-11-27
_audit_creation_method CSD-ConQuest-V1
_database_code_CSD NENQON
_database_code_depnum_ccdc_archive 'CCDC 600446'
_chemical_formula_sum 'C28 H20 Cl6 Fe1 N4'
_chemical_formula_moiety
;
C26 H18 Fe1 N4,2(C1 H1 Cl3)
;
_journal_coden_Cambridge 579
_journal_volume 25
_journal_year 2006
_journal_page_first 2914
_journal_name_full 'Organometallics '
loop_
_publ_author_name
"N.Sadhukhan"
"S.K.Patra"
"K.Sana"
"J.K.Bera"
_chemical_name_systematic
;
1,1'-bis(1,8-Naphthyrid-2-yl)ferrocene chloroform solvate
;
_cell_volume    682.204
_exptl_crystal_density_diffrn 1.658
_diffrn_ambient_temperature 100
#These two values have been output from a single CSD field.
_refine_ls_R_factor_gt 0.0354
_refine_ls_wR_factor_gt 0.0354
_symmetry_cell_setting triclinic
_symmetry_space_group_name_H-M 'P -1'
_symmetry_Int_Tables_number 2
loop_
_symmetry_equiv_pos_site_id
_symmetry_equiv_pos_as_xyz
1 x,y,z
2 -x,-y,-z
_cell_length_a 6.254(5)
_cell_length_b 8.277(5)
_cell_length_c 13.294(5)
_cell_angle_alpha 83.973(5)
_cell_angle_beta 85.470(5)
_cell_angle_gamma 89.826(5)
_cell_formula_units_Z 1
loop_
_atom_type_symbol
_atom_type_radius_bond
C 0.68
H 0.23
Cl 0.99
Fe 1.34
N 0.68
loop_
_atom_site_label
_atom_site_type_symbol
_atom_site_fract_x
_atom_site_fract_y
_atom_site_fract_z
Fe1 Fe 0.50000 0.50000 0.50000
Cl1 Cl 0.60764(8) 0.40811(7) 0.11332(4)
Cl2 Cl 0.97483(10) 0.50730(7) 0.21217(4)
Cl3 Cl 1.02958(8) 0.28214(7) 0.06051(4)
N1 N 0.5720(2) 0.12030(18) 0.34444(12)
N2 N 0.6467(3) -0.0095(2) 0.20139(12)
C1 C 0.4340(3) 0.1641(2) 0.41746(14)
C2 C 0.5620(3) 0.3825(2) 0.63805(15)
C3 C 0.2110(3) -0.0871(2) 0.19115(15)
C4 C 0.4948(3) 0.0366(2) 0.27205(14)
C5 C 0.2741(3) -0.0007(2) 0.27000(14)
C6 C 0.5792(3) -0.0921(3) 0.12989(15)
C7 C 0.3642(4) -0.1340(3) 0.12134(16)
C8 C 0.5222(3) 0.2538(2) 0.49439(14)
C9 C 0.4178(3) 0.2910(2) 0.58942(14)
C10 C 0.2112(3) 0.1284(2) 0.42255(15)
C11 C 0.1315(3) 0.0494(2) 0.34900(15)
C12 C 0.7552(3) 0.4050(2) 0.57385(15)
C13 C 0.8556(3) 0.3465(3) 0.15892(15)
C14 C 0.7309(3) 0.3261(2) 0.48518(14)
H1 H 0.280(4) 0.256(3) 0.6155(17)
H2 H 0.826(4) 0.259(3) 0.2120(18)
H3 H 0.072(4) -0.105(3) 0.1920(18)
H4 H 0.690(4) -0.125(3) 0.0829(18)
H5 H 0.121(4) 0.162(3) 0.4772(18)
H6 H 0.879(4) 0.467(3) 0.5874(18)
H7 H 0.836(4) 0.331(3) 0.4263(17)
H8 H 0.540(4) 0.424(3) 0.702(2)
H9 H -0.018(4) 0.032(3) 0.3532(19)
H10 H 0.333(5) -0.189(4) 0.072(2)
N1A N 0.4280(2) 0.87970(18) 0.65556(12)
N2A N 0.3533(3) 1.0095(2) 0.79861(12)
C1A C 0.5660(3) 0.8359(2) 0.58254(14)
C2A C 0.4380(3) 0.6175(2) 0.36195(15)
C3A C 0.7890(3) 1.0871(2) 0.80885(15)
C4A C 0.5052(3) 0.9634(2) 0.72795(14)
C5A C 0.7259(3) 1.0007(2) 0.73000(14)
C6A C 0.4208(3) 1.0921(3) 0.87011(15)
C7A C 0.6358(4) 1.1340(3) 0.87866(16)
C8A C 0.4778(3) 0.7462(2) 0.50561(14)
C9A C 0.5822(3) 0.7090(2) 0.41058(14)
C10A C 0.7888(3) 0.8716(2) 0.57745(15)
C11A C 0.8685(3) 0.9506(2) 0.65100(15)
C12A C 0.2448(3) 0.5950(2) 0.42615(15)
C14A C 0.2691(3) 0.6739(2) 0.51482(14)
H1A H 0.720(4) 0.744(3) 0.3845(17)
H3A H 0.928(4) 1.105(3) 0.8080(18)
H4A H 0.310(4) 1.125(3) 0.9171(18)
H5A H 0.879(4) 0.838(3) 0.5228(18)
H6A H 0.121(4) 0.533(3) 0.4126(18)
H7A H 0.164(4) 0.669(3) 0.5737(17)
H8A H 0.460(4) 0.576(3) 0.298(2)
H9A H 1.018(4) 0.968(3) 0.6468(19)
H10A H 0.667(5) 1.189(4) 0.928(2)
#END
