
#######################################################################
#
#                 Cambridge Crystallographic Data Centre
#                                CCDC
#
#######################################################################
#
# If this CIF has been generated from an entry in the Cambridge
# Structural Database, then it will include bibliographic, chemical,
# crystal, experimental, refinement or atomic coordinate data resulting
# from the CCDC's data processing and validation procedures.
#
#######################################################################

data_CSD_CIF_NEPLAW
_audit_creation_date 2006-11-27
_audit_creation_method CSD-ConQuest-V1
_database_code_CSD NEPLAW
_database_code_depnum_ccdc_archive 'CCDC 609591'
_chemical_formula_sum 'C22 H22 Mn1 N12 O2'
_chemical_formula_moiety
;
C22 H22 Mn1 N12 O2
;
_journal_coden_Cambridge 702
_journal_volume 22
_journal_year 2006
_journal_page_first 1426
_journal_name_full 'Wuji Huaxue Xuebao(Chin.)(Chin.J.Inorg.Chem.) '
loop_
_publ_author_name
"Ling-Ling Zheng"
"Cheng-Kang Tan"
"Ming-Liang Tong"
_chemical_name_systematic
;
diaqua-bis(dicyanamido)-bis(4-(1H-imidazol-1-yl)aniline-N^3^)-manganese(ii)
;
_cell_volume    608.373
_exptl_crystal_colour 'pale yellow'
_exptl_crystal_density_diffrn 1.478
_exptl_crystal_description 'block'
_diffrn_ambient_temperature 293
#These two values have been output from a single CSD field.
_refine_ls_R_factor_gt 0.0345
_refine_ls_wR_factor_gt 0.0345
_symmetry_cell_setting triclinic
_symmetry_space_group_name_H-M 'P -1'
_symmetry_Int_Tables_number 2
loop_
_symmetry_equiv_pos_site_id
_symmetry_equiv_pos_as_xyz
1 x,y,z
2 -x,-y,-z
_cell_length_a 7.5198(7)
_cell_length_b 9.0173(9)
_cell_length_c 9.8779(9)
_cell_angle_alpha 73.078(2)
_cell_angle_beta 87.788(2)
_cell_angle_gamma 71.974(2)
_cell_formula_units_Z 1
loop_
_atom_type_symbol
_atom_type_radius_bond
C 0.68
H 0.23
Mn 1.35
N 0.68
O 0.68
loop_
_atom_site_label
_atom_site_type_symbol
_atom_site_fract_x
_atom_site_fract_y
_atom_site_fract_z
Mn1 Mn 0.00000 0.00000 0.00000
O1 O -0.2035(2) -0.07879(18) -0.09201(12)
H1 H -0.261(3) -0.144(2) -0.0456(19)
H2 H -0.184(3) -0.093(3) -0.1724(13)
N1 N 0.2030(2) -0.0797(2) -0.15293(15)
N2 N 0.3338(2) -0.0763(2) -0.38206(16)
N3 N 0.1811(3) 0.0642(2) -0.61883(16)
N4 N -0.1061(2) 0.24705(17) -0.15649(14)
N5 N -0.20351(19) 0.43858(15) -0.35990(13)
N6 N -0.4261(3) 0.7304(2) -0.93890(17)
H3 H -0.432(4) 0.657(3) -0.986(2)
H4 H -0.539(2) 0.810(3) -0.955(3)
C1 C 0.2550(2) -0.0736(2) -0.26445(16)
C2 C 0.2441(3) 0.0016(2) -0.50538(17)
C3 C -0.1398(2) 0.27808(19) -0.29324(16)
H5 H -0.12150 0.19780 -0.33860
C4 C -0.1515(4) 0.3962(2) -0.13471(19)
H6 H -0.14210 0.41360 -0.04730
C5 C -0.2117(4) 0.5148(2) -0.2573(2)
H7 H -0.25120 0.62660 -0.27000
C6 C -0.2568(2) 0.51241(18) -0.50754(15)
C7 C -0.2068(3) 0.4225(2) -0.60084(19)
H8 H -0.13240 0.31400 -0.56920
C8 C -0.2667(4) 0.4929(2) -0.74238(19)
H9 H -0.23570 0.42990 -0.80460
C9 C -0.3715(2) 0.6548(2) -0.79227(17)
C10 C -0.4150(3) 0.7445(2) -0.6983(2)
H10 H -0.48290 0.85470 -0.73080
C11 C -0.3601(3) 0.6746(2) -0.55607(19)
H11 H -0.39290 0.73700 -0.49350
O1A O 0.2035(2) 0.07879(18) 0.09201(12)
H1A H 0.261(3) 0.144(2) 0.0456(19)
H2A H 0.184(3) 0.093(3) 0.1724(13)
N1A N -0.2030(2) 0.0797(2) 0.15293(15)
N2A N -0.3338(2) 0.0763(2) 0.38206(16)
N3A N -0.1811(3) -0.0642(2) 0.61883(16)
N4A N 0.1061(2) -0.24705(17) 0.15649(14)
N5A N 0.20351(19) -0.43858(15) 0.35990(13)
N6A N 0.4261(3) -0.7304(2) 0.93890(17)
H3A H 0.432(4) -0.657(3) 0.986(2)
H4A H 0.539(2) -0.810(3) 0.955(3)
C1A C -0.2550(2) 0.0736(2) 0.26445(16)
C2A C -0.2441(3) -0.0016(2) 0.50538(17)
C3A C 0.1398(2) -0.27808(19) 0.29324(16)
H5A H 0.12150 -0.19780 0.33860
C4A C 0.1515(4) -0.3962(2) 0.13471(19)
H6A H 0.14210 -0.41360 0.04730
C5A C 0.2117(4) -0.5148(2) 0.2573(2)
H7A H 0.25120 -0.62660 0.27000
C6A C 0.2568(2) -0.51241(18) 0.50754(15)
C7A C 0.2068(3) -0.4225(2) 0.60084(19)
H8A H 0.13240 -0.31400 0.56920
C8A C 0.2667(4) -0.4929(2) 0.74238(19)
H9A H 0.23570 -0.42990 0.80460
C9A C 0.3715(2) -0.6548(2) 0.79227(17)
C10A C 0.4150(3) -0.7445(2) 0.6983(2)
H10A H 0.48290 -0.85470 0.73080
C11A C 0.3601(3) -0.6746(2) 0.55607(19)
H11A H 0.39290 -0.73700 0.49350
#END
