
#######################################################################
#
#                 Cambridge Crystallographic Data Centre
#                                CCDC
#
#######################################################################
#
# If this CIF has been generated from an entry in the Cambridge
# Structural Database, then it will include bibliographic, chemical,
# crystal, experimental, refinement or atomic coordinate data resulting
# from the CCDC's data processing and validation procedures.
#
#######################################################################

data_CSD_CIF_NEPTAF
_audit_creation_date 2013-02-22
_audit_creation_method CSD-ConQuest-V1
_database_code_CSD NEPTAF
_database_code_depnum_ccdc_archive 'CCDC 645727'
_chemical_formula_sum 'C10 H14 Mn1 N4 O8'
_chemical_formula_moiety
;
C10 H14 Mn1 N4 O8
;
_journal_coeditor_code "IUCr BR2215"
_journal_coden_Cambridge 1370
_journal_volume 69
_journal_year 2013
_journal_page_first m9
_journal_name_full 'Acta Crystallogr.,Sect.E:Struct.Rep.Online '
loop_
_publ_author_name
"N.Alam"
"M.Shahid"
"M.K.Rauf"
_chemical_name_systematic
;
trans-Diaqua-bis(nitrato-O)-bis(pyridine-N)-manganese(ii)
;
_chemical_melting_point 373
_cell_volume    764.914
_exptl_crystal_colour 'colorless'
_exptl_crystal_density_diffrn 1.62
_exptl_crystal_description 'block'
_diffrn_ambient_temperature 100
#These two values have been output from a single CSD field.
_refine_ls_R_factor_gt 0.0227
_refine_ls_wR_factor_gt 0.0227
_symmetry_cell_setting monoclinic
_symmetry_space_group_name_H-M 'P 21/c'
_symmetry_Int_Tables_number 14
loop_
_symmetry_equiv_pos_site_id
_symmetry_equiv_pos_as_xyz
1 x,y,z
2 -x,1/2+y,1/2-z
3 -x,-y,-z
4 x,-1/2-y,-1/2+z
_cell_length_a 8.8988(7)
_cell_length_b 11.8668(10)
_cell_length_c 7.5950(6)
_cell_angle_alpha 90
_cell_angle_beta 107.500(1)
_cell_angle_gamma 90
_cell_formula_units_Z 2
loop_
_atom_type_symbol
_atom_type_radius_bond
C 0.68
H 0.23
Mn 1.61
N 0.68
O 0.68
loop_
_atom_site_label
_atom_site_type_symbol
_atom_site_fract_x
_atom_site_fract_y
_atom_site_fract_z
C1 C 0.73516(12) 0.28979(9) 0.04145(16)
H1 H 0.63970 0.25000 -0.01210
C2 C 0.87624(13) 0.23034(10) 0.08651(17)
H2 H 0.87680 0.15170 0.06360
C3 C 1.01597(13) 0.28769(10) 0.16539(17)
H3 H 1.11400 0.24910 0.19750
C4 C 1.01000(13) 0.4025(1) 0.19649(16)
H4 H 1.10380 0.44400 0.25070
C5 C 0.86473(13) 0.45545(9) 0.14696(15)
H5 H 0.86140 0.53420 0.16810
Mn1 Mn 0.50000 0.50000 0.00000
N1 N 0.72797(10) 0.40102(8) 0.07038(12)
N2 N 0.62538(9) 0.58526(7) 0.40827(11)
O1 O 0.38723(9) 0.37524(6) 0.1226(1)
H6 H 0.3806(18) 0.3081(12) 0.085(2)
H7 H 0.3892(18) 0.3773(14) 0.2317(19)
O2 O 0.58830(9) 0.61467(7) 0.23972(10)
O3 O 0.6486(1) 0.48619(6) 0.45430(12)
O4 O 0.63944(9) 0.66239(6) 0.52668(10)
C1B C 0.26484(12) 0.71021(9) -0.04145(16)
H1B H 0.36030 0.75000 0.01210
C2B C 0.12376(13) 0.76966(10) -0.08651(17)
H2B H 0.12320 0.84830 -0.06360
C3B C -0.01597(13) 0.71231(10) -0.16539(17)
H3B H -0.11400 0.75090 -0.19750
C4B C -0.01000(13) 0.5975(1) -0.19649(16)
H4B H -0.10380 0.55600 -0.25070
C5B C 0.13527(13) 0.54455(9) -0.14696(15)
H5B H 0.13860 0.46580 -0.16810
N1B N 0.27203(10) 0.59898(8) -0.07038(12)
N2B N 0.37462(9) 0.41474(7) -0.40827(11)
O1B O 0.61277(9) 0.62476(6) -0.1226(1)
H6B H 0.6194(18) 0.6919(12) -0.085(2)
H7B H 0.6108(18) 0.6227(14) -0.2317(19)
O2B O 0.41170(9) 0.38533(7) -0.23972(10)
O3B O 0.3514(1) 0.51381(6) -0.45430(12)
O4B O 0.36056(9) 0.33761(6) -0.52668(10)
#END
