
#######################################################################
#
#                 Cambridge Crystallographic Data Centre
#                                CCDC
#
#######################################################################
#
# If this CIF has been generated from an entry in the Cambridge
# Structural Database, then it will include bibliographic, chemical,
# crystal, experimental, refinement or atomic coordinate data resulting
# from the CCDC's data processing and validation procedures.
#
#######################################################################

data_CSD_CIF_NESZUJ
_audit_creation_date 2017-12-07
_audit_creation_method CSD-ConQuest-V1
_database_code_CSD NESZUJ
_database_code_depnum_ccdc_archive 'CCDC 1057746'
_chemical_formula_sum 'C15 H16 Br2 Mn1 N4 O2'
_chemical_formula_moiety
;
C15 H16 Br2 Mn1 N4 O2
;
_journal_coden_Cambridge 580
_journal_volume 141
_journal_year 2018
_journal_page_first 125
_journal_name_full 'Polyhedron '
loop_
_publ_author_name
"D.Marcinkowski"
"M.A.Fik"
"T.Luczak"
"M.Kubicki"
"V.Patroniak"
_chemical_name_systematic
;
dibromo-methanol-(2-{1-methyl-2-[(pyridin-2-yl)methylidene]hydrazinyl}-1,3-ben
zoxazole)-manganese
;
_cell_volume    854.678
_exptl_crystal_colour 'colorless'
_exptl_crystal_density_diffrn 1.939
_exptl_crystal_description 'block'
_diffrn_ambient_temperature 100
#These two values have been output from a single CSD field.
_refine_ls_R_factor_gt 0.0625
_refine_ls_wR_factor_gt 0.0625
_symmetry_cell_setting triclinic
_symmetry_space_group_name_H-M 'P -1'
_symmetry_Int_Tables_number 2
loop_
_symmetry_equiv_pos_site_id
_symmetry_equiv_pos_as_xyz
1 x,y,z
2 -x,-y,-z
_cell_length_a 6.9932(11)
_cell_length_b 9.3269(15)
_cell_length_c 14.4133(17)
_cell_angle_alpha 79.227(12)
_cell_angle_beta 76.925(12)
_cell_angle_gamma 70.070(15)
_cell_formula_units_Z 2
loop_
_atom_type_symbol
_atom_type_radius_bond
C 0.68
H 0.23
Br 1.21
Mn 1.61
N 0.68
O 0.68
loop_
_atom_site_label
_atom_site_type_symbol
_atom_site_fract_x
_atom_site_fract_y
_atom_site_fract_z
Mn1 Mn 0.52001(15) 0.26648(11) 0.23315(7)
O1 O 0.2332(7) 0.0874(5) 0.5064(3)
C1 C 0.3218(9) 0.1086(8) 0.4136(5)
N1 N 0.3559(8) 0.2418(6) 0.3840(4)
C2 C 0.2852(9) 0.3192(8) 0.4657(5)
C3 C 0.2833(9) 0.4609(8) 0.4802(5)
H1 H 0.33460 0.52720 0.42980
C4 C 0.2028(10) 0.5028(8) 0.5720(5)
H2 H 0.19870 0.60030 0.58480
C5 C 0.1275(10) 0.4047(8) 0.6464(5)
H3 H 0.07410 0.43730 0.70840
C6 C 0.129(1) 0.2613(8) 0.6318(5)
H4 H 0.07930 0.19350 0.68160
C7 C 0.2077(10) 0.2248(8) 0.5399(5)
N2 N 0.3800(8) -0.0088(6) 0.3604(4)
C8 C 0.3208(10) -0.1493(7) 0.3911(5)
H5 H 0.24320 -0.14680 0.45690
H6 H 0.44530 -0.23900 0.38880
H7 H 0.23430 -0.15590 0.34830
N3 N 0.4751(8) 0.0262(6) 0.2710(4)
C9 C 0.5425(10) -0.0688(8) 0.2086(5)
H8 H 0.53100 -0.16950 0.22290
C10 C 0.639(1) -0.0124(8) 0.1133(5)
N4 N 0.6381(8) 0.1333(6) 0.1016(4)
C11 C 0.7128(10) 0.1902(8) 0.0126(5)
H9 H 0.70850 0.29480 0.00100
C12 C 0.7957(9) 0.1002(8) -0.0626(5)
H10 H 0.84760 0.14400 -0.12400
C13 C 0.8031(10) -0.0479(8) -0.0490(5)
H11 H 0.86050 -0.11010 -0.09990
C14 C 0.7238(10) -0.1078(8) 0.0422(5)
H12 H 0.72830 -0.21250 0.05490
Br1 Br 0.53308(11) 0.53732(8) 0.17794(6)
Br2 Br 0.88546(10) 0.14880(8) 0.29047(5)
O2 O 0.2078(7) 0.3336(6) 0.1896(4)
H13 H 0.11160 0.28760 0.23000
C15 C 0.1375(11) 0.4350(8) 0.1100(5)
H14 H 0.08970 0.54090 0.12540
H15 H 0.02320 0.41110 0.09440
H16 H 0.25080 0.42350 0.05480
#END
