
#######################################################################
#
#                 Cambridge Crystallographic Data Centre
#                                CCDC
#
#######################################################################
#
# If this CIF has been generated from an entry in the Cambridge
# Structural Database, then it will include bibliographic, chemical,
# crystal, experimental, refinement or atomic coordinate data resulting
# from the CCDC's data processing and validation procedures.
#
#######################################################################

data_CSD_CIF_NETBIA
_audit_creation_date 2017-12-07
_audit_creation_method CSD-ConQuest-V1
_database_code_CSD NETBIA
_database_code_depnum_ccdc_archive 'CCDC 1559508'
_chemical_formula_sum 'C14 H12 Cl2 Mn1 N4 O1'
_chemical_formula_moiety
;
C14 H12 Cl2 Mn1 N4 O1
;
_journal_coden_Cambridge 580
_journal_volume 141
_journal_year 2018
_journal_page_first 125
_journal_name_full 'Polyhedron '
loop_
_publ_author_name
"D.Marcinkowski"
"M.A.Fik"
"T.Luczak"
"M.Kubicki"
"V.Patroniak"
_chemical_name_systematic
;
dichloro-(2-{1-methyl-2-[(pyridin-2-yl)methylidene]hydrazinyl}-1,3-benzoxazole
)-manganese(ii)
;
_cell_volume    741.638
_exptl_crystal_colour 'red'
_exptl_crystal_density_diffrn 1.693
_exptl_crystal_description 'prism'
_diffrn_ambient_temperature 130
#These two values have been output from a single CSD field.
_refine_ls_R_factor_gt 0.0504
_refine_ls_wR_factor_gt 0.0504
_symmetry_cell_setting triclinic
_symmetry_space_group_name_H-M 'P -1'
_symmetry_Int_Tables_number 2
loop_
_symmetry_equiv_pos_site_id
_symmetry_equiv_pos_as_xyz
1 x,y,z
2 -x,-y,-z
_cell_length_a 7.2384(5)
_cell_length_b 7.4065(5)
_cell_length_c 14.8532(10)
_cell_angle_alpha 75.822(5)
_cell_angle_beta 75.956(6)
_cell_angle_gamma 79.007(5)
_cell_formula_units_Z 2
loop_
_atom_type_symbol
_atom_type_radius_bond
C 0.68
H 0.23
Cl 0.99
Mn 1.61
N 0.68
O 0.68
loop_
_atom_site_label
_atom_site_type_symbol
_atom_site_fract_x
_atom_site_fract_y
_atom_site_fract_z
Mn1 Mn 0.50969(7) 0.55567(7) 0.23239(3)
O1 O 0.1646(3) 0.7275(3) 0.48521(16)
C1 C 0.2744(5) 0.7217(5) 0.3985(2)
N1 N 0.3641(4) 0.5582(4) 0.38451(19)
C2 C 0.3129(5) 0.4364(5) 0.4718(2)
C3 C 0.3640(5) 0.2442(5) 0.5028(2)
H1 H 0.44980 0.17000 0.46220
C4 C 0.2840(5) 0.1656(5) 0.5960(3)
H2 H 0.31520 0.03450 0.61910
C5 C 0.1588(5) 0.2737(5) 0.6568(2)
H3 H 0.10720 0.21440 0.72000
C6 C 0.1081(5) 0.4672(5) 0.6266(2)
H4 H 0.02400 0.54260 0.66710
C7 C 0.1887(5) 0.5408(5) 0.5339(2)
N2 N 0.2869(4) 0.8847(4) 0.3336(2)
C8 C 0.1788(5) 1.0681(5) 0.3456(3)
H5 H 0.09640 1.05600 0.40910
H6 H 0.09890 1.11420 0.29780
H7 H 0.26860 1.15710 0.33790
N3 N 0.4165(4) 0.8579(4) 0.25224(19)
C9 C 0.4707(5) 0.9945(5) 0.1858(2)
H8 H 0.42240 1.12210 0.18850
C10 C 0.6135(5) 0.9393(5) 0.1049(2)
N4 N 0.6641(4) 0.7532(4) 0.1094(2)
C11 C 0.7882(5) 0.6973(5) 0.0348(3)
H9 H 0.82390 0.56640 0.03670
C12 C 0.8669(5) 0.8241(5) -0.0456(2)
H10 H 0.95270 0.78020 -0.09770
C13 C 0.8177(5) 1.0126(5) -0.0476(2)
H11 H 0.87240 1.10120 -0.10070
C14 C 0.6877(5) 1.0744(5) 0.0281(2)
H12 H 0.65050 1.20480 0.02740
Cl1 Cl 0.26572(12) 0.50395(11) 0.16409(6)
Cl2 Cl 0.73235(11) 0.27823(11) 0.24241(6)
#END
