
#######################################################################
#
#                 Cambridge Crystallographic Data Centre
#                                CCDC
#
#######################################################################
#
# If this CIF has been generated from an entry in the Cambridge
# Structural Database, then it will include bibliographic, chemical,
# crystal, experimental, refinement or atomic coordinate data resulting
# from the CCDC's data processing and validation procedures.
#
#######################################################################

data_CSD_CIF_NETGEA01
_audit_creation_date 2013-04-24
_audit_creation_method CSD-ConQuest-V1
_database_code_CSD NETGEA01
_database_code_depnum_ccdc_archive 'CCDC 860851'
_chemical_formula_sum 'C30 H22 Fe1 N12 S2'
_chemical_formula_moiety
;
C30 H22 Fe1 N12 S2
;
_journal_coden_Cambridge 154
_journal_volume 65
_journal_year 2012
_journal_page_first 842
_journal_name_full 'Aust.J.Chem. '
loop_
_publ_author_name
"R.S.Crees"
"B.Moubaraki"
"K.S.Murray"
"C.J.Sumby"
_chemical_name_systematic
;
bis(N,N-bis(pyridin-2-yl)pyrimidin-2-amine)-bis(isothiocyanato)-iron(ii)
;
_cell_volume    770.837
_exptl_crystal_colour 'yellow'
_exptl_crystal_density_diffrn 1.445
_exptl_special_details
;
high-spin state
spin-crossover phase-transition at 205 K

;
_exptl_crystal_description 'rod'
_diffrn_ambient_temperature 296
#These two values have been output from a single CSD field.
_refine_ls_R_factor_gt 0.037
_refine_ls_wR_factor_gt 0.037
_symmetry_cell_setting triclinic
_symmetry_space_group_name_H-M 'P -1'
_symmetry_Int_Tables_number 2
loop_
_symmetry_equiv_pos_site_id
_symmetry_equiv_pos_as_xyz
1 x,y,z
2 -x,-y,-z
_cell_length_a 8.6951(5)
_cell_length_b 8.7849(5)
_cell_length_c 10.4062(5)
_cell_angle_alpha 88.082(4)
_cell_angle_beta 80.082(4)
_cell_angle_gamma 79.888(5)
_cell_formula_units_Z 1
loop_
_atom_type_symbol
_atom_type_radius_bond
C 0.68
H 0.23
Fe 1.52
N 0.68
S 1.02
loop_
_atom_site_label
_atom_site_type_symbol
_atom_site_fract_x
_atom_site_fract_y
_atom_site_fract_z
Fe1 Fe 0.00000 0.00000 0.00000
N1 N -0.25159(19) -0.24086(19) 0.36231(15)
C1 C -0.2475(2) -0.0909(2) 0.35879(18)
N2 N -0.2088(2) -0.0069(2) 0.44824(17)
C2 C -0.1657(3) -0.0871(3) 0.5514(2)
H1 H -0.13760 -0.03290 0.61890
C3 C -0.1599(3) -0.2424(3) 0.5647(2)
H2 H -0.12600 -0.29760 0.63780
C4 C -0.2056(3) -0.3149(3) 0.4666(2)
H3 H -0.20430 -0.42320 0.47330
N3 N -0.28260(17) -0.01250(17) 0.24558(14)
N4 N -0.21610(17) -0.10318(16) 0.02955(14)
C5 C -0.3189(2) -0.0939(2) 0.14079(17)
C6 C -0.4555(2) -0.1563(2) 0.15616(19)
H4 H -0.52790 -0.14530 0.23620
C7 C -0.4855(2) -0.2348(2) 0.0535(2)
H5 H -0.57750 -0.28130 0.06260
C8 C -0.3811(2) -0.2453(2) -0.0620(2)
H6 H -0.39910 -0.29890 -0.13430
C9 C -0.2511(2) -0.1768(2) -0.07034(18)
H7 H -0.18090 -0.18110 -0.15140
N5 N -0.15547(18) 0.17995(16) 0.13175(15)
C10 C -0.2663(2) 0.1464(2) 0.22773(18)
C11 C -0.3666(2) 0.2583(2) 0.3075(2)
H8 H -0.44520 0.23070 0.37510
C12 C -0.3495(3) 0.4105(3) 0.2862(2)
H9 H -0.41590 0.48990 0.33960
C13 C -0.2357(3) 0.4460(2) 0.1873(2)
H10 H -0.22110 0.55020 0.17160
C14 C -0.1437(2) 0.3299(2) 0.1118(2)
H11 H -0.06740 0.35590 0.04150
N6 N 0.07718(18) -0.12820(19) 0.15770(15)
C15 C 0.1291(2) -0.2334(2) 0.21541(19)
S1 S 0.20575(9) -0.37947(9) 0.29498(8)
N1A N 0.25159(19) 0.24086(19) -0.36231(15)
C1A C 0.2475(2) 0.0909(2) -0.35879(18)
N2A N 0.2088(2) 0.0069(2) -0.44824(17)
C2A C 0.1657(3) 0.0871(3) -0.5514(2)
H1A H 0.13760 0.03290 -0.61890
C3A C 0.1599(3) 0.2424(3) -0.5647(2)
H2A H 0.12600 0.29760 -0.63780
C4A C 0.2056(3) 0.3149(3) -0.4666(2)
H3A H 0.20430 0.42320 -0.47330
N3A N 0.28260(17) 0.01250(17) -0.24558(14)
N4A N 0.21610(17) 0.10318(16) -0.02955(14)
C5A C 0.3189(2) 0.0939(2) -0.14079(17)
C6A C 0.4555(2) 0.1563(2) -0.15616(19)
H4A H 0.52790 0.14530 -0.23620
C7A C 0.4855(2) 0.2348(2) -0.0535(2)
H5A H 0.57750 0.28130 -0.06260
C8A C 0.3811(2) 0.2453(2) 0.0620(2)
H6A H 0.39910 0.29890 0.13430
C9A C 0.2511(2) 0.1768(2) 0.07034(18)
H7A H 0.18090 0.18110 0.15140
N5A N 0.15547(18) -0.17995(16) -0.13175(15)
C10A C 0.2663(2) -0.1464(2) -0.22773(18)
C11A C 0.3666(2) -0.2583(2) -0.3075(2)
H8A H 0.44520 -0.23070 -0.37510
C12A C 0.3495(3) -0.4105(3) -0.2862(2)
H9A H 0.41590 -0.48990 -0.33960
C13A C 0.2357(3) -0.4460(2) -0.1873(2)
H10A H 0.22110 -0.55020 -0.17160
C14A C 0.1437(2) -0.3299(2) -0.1118(2)
H11A H 0.06740 -0.35590 -0.04150
N6A N -0.07718(18) 0.12820(19) -0.15770(15)
C15A C -0.1291(2) 0.2334(2) -0.21541(19)
S1A S -0.20575(9) 0.37947(9) -0.29498(8)
#END
