
#######################################################################
#
#                 Cambridge Crystallographic Data Centre
#                                CCDC
#
#######################################################################
#
# If this CIF has been generated from an entry in the Cambridge
# Structural Database, then it will include bibliographic, chemical,
# crystal, experimental, refinement or atomic coordinate data resulting
# from the CCDC's data processing and validation procedures.
#
#######################################################################

data_CSD_CIF_NEVROV
_audit_creation_date 1998-04-30
_audit_creation_method CSD-ConQuest-V1
_database_code_CSD NEVROV
_chemical_formula_sum 'C18 H24 Cr1 N2 O3'
_chemical_formula_moiety
;
C18 H24 Cr1 N2 O3
;
_journal_coden_Cambridge 579
_journal_volume 16
_journal_year 1997
_journal_page_first 3569
_journal_name_full 'Organometallics '
loop_
_publ_author_name
"J.Kuzelka"
"P.Legzdins"
"S.J.Rettig"
"K.M.Smith"
_chemical_name_systematic
;
(\h^5^-Cyclopentadienyl)-(benzoato-O)-di-isopropylamido-nitrosyl-chromium(ii)
;
_cell_volume    921.999
_exptl_crystal_colour 'brown'
_exptl_crystal_density_diffrn 1.327
_exptl_crystal_description 'plate'
_exptl_crystal_preparation 'diethyl ether'
_diffrn_ambient_temperature ?
_diffrn_special_details
;
The study was carried out at room temperature,in the range 283-303K

;
#These two values have been output from a single CSD field.
_refine_ls_R_factor_gt 0.032
_refine_ls_wR_factor_gt 0.032
_symmetry_cell_setting triclinic
_symmetry_space_group_name_H-M 'P -1'
_symmetry_Int_Tables_number 2
loop_
_symmetry_equiv_pos_site_id
_symmetry_equiv_pos_as_xyz
1 x,y,z
2 -x,-y,-z
_cell_length_a 9.6028(7)
_cell_length_b 11.292(1)
_cell_length_c 8.954(1)
_cell_angle_alpha 95.786(10)
_cell_angle_beta 96.597(8)
_cell_angle_gamma 105.207(7)
_cell_formula_units_Z 2
loop_
_atom_type_symbol
_atom_type_radius_bond
C 0.68
H 0.23
Cr 1.35
N 0.68
O 0.68
loop_
_atom_site_label
_atom_site_type_symbol
_atom_site_fract_x
_atom_site_fract_y
_atom_site_fract_z
Cr1 Cr 0.09493(5) 0.26909(4) 0.26188(5)
O1 O 0.1844(2) 0.0980(2) 0.0661(3)
O2 O 0.2133(2) 0.4223(2) 0.2000(2)
O3 O 0.1464(3) 0.5592(2) 0.3541(2)
N1 N 0.1652(3) 0.1760(2) 0.1554(3)
N2 N 0.1952(2) 0.2672(2) 0.4491(2)
C1 C -0.1000(3) 0.3254(3) 0.1549(4)
C2 C -0.1092(3) 0.2051(4) 0.0939(3)
C3 C -0.1190(3) 0.1330(3) 0.2123(4)
C4 C -0.1218(3) 0.2086(3) 0.3446(3)
C5 C -0.1078(3) 0.3279(3) 0.3120(3)
C6 C 0.2160(3) 0.5333(3) 0.2559(3)
C7 C 0.3152(3) 0.6346(3) 0.1900(3)
C8 C 0.3294(3) 0.7566(3) 0.2447(3)
C9 C 0.4219(4) 0.8523(3) 0.1870(4)
C10 C 0.5003(4) 0.8259(3) 0.0757(4)
C11 C 0.4862(4) 0.7044(3) 0.0199(3)
C12 C 0.3938(3) 0.6095(3) 0.0765(3)
C13 C 0.3067(3) 0.2002(3) 0.4825(3)
C14 C 0.1701(3) 0.3378(3) 0.5877(3)
C15 C 0.4351(4) 0.2396(3) 0.3967(4)
C16 C 0.2385(4) 0.0605(3) 0.4539(4)
C17 C 0.3064(4) 0.4441(3) 0.6490(4)
C18 C 0.1204(4) 0.2584(3) 0.7109(3)
H1 H -0.08980 0.39660 0.09860
H2 H -0.10890 0.17600 -0.01290
H3 H -0.12320 0.04490 0.20390
H4 H -0.13200 0.18150 0.44440
H5 H -0.10410 0.40040 0.38400
H6 H 0.27400 0.77600 0.32470
H7 H 0.43090 0.93870 0.22590
H8 H 0.56640 0.89320 0.03590
H9 H 0.54180 0.68530 -0.06000
H10 H 0.38380 0.52330 0.03580
H11 H 0.34460 0.22220 0.59100
H12 H 0.09190 0.37510 0.55680
H13 H 0.40250 0.21380 0.28760
H14 H 0.47500 0.32990 0.41630
H15 H 0.51080 0.20050 0.43080
H16 H 0.16070 0.03800 0.51640
H17 H 0.19760 0.03530 0.34640
H18 H 0.31330 0.01850 0.48040
H19 H 0.38850 0.41040 0.67740
H20 H 0.32980 0.49770 0.57060
H21 H 0.28850 0.49230 0.73840
H22 H 0.09980 0.31030 0.79540
H23 H 0.03190 0.19220 0.66860
H24 H 0.19770 0.22190 0.74760
#END
