
#######################################################################
#
#                 Cambridge Crystallographic Data Centre
#                                CCDC
#
#######################################################################
#
# If this CIF has been generated from an entry in the Cambridge
# Structural Database, then it will include bibliographic, chemical,
# crystal, experimental, refinement or atomic coordinate data resulting
# from the CCDC's data processing and validation procedures.
#
#######################################################################

data_CSD_CIF_NICSAW
_audit_creation_date 2018-04-30
_audit_creation_method CSD-ConQuest-V1
_database_code_CSD NICSAW
_database_code_depnum_ccdc_archive 'CCDC 1580082'
_chemical_formula_sum 'C18 H42 Cl6 Fe1 N6 O6 Re1'
_chemical_formula_moiety
;
C18 H42 Fe1 N6 O6 2+,Cl6 Re1 2-
;
_journal_coden_Cambridge 211
_journal_volume 71
_journal_year 2018
_journal_page_first 737
_journal_name_full 'J.Coord.Chem. '
loop_
_publ_author_name
"C.Rojas-Dotti"
"N.Moliner"
"R.Gonzalez"
"J.Martinez-Lillo"
_chemical_name_systematic
;
hexakis(N,N-dimethylformamide)-iron hexachloro-rhenium
;
_cell_volume    806.068
_exptl_crystal_colour 'pale green'
_exptl_crystal_density_diffrn 1.84
_exptl_special_details
;
Magnetic properties

;
_exptl_crystal_description 'block'
_diffrn_ambient_temperature 120
#These two values have been output from a single CSD field.
_refine_ls_R_factor_gt 0.0201
_refine_ls_wR_factor_gt 0.0201
_symmetry_cell_setting triclinic
_symmetry_space_group_name_H-M 'P -1'
_symmetry_Int_Tables_number 2
loop_
_symmetry_equiv_pos_site_id
_symmetry_equiv_pos_as_xyz
1 x,y,z
2 -x,-y,-z
_cell_length_a 9.0380(2)
_cell_length_b 9.6028(3)
_cell_length_c 9.6254(3)
_cell_angle_alpha 77.303(3)
_cell_angle_beta 81.692(2)
_cell_angle_gamma 86.572(2)
_cell_formula_units_Z 1
loop_
_atom_type_symbol
_atom_type_radius_bond
C 0.68
H 0.23
Cl 0.99
Fe 1.52
N 0.68
O 0.68
Re 1.51
loop_
_atom_site_label
_atom_site_type_symbol
_atom_site_fract_x
_atom_site_fract_y
_atom_site_fract_z
Re1 Re 0.50000 0.50000 0.00000
Cl1 Cl 0.38793(6) 0.28128(5) 0.11384(5)
Cl2 Cl 0.43073(6) 0.58960(5) 0.21124(5)
Cl3 Cl 0.27306(6) 0.59069(6) -0.08331(6)
Fe1 Fe 1.00000 0.00000 0.50000
O1 O 0.88418(16) 0.02303(15) 0.70013(15)
O2 O 0.79383(15) -0.02473(15) 0.42208(15)
O3 O 0.99617(16) 0.22166(14) 0.42147(16)
N1 N 0.8468(2) -0.05070(18) 0.94270(18)
N2 N 0.57820(18) -0.14462(17) 0.44893(18)
N3 N 0.91465(18) 0.45200(17) 0.37382(18)
C1 C 0.9069(2) -0.0629(2) 0.8129(2)
H1 H 0.97090 -0.14100 0.80470
C2 C 0.7399(3) 0.0648(2) 0.9636(2)
H2 H 0.73810 0.13270 0.87420
H3 H 0.76890 0.11120 1.03380
H4 H 0.64210 0.02680 0.99650
C3 C 0.8659(3) -0.1652(2) 1.0665(2)
H5 H 0.93860 -0.23430 1.03810
H6 H 0.77210 -0.21040 1.10310
H7 H 0.89970 -0.12650 1.13990
C4 C 0.7025(2) -0.1159(2) 0.4918(2)
H8 H 0.72420 -0.16730 0.58070
C5 C 0.5334(2) -0.0709(2) 0.3115(2)
H9 H 0.60650 -0.00190 0.26300
H10 H 0.43800 -0.02340 0.32760
H11 H 0.52610 -0.13900 0.25330
C6 C 0.4790(2) -0.2542(2) 0.5377(2)
H12 H 0.51970 -0.29510 0.62490
H13 H 0.47010 -0.32750 0.48600
H14 H 0.38210 -0.21190 0.56040
C7 C 0.9076(2) 0.3194(2) 0.4484(2)
H15 H 0.83200 0.29760 0.52560
C8 C 1.0279(2) 0.4936(2) 0.2493(2)
H16 H 1.09650 0.41450 0.24130
H17 H 1.08140 0.57290 0.26070
H18 H 0.98040 0.52060 0.16400
C9 C 0.7992(2) 0.5580(2) 0.4034(2)
H19 H 0.73150 0.51730 0.48690
H20 H 0.74520 0.58710 0.32240
H21 H 0.84480 0.63940 0.42030
Cl1A Cl 0.61207(6) 0.71872(5) -0.11384(5)
Cl2A Cl 0.56927(6) 0.41040(5) -0.21124(5)
Cl3A Cl 0.72694(6) 0.40931(6) 0.08331(6)
O1A O 1.11582(16) -0.02303(15) 0.29987(15)
O2A O 1.20617(15) 0.02473(15) 0.57792(15)
O3A O 1.00383(16) -0.22166(14) 0.57853(16)
N1A N 1.1532(2) 0.05070(18) 0.05730(18)
N2A N 1.42180(18) 0.14462(17) 0.55107(18)
N3A N 1.08535(18) -0.45200(17) 0.62618(18)
C1A C 1.0931(2) 0.0629(2) 0.1871(2)
H1A H 1.02910 0.14100 0.19530
C2A C 1.2601(3) -0.0648(2) 0.0364(2)
H2A H 1.26190 -0.13270 0.12580
H3A H 1.23110 -0.11120 -0.03380
H4A H 1.35790 -0.02680 0.00350
C3A C 1.1341(3) 0.1652(2) -0.0665(2)
H5A H 1.06140 0.23430 -0.03810
H6A H 1.22790 0.21040 -0.10310
H7A H 1.10030 0.12650 -0.13990
C4A C 1.2975(2) 0.1159(2) 0.5082(2)
H8A H 1.27580 0.16730 0.41930
C5A C 1.4666(2) 0.0709(2) 0.6885(2)
H9A H 1.39350 0.00190 0.73700
H10A H 1.56200 0.02340 0.67240
H11A H 1.47390 0.13900 0.74670
C6A C 1.5210(2) 0.2542(2) 0.4623(2)
H12A H 1.48030 0.29510 0.37510
H13A H 1.52990 0.32750 0.51400
H14A H 1.61790 0.21190 0.43960
C7A C 1.0924(2) -0.3194(2) 0.5516(2)
H15A H 1.16800 -0.29760 0.47440
C8A C 0.9721(2) -0.4936(2) 0.7507(2)
H16A H 0.90350 -0.41450 0.75870
H17A H 0.91860 -0.57290 0.73930
H18A H 1.01960 -0.52060 0.83600
C9A C 1.2008(2) -0.5580(2) 0.5966(2)
H19A H 1.26850 -0.51730 0.51310
H20A H 1.25480 -0.58710 0.67760
H21A H 1.15520 -0.63940 0.57970
#END
