
#######################################################################
#
#                 Cambridge Crystallographic Data Centre
#                                CCDC
#
#######################################################################
#
# If this CIF has been generated from an entry in the Cambridge
# Structural Database, then it will include bibliographic, chemical,
# crystal, experimental, refinement or atomic coordinate data resulting
# from the CCDC's data processing and validation procedures.
#
#######################################################################

data_CSD_CIF_NIKFAO
_audit_creation_date 1998-05-22
_audit_creation_method CSD-ConQuest-V1
_database_code_CSD NIKFAO
_chemical_formula_sum 'C20 H32 Fe1 N10 O6'
_chemical_formula_moiety
;
C18 H24 Fe1 N10 O4,2(C1 H4 O1)
;
_journal_coden_Cambridge 9
_journal_volume 36
_journal_year 1997
_journal_page_first 3869
_journal_name_full 'Inorg.Chem. '
loop_
_publ_author_name
"Y.Funahashi"
"Y.Hara"
"H.Masuda"
"O.Yamauchi"
_chemical_name_systematic
;
bis((2-Dimethylamino-4(3H)-pteridonato)-methanol)-iron(ii) methanol solvate
;
_cell_volume    653.316
_exptl_crystal_colour 'brown'
_exptl_crystal_density_diffrn 1.433
_exptl_special_details
;
isomorphous with the Co analogue

;
_exptl_crystal_description 'platelets'
_diffrn_ambient_temperature ?
_diffrn_special_details
;
The study was carried out at room temperature,in the range 283-303K

;
#These two values have been output from a single CSD field.
_refine_ls_R_factor_gt 0.033
_refine_ls_wR_factor_gt 0.033
_symmetry_cell_setting triclinic
_symmetry_space_group_name_H-M 'P -1'
_symmetry_Int_Tables_number 2
loop_
_symmetry_equiv_pos_site_id
_symmetry_equiv_pos_as_xyz
1 x,y,z
2 -x,-y,-z
_cell_length_a 8.54(1)
_cell_length_b 9.353(10)
_cell_length_c 8.45(2)
_cell_angle_alpha 96.5(1)
_cell_angle_beta 98.3(2)
_cell_angle_gamma 79.13(9)
_cell_formula_units_Z 1
loop_
_atom_type_symbol
_atom_type_radius_bond
C 0.68
H 0.23
Fe 1.34
N 0.68
O 0.68
loop_
_atom_site_label
_atom_site_type_symbol
_atom_site_fract_x
_atom_site_fract_y
_atom_site_fract_z
Fe1 Fe 0.00000 0.00000 0.00000
O1 O 0.1005(3) 0.1549(3) 0.1548(3)
O2 O -0.1606(3) 0.1672(3) -0.1268(3)
O3 O 0.3724(5) 0.2514(6) 0.1139(5)
N1 N -0.0873(4) 0.2338(3) 0.5805(3)
N2 N 0.1062(4) 0.2676(3) 0.4082(4)
N3 N -0.1510(4) 0.0271(3) 0.1930(3)
N4 N -0.2808(4) 0.0895(4) 0.4851(4)
N5 N 0.1063(4) 0.3775(4) 0.6641(4)
C1 C 0.0387(5) 0.2884(4) 0.5488(5)
C2 C 0.0436(5) 0.1804(4) 0.2907(5)
C3 C -0.0915(4) 0.1167(4) 0.3125(4)
C4 C -0.2757(5) -0.0294(5) 0.2183(5)
C5 C -0.3365(6) 0.0019(5) 0.3655(6)
C6 C -0.1524(5) 0.1469(4) 0.4601(4)
C7 C 0.2499(9) 0.432(1) 0.645(1)
C8 C 0.038(1) 0.4229(8) 0.8151(7)
C9 C -0.326(1) 0.208(1) -0.120(1)
C10 C 0.430(1) 0.352(1) 0.219(2)
H1 H -0.322(4) -0.089(4) 0.137(4)
H2 H -0.437(4) -0.036(4) 0.384(4)
H3 H 0.324(7) 0.360(6) 0.585(7)
H4 H 0.232(8) 0.525(7) 0.625(8)
H5 H 0.316(7) 0.429(7) 0.725(6)
H6 H 0.069(5) 0.510(5) 0.859(5)
H7 H 0.082(6) 0.355(5) 0.883(6)
H8 H -0.086(8) 0.445(6) 0.799(7)
H9 H -0.13790 0.18620 -0.21810
H10 H -0.32(1) 0.282(8) -0.059(8)
H11 H -0.36(1) 0.123(8) -0.108(9)
H12 H -0.381(8) 0.260(8) -0.193(7)
H13 H 0.269(7) 0.204(6) 0.144(6)
H14 H 0.54(1) 0.342(8) 0.22(1)
H15 H 0.43(1) 0.33(1) 0.30(1)
H16 H 0.349(8) 0.422(7) 0.236(9)
O1A O -0.1005(3) -0.1549(3) -0.1548(3)
C2A C -0.0436(5) -0.1804(4) -0.2907(5)
N2A N -0.1062(4) -0.2676(3) -0.4082(4)
C1A C -0.0387(5) -0.2884(4) -0.5488(5)
N1A N 0.0873(4) -0.2338(3) -0.5805(3)
C6A C 0.1524(5) -0.1469(4) -0.4601(4)
N4A N 0.2808(4) -0.0895(4) -0.4851(4)
C5A C 0.3365(6) -0.0019(5) -0.3655(6)
C4A C 0.2757(5) 0.0294(5) -0.2183(5)
N3A N 0.1510(4) -0.0271(3) -0.1930(3)
O2A O 0.1606(3) -0.1672(3) 0.1268(3)
C9A C 0.326(1) -0.208(1) 0.120(1)
H10A H 0.32(1) -0.282(8) 0.059(8)
H11A H 0.36(1) -0.123(8) 0.108(9)
H12A H 0.381(8) -0.260(8) 0.193(7)
H9A H 0.13790 -0.18620 0.21810
C3A C 0.0915(4) -0.1167(4) -0.3125(4)
H1A H 0.322(4) 0.089(4) -0.137(4)
H2A H 0.437(4) 0.036(4) -0.384(4)
N5A N -0.1063(4) -0.3775(4) -0.6641(4)
C7A C -0.2499(9) -0.432(1) -0.645(1)
H3A H -0.324(7) -0.360(6) -0.585(7)
H4A H -0.232(8) -0.525(7) -0.625(8)
H5A H -0.316(7) -0.429(7) -0.725(6)
C8A C -0.038(1) -0.4229(8) -0.8151(7)
H6A H -0.069(5) -0.510(5) -0.859(5)
H7A H -0.082(6) -0.355(5) -0.883(6)
H8A H 0.086(8) -0.445(6) -0.799(7)
#END
