
#######################################################################
#
#                 Cambridge Crystallographic Data Centre
#                                CCDC
#
#######################################################################
#
# If this CIF has been generated from an entry in the Cambridge
# Structural Database, then it will include bibliographic, chemical,
# crystal, experimental, refinement or atomic coordinate data resulting
# from the CCDC's data processing and validation procedures.
#
#######################################################################

data_CSD_CIF_NILMIG
_audit_creation_date 2013-09-27
_audit_creation_method CSD-ConQuest-V1
_database_code_CSD NILMIG
_database_code_depnum_ccdc_archive 'CCDC 897044'
_chemical_formula_sum 'C4 H14 Mn1 N8 O6'
_chemical_formula_moiety
;
(C4 H10 Mn1 N8 O4)n,2(H2 O1)
;
_journal_coden_Cambridge 1350
_journal_volume 15
_journal_year 2013
_journal_page_first 8529
_journal_name_full 'CrystEngComm '
loop_
_publ_author_name
"Meng Yang"
"Zhen-Jie OuYang"
"Wen-Bin Chen"
"Rong-Fu Zhou"
"Nan Li"
"Wen Dong"
_chemical_name_systematic
;
catena-[(\m~2~-3,3'-Diazene-1,2-diylbis(1,2,4-triazolyl))-tetra-aqua-manganese
(ii) dihydrate]
;
_cell_volume    309.986
_exptl_crystal_colour 'yellow'
_exptl_crystal_density_diffrn 1.742
_exptl_crystal_description 'block'
_diffrn_ambient_temperature 293
#These two values have been output from a single CSD field.
_refine_ls_R_factor_gt 0.0417
_refine_ls_wR_factor_gt 0.0417
_symmetry_cell_setting triclinic
_symmetry_space_group_name_H-M 'P -1'
_symmetry_Int_Tables_number 2
loop_
_symmetry_equiv_pos_site_id
_symmetry_equiv_pos_as_xyz
1 x,y,z
2 -x,-y,-z
_cell_length_a 6.3061(9)
_cell_length_b 6.9947(10)
_cell_length_c 7.9080(12)
_cell_angle_alpha 76.149(5)
_cell_angle_beta 74.174(5)
_cell_angle_gamma 69.324(5)
_cell_formula_units_Z 1
loop_
_atom_type_symbol
_atom_type_radius_bond
C 0.68
H 0.23
Mn 1.61
N 0.68
O 0.68
loop_
_atom_site_label
_atom_site_type_symbol
_atom_site_fract_x
_atom_site_fract_y
_atom_site_fract_z
Mn1 Mn 1.00000 0.50000 1.00000
O1 O 1.1619(5) 0.6973(5) 1.0510(3)
H1 H 1.24380 0.63120 1.12940
H2 H 1.24990 0.73650 0.95520
O2 O 0.6627(4) 0.7274(4) 1.0669(3)
H3 H 0.59110 0.75560 0.98270
H4 H 0.58430 0.67870 1.16260
N1 N 1.0342(4) 0.6502(4) 0.7050(3)
N2 N 0.8988(5) 0.8147(5) 0.4708(4)
N3 N 1.1230(5) 0.7270(4) 0.4115(4)
C1 C 1.2025(5) 0.6270(5) 0.5582(4)
C2 C 0.8449(5) 0.7699(5) 0.6450(4)
H5 H 0.69770 0.81490 0.71510
N4 N 1.4296(5) 0.5065(4) 0.5734(4)
O3 O 0.6349(4) 1.0560(4) 1.2096(3)
H6 H 0.62530 0.96420 1.16220
H7 H 0.69200 0.99350 1.29750
N1A N 1.9658(4) 0.3498(4) 0.2950(3)
N2A N 2.1012(5) 0.1853(5) 0.5292(4)
N3A N 1.8770(5) 0.2730(4) 0.5885(4)
C1A C 1.7975(5) 0.3730(5) 0.4418(4)
C2A C 2.1551(5) 0.2301(5) 0.3550(4)
H5A H 2.30230 0.18510 0.28490
N4A N 1.5704(5) 0.4935(4) 0.4266(4)
O1A O 0.8381(5) 0.3027(5) 0.9490(3)
H1A H 0.75620 0.36880 0.87060
H2A H 0.75010 0.26350 1.04480
O2A O 1.3373(4) 0.2726(4) 0.9331(3)
H3A H 1.40890 0.24440 1.01730
H4A H 1.41570 0.32130 0.83740
Mn1* Mn 2.00000 0.50000 0.00000
N1A* N 0.9658(4) 0.3498(4) 1.2950(3)
#END
