
#######################################################################
#
#                 Cambridge Crystallographic Data Centre
#                                CCDC
#
#######################################################################
#
# If this CIF has been generated from an entry in the Cambridge
# Structural Database, then it will include bibliographic, chemical,
# crystal, experimental, refinement or atomic coordinate data resulting
# from the CCDC's data processing and validation procedures.
#
#######################################################################

data_CSD_CIF_NIRTOA
_audit_creation_date 2018-10-02
_audit_creation_method CSD-ConQuest-V1
_database_code_CSD NIRTOA
_database_code_depnum_ccdc_archive 'CCDC 1831188'
_chemical_formula_sum 'C13 H9 Co1 N7 S2'
_chemical_formula_moiety
;
C13 H9 Co1 N7 S2
;
_journal_coden_Cambridge 9
_journal_volume 57
_journal_year 2018
_journal_page_first 12740
_journal_name_full 'Inorg.Chem. '
loop_
_publ_author_name
"A.Switlicka"
"B.Machura"
"M.Penkala"
"A.Bienko"
"D.C.Bienko"
"Jan Titis"
"C.Rajnak"
"R.Boca"
"A.Ozarowski"
"M.Ozerov"
_chemical_name_systematic
;
(2,6-bis(1H-pyrazol-1-yl)pyridine)-bis(isothiocyanato)-cobalt(ii)
;
_cell_volume    814.440
_exptl_crystal_colour 'blue'
_exptl_crystal_density_diffrn 1.575
_exptl_crystal_description 'plate'
_diffrn_ambient_temperature 295
#These two values have been output from a single CSD field.
_refine_ls_R_factor_gt 0.0546
_refine_ls_wR_factor_gt 0.0546
_symmetry_cell_setting triclinic
_symmetry_space_group_name_H-M 'P -1'
_symmetry_Int_Tables_number 2
loop_
_symmetry_equiv_pos_site_id
_symmetry_equiv_pos_as_xyz
1 x,y,z
2 -x,-y,-z
_cell_length_a 8.1959(6)
_cell_length_b 8.3196(5)
_cell_length_c 13.7359(12)
_cell_angle_alpha 93.374(6)
_cell_angle_beta 103.702(7)
_cell_angle_gamma 114.555(7)
_cell_formula_units_Z 2
loop_
_atom_type_symbol
_atom_type_radius_bond
C 0.68
H 0.23
Co 1.26
N 0.68
S 1.02
loop_
_atom_site_label
_atom_site_type_symbol
_atom_site_fract_x
_atom_site_fract_y
_atom_site_fract_z
Co1 Co 0.91397(7) 0.64998(7) 0.24143(5)
S1 S 1.54465(17) 0.76508(19) 0.35016(11)
S2 S 0.9325(2) 1.1820(2) 0.13419(16)
N1 N 0.6983(4) 0.4382(4) 0.2710(3)
N2 N 0.9558(5) 0.7057(5) 0.4046(3)
N3 N 0.8263(5) 0.5750(5) 0.4374(3)
N4 N 0.7553(5) 0.4859(5) 0.0965(3)
N5 N 0.6010(5) 0.3381(5) 0.1003(3)
N6 N 1.1676(5) 0.6698(5) 0.2635(3)
N7 N 0.9242(5) 0.8771(5) 0.2079(3)
C1 C 1.0692(8) 0.8223(7) 0.4873(5)
H1 H 1.17340 0.92720 0.48830
C2 C 1.0148(9) 0.7705(8) 0.5734(5)
H2 H 1.07320 0.83120 0.64030
C3 C 0.8590(9) 0.6130(8) 0.5390(4)
H3 H 0.78770 0.54380 0.57800
C4 C 0.6837(6) 0.4305(5) 0.3651(4)
C5 C 0.5389(7) 0.2904(7) 0.3857(5)
H4 H 0.53050 0.28490 0.45180
C6 C 0.4095(7) 0.1612(7) 0.3070(5)
H5 H 0.30970 0.06680 0.31950
C7 C 0.4211(6) 0.1651(6) 0.2087(5)
H6 H 0.33310 0.07530 0.15450
C8 C 0.5712(6) 0.3105(6) 0.1957(4)
C9 C 0.4993(9) 0.2405(9) 0.0064(5)
H7 H 0.38940 0.13400 -0.00910
C10 C 0.5846(10) 0.3242(11) -0.0601(5)
H8 H 0.54640 0.28860 -0.13040
C11 C 0.7423(9) 0.4756(9) -0.0025(5)
H9 H 0.82820 0.55930 -0.02950
C12 C 1.3246(6) 0.7096(6) 0.2998(4)
C13 C 0.9284(6) 1.0038(6) 0.1761(4)
#END
