
#######################################################################
#
#                 Cambridge Crystallographic Data Centre
#                                CCDC
#
#######################################################################
#
# If this CIF has been generated from an entry in the Cambridge
# Structural Database, then it will include bibliographic, chemical,
# crystal, experimental, refinement or atomic coordinate data resulting
# from the CCDC's data processing and validation procedures.
#
#######################################################################

data_CSD_CIF_NITCEA
_audit_creation_date 2014-02-05
_audit_creation_method CSD-ConQuest-V1
_database_code_CSD NITCEA
_database_code_depnum_ccdc_archive 'CCDC 985245'
_chemical_formula_sum 'C18 H15 Cr1 N1 O3'
_chemical_formula_moiety
;
C18 H15 Cr1 N1 O3
;
_journal_coden_Cambridge 579
_journal_volume 33
_journal_year 2014
_journal_page_first 485
_journal_name_full 'Organometallics '
loop_
_publ_author_name
"C.B.Duke III"
"R.G.Letterman"
"J.O.Johnson"
"J.W.Barr"
"Songnan Hu"
"C.R.Ross II"
"C.E.Webster"
"T.J.Burkey"
_chemical_name_systematic
;
(\h^6^-(1-(2-Pyridyl)but-3-en-1-yl)benzene)-tricarbonyl-chromium
;
_cell_volume    791.696
_exptl_crystal_colour 'yellow'
_exptl_crystal_density_diffrn 1.449
_exptl_crystal_description 'blocky'
_diffrn_ambient_temperature 173
#These two values have been output from a single CSD field.
_refine_ls_R_factor_gt 0.0272
_refine_ls_wR_factor_gt 0.0272
_symmetry_cell_setting triclinic
_symmetry_space_group_name_H-M 'P -1'
_symmetry_Int_Tables_number 2
loop_
_symmetry_equiv_pos_site_id
_symmetry_equiv_pos_as_xyz
1 x,y,z
2 -x,-y,-z
_cell_length_a 7.9515(3)
_cell_length_b 10.2396(4)
_cell_length_c 11.0854(4)
_cell_angle_alpha 94.457(2)
_cell_angle_beta 110.845(1)
_cell_angle_gamma 106.650(1)
_cell_formula_units_Z 2
loop_
_atom_type_symbol
_atom_type_radius_bond
C 0.68
H 0.23
Cr 1.39
N 0.68
O 0.68
loop_
_atom_site_label
_atom_site_type_symbol
_atom_site_fract_x
_atom_site_fract_y
_atom_site_fract_z
Cr1 Cr 0.21871(3) 0.57198(2) 0.76085(2)
O1 O -0.17931(16) 0.58121(12) 0.64630(13)
C1 C -0.0267(2) 0.57659(16) 0.69037(17)
O2 O 0.07430(18) 0.28155(12) 0.60557(13)
C2 C 0.1317(2) 0.39393(17) 0.66445(17)
O3 O 0.12707(19) 0.43511(14) 0.97018(13)
C3 C 0.1634(2) 0.49035(17) 0.89151(17)
C4 C 0.3148(2) 0.79913(15) 0.75820(16)
C5 C 0.4106(2) 0.78078(16) 0.88552(16)
H1 H 0.40610 0.83030 0.95760
C6 C 0.5143(2) 0.68700(17) 0.90477(17)
H2 H 0.57580 0.67450 0.98950
C7 C 0.5255(2) 0.61307(17) 0.79830(17)
H3 H 0.59610 0.55320 0.81180
C8 C 0.4283(2) 0.63031(16) 0.67008(17)
H4 H 0.43240 0.57990 0.59830
C9 C 0.3255(2) 0.72284(16) 0.64974(17)
H5 H 0.26370 0.73450 0.56480
C10 C 0.2012(2) 0.89895(16) 0.73101(16)
H6 H 0.08260 0.85240 0.65320
C11 C 0.3170(2) 1.02647(16) 0.69693(16)
C12 C 0.2758(2) 1.04012(17) 0.56695(17)
H7 H 0.17510 0.97220 0.49870
C13 C 0.3863(3) 1.15609(18) 0.54004(18)
H8 H 0.36100 1.16740 0.45360
C14 C 0.5345(3) 1.25454(17) 0.64359(19)
H9 H 0.61150 1.33350 0.62870
C15 C 0.5659(2) 1.23307(17) 0.76983(18)
H10 H 0.66590 1.29980 0.83940
N1 N 0.4605(2) 1.12137(14) 0.79820(14)
C16 C 0.1468(2) 0.93831(17) 0.84545(17)
H11 H 0.08120 0.85410 0.86750
H12 H 0.26220 0.98920 0.92230
C17 C 0.0205(3) 1.02551(18) 0.81154(18)
H13 H 0.06510 1.10810 0.78530
C18 C -0.1488(3) 0.9935(2) 0.8163(2)
H14 H -0.19780 0.91170 0.84210
H15 H -0.21970 1.05250 0.79390
#END
