
#######################################################################
#
#                 Cambridge Crystallographic Data Centre
#                                CCDC
#
#######################################################################
#
# If this CIF has been generated from an entry in the Cambridge
# Structural Database, then it will include bibliographic, chemical,
# crystal, experimental, refinement or atomic coordinate data resulting
# from the CCDC's data processing and validation procedures.
#
#######################################################################

data_CSD_CIF_NITCIE
_audit_creation_date 2014-02-05
_audit_creation_method CSD-ConQuest-V1
_database_code_CSD NITCIE
_database_code_depnum_ccdc_archive 'CCDC 985246'
_chemical_formula_sum 'C17 H15 Cr1 N1 O2'
_chemical_formula_moiety
;
C17 H15 Cr1 N1 O2
;
_journal_coden_Cambridge 579
_journal_volume 33
_journal_year 2014
_journal_page_first 485
_journal_name_full 'Organometallics '
loop_
_publ_author_name
"C.B.Duke III"
"R.G.Letterman"
"J.O.Johnson"
"J.W.Barr"
"Songnan Hu"
"C.R.Ross II"
"C.E.Webster"
"T.J.Burkey"
_chemical_name_systematic
;
(\h^6^,\h^2^-(1-(2-Pyridyl)but-3-en-1-yl)benzene)-dicarbonyl-chromium
;
_cell_volume    697.014
_exptl_crystal_colour 'red'
_exptl_crystal_density_diffrn 1.512
_exptl_crystal_description 'prism'
_diffrn_ambient_temperature 173
#These two values have been output from a single CSD field.
_refine_ls_R_factor_gt 0.035
_refine_ls_wR_factor_gt 0.035
_symmetry_cell_setting triclinic
_symmetry_space_group_name_H-M 'P -1'
_symmetry_Int_Tables_number 2
loop_
_symmetry_equiv_pos_site_id
_symmetry_equiv_pos_as_xyz
1 x,y,z
2 -x,-y,-z
_cell_length_a 7.8042(4)
_cell_length_b 7.8665(4)
_cell_length_c 12.8562(8)
_cell_angle_alpha 107.710(2)
_cell_angle_beta 94.853(3)
_cell_angle_gamma 108.797(2)
_cell_formula_units_Z 2
loop_
_atom_type_symbol
_atom_type_radius_bond
C 0.68
H 0.23
Cr 1.39
N 0.68
O 0.68
loop_
_atom_site_label
_atom_site_type_symbol
_atom_site_fract_x
_atom_site_fract_y
_atom_site_fract_z
Cr1 Cr 0.68693(4) 0.73409(4) 0.36494(3)
C1 C 0.7240(3) 0.8358(3) 0.51757(18)
O1 O 0.7469(2) 0.9010(2) 0.61389(13)
C2 C 0.7796(3) 0.9848(3) 0.37279(17)
O2 O 0.8432(2) 1.1437(2) 0.37971(13)
C3 C 0.5650(3) 0.4450(3) 0.24240(18)
C4 C 0.6819(3) 0.5616(3) 0.19163(18)
H1 H 0.63550 0.56490 0.12180
C5 C 0.8669(3) 0.6718(3) 0.24599(19)
H2 H 0.94450 0.75250 0.21330
C6 C 0.9385(3) 0.6646(3) 0.3474(2)
H3 H 1.06300 0.74100 0.38410
C7 C 0.8232(3) 0.5423(3) 0.39420(19)
H4 H 0.87100 0.53580 0.46280
C8 C 0.6389(3) 0.4302(3) 0.34081(19)
H5 H 0.56410 0.34400 0.37150
C9 C 0.3573(3) 0.3625(3) 0.19932(18)
H6 H 0.29650 0.32090 0.25750
C10 C 0.3016(3) 0.1879(3) 0.09309(18)
C11 C 0.2158(3) 0.0061(3) 0.0971(2)
H7 H 0.18770 -0.00930 0.16500
C12 C 0.1718(4) -0.1524(3) 0.0008(2)
H8 H 0.11280 -0.27810 0.00130
C13 C 0.2154(3) -0.1243(4) -0.0960(2)
H9 H 0.18650 -0.22960 -0.16370
C14 C 0.3019(3) 0.0613(4) -0.09145(19)
H10 H 0.33370 0.08050 -0.15780
N1 N 0.3440(3) 0.2156(3) 0.00004(16)
C15 C 0.3061(3) 0.5296(3) 0.1888(2)
H11 H 0.17060 0.49430 0.17990
H12 H 0.34230 0.55520 0.12150
C16 C 0.4028(3) 0.7111(3) 0.29167(19)
H13 H 0.46380 0.82890 0.28150
C17 C 0.4042(3) 0.7089(4) 0.3983(2)
H14 H 0.34390 0.59230 0.40990
H15 H 0.46550 0.82410 0.46030
#END
