
#######################################################################
#
#                 Cambridge Crystallographic Data Centre
#                                CCDC
#
#######################################################################
#
# If this CIF has been generated from an entry in the Cambridge
# Structural Database, then it will include bibliographic, chemical,
# crystal, experimental, refinement or atomic coordinate data resulting
# from the CCDC's data processing and validation procedures.
#
#######################################################################

data_CSD_CIF_NIVZOK
_audit_creation_date 2019-02-04
_audit_creation_method CSD-ConQuest-V1
_database_code_CSD NIVZOK
_database_code_depnum_ccdc_archive 'CCDC 1862434'
_chemical_formula_sum 'C10 H9 Cl3 Fe1 N7'
_chemical_formula_moiety
;
C10 H9 Cl3 Fe1 N7
;
_journal_coden_Cambridge 1290
_journal_year 2019
_journal_page_first 963
_journal_name_full 'Eur.J.Inorg.Chem. '
loop_
_publ_author_name
"R.Castaneda"
"K.L.M.Harriman"
"J.W.L.Wong"
"B.Gabidullin"
"M.Murugesu"
"J.L.Brusso"
_chemical_name_systematic
;
trichloro-(N'-[imino(pyrimidin-2-yl)methyl]pyrimidine-2-carboximidamide)-iron(
iii)
;
_cell_volume    738.409
_exptl_crystal_colour 'light yellow'
_exptl_crystal_density_diffrn 1.751
_exptl_special_details
;
pyridinium tetrachloroferrate was used as salt counter ion, Magnetic 
properties
;
_exptl_crystal_description 'plate'
_exptl_crystal_preparation 'acetonitrile'
_diffrn_ambient_temperature 238.6
_refine_special_details
;
H3B disordered by symmetry over two configurations with occupancy 0.5.

;
#These two values have been output from a single CSD field.
_refine_ls_R_factor_gt 0.032
_refine_ls_wR_factor_gt 0.032
_symmetry_cell_setting monoclinic
_symmetry_space_group_name_H-M 'P 2/c'
_symmetry_Int_Tables_number 13
loop_
_symmetry_equiv_pos_site_id
_symmetry_equiv_pos_as_xyz
1 x,y,z
2 -x,y,1/2-z
3 -x,-y,-z
4 x,-y,-1/2+z
_cell_length_a 8.491(3)
_cell_length_b 9.744(3)
_cell_length_c 9.878(4)
_cell_angle_alpha 90
_cell_angle_beta 115.377(4)
_cell_angle_gamma 90
_cell_formula_units_Z 2
loop_
_atom_type_symbol
_atom_type_radius_bond
C 0.68
H 0.23
Cl 0.99
Fe 1.52
N 0.68
loop_
_atom_site_label
_atom_site_type_symbol
_atom_site_fract_x
_atom_site_fract_y
_atom_site_fract_z
Fe1 Fe 0.50000 0.18417(5) 0.25000
Cl1 Cl 0.25743(7) 0.19377(6) 0.01199(7)
Cl2 Cl 0.50000 -0.04632(9) 0.25000
N1 N 0.1922(3) 0.4269(2) 0.4085(2)
N2 N 0.50000 0.4030(3) 0.25000
C1 C 0.2996(3) 0.3731(3) 0.3574(3)
C2 C 0.1347(3) 0.1964(3) 0.4571(3)
H1 H 0.07634 0.13514 0.49344
N3 N 0.3304(2) 0.2394(2) 0.3496(2)
C3 C 0.3983(3) 0.4689(2) 0.3035(2)
C4 C 0.2482(3) 0.1500(3) 0.4008(3)
H2 H 0.26808 0.05534 0.39827
C5 C 0.1102(3) 0.3360(3) 0.4580(3)
H3 H 0.03236 0.36922 0.49505
N4 N 0.3855(3) 0.6001(2) 0.3101(3)
H4 H 0.324(3) 0.631(3) 0.347(3)
H5? H 0.448(5) 0.650(4) 0.289(5)
N1A N 0.8078(3) 0.4269(2) 0.0915(2)
C1A C 0.7004(3) 0.3731(3) 0.1426(3)
C2A C 0.8653(3) 0.1964(3) 0.0429(3)
H1A H 0.92366 0.13514 0.00656
N3A N 0.6696(2) 0.2394(2) 0.1504(2)
C3A C 0.6017(3) 0.4689(2) 0.1965(2)
C4A C 0.7518(3) 0.1500(3) 0.0992(3)
H2A H 0.73192 0.05534 0.10173
C5A C 0.8898(3) 0.3360(3) 0.0420(3)
H3A H 0.96764 0.36922 0.00495
N4A N 0.6145(3) 0.6001(2) 0.1899(3)
H4A H 0.676(3) 0.631(3) 0.153(3)
Cl1A Cl 0.74257(7) 0.19377(6) 0.48801(7)
#END
