
#######################################################################
#
#                 Cambridge Crystallographic Data Centre
#                                CCDC
#
#######################################################################
#
# If this CIF has been generated from an entry in the Cambridge
# Structural Database, then it will include bibliographic, chemical,
# crystal, experimental, refinement or atomic coordinate data resulting
# from the CCDC's data processing and validation procedures.
#
#######################################################################

data_CSD_CIF_NIZMUE
_audit_creation_date 1998-06-26
_audit_creation_method CSD-ConQuest-V1
_database_code_CSD NIZMUE
_chemical_formula_sum 'C7 H20 Co1 N5 O8'
_chemical_formula_moiety
;
C7 H16 Co1 N5 O6,2(H2 O1)
;
_journal_coden_Cambridge 580
_journal_volume 16
_journal_year 1997
_journal_page_first 3757
_journal_name_full 'Polyhedron '
loop_
_publ_author_name
"Y.Kitamura"
"N.Azuma"
"K.Minamoto"
"S.Murakami"
"Y.Tanabe"
_chemical_name_systematic
;
mer(N)-(9-Amino-3,7-diazanonato)-dinitro-cobalt(iii) dihydrate
;
_cell_volume    717.654
_exptl_crystal_colour 'red-yellow'
_exptl_crystal_density_diffrn 1.671
_exptl_crystal_description 'plate'
_diffrn_ambient_temperature ?
_diffrn_special_details
;
The study was carried out at room temperature,in the range 283-303K

;
#These two values have been output from a single CSD field.
_refine_ls_R_factor_gt 0.038
_refine_ls_wR_factor_gt 0.038
_symmetry_cell_setting triclinic
_symmetry_space_group_name_H-M 'P -1'
_symmetry_Int_Tables_number 2
loop_
_symmetry_equiv_pos_site_id
_symmetry_equiv_pos_as_xyz
1 x,y,z
2 -x,-y,-z
_cell_length_a 8.418(2)
_cell_length_b 11.316(2)
_cell_length_c 7.694(2)
_cell_angle_alpha 89.96(2)
_cell_angle_beta 91.09(2)
_cell_angle_gamma 78.34(2)
_cell_formula_units_Z 2
loop_
_atom_type_symbol
_atom_type_radius_bond
C 0.68
H 0.23
Co 1.33
N 0.68
O 0.68
loop_
_atom_site_label
_atom_site_type_symbol
_atom_site_fract_x
_atom_site_fract_y
_atom_site_fract_z
Co1 Co 0.12610(5) 0.24834(4) 0.03940(6)
O1 O 0.0013(3) 0.3722(2) 0.1814(3)
O2 O -0.2012(3) 0.3997(2) 0.3682(3)
O3 O 0.3622(3) 0.1365(2) -0.1834(3)
O4 O 0.1756(3) 0.0378(2) -0.1428(4)
O5 O -0.1919(3) 0.2379(3) -0.0519(4)
O6 O -0.0602(4) 0.2914(4) -0.2606(4)
O7 O 0.2841(4) 0.3601(3) 0.5224(4)
O8 O 0.6043(5) 0.3067(7) 0.6061(7)
N1 N 0.0511(3) 0.1323(2) 0.1927(4)
N2 N 0.3194(3) 0.2492(2) 0.1873(4)
N3 N 0.1943(4) 0.3749(3) -0.0930(4)
N4 N 0.2354(4) 0.1270(2) -0.1127(4)
N5 N -0.0641(3) 0.2600(3) -0.1083(4)
C1 C -0.0905(4) 0.3341(3) 0.2906(4)
C2 C -0.0523(5) 0.1997(3) 0.3281(5)
C3 C 0.1732(5) 0.0292(3) 0.2665(5)
C4 C 0.3111(5) 0.0671(3) 0.3637(5)
C5 C 0.4136(5) 0.1320(3) 0.2551(5)
C6 C 0.4259(4) 0.3197(3) 0.0995(5)
C7 C 0.3172(4) 0.4236(3) 0.0087(5)
H1 H -0.15100 0.17140 0.33220
H2 H 0.00280 0.18590 0.43740
H3 H -0.006(4) 0.102(3) 0.120(4)
H4 H 0.11970 -0.01440 0.34400
H5 H 0.21670 -0.02180 0.17360
H6 H 0.26700 0.11920 0.45520
H7 H 0.37920 -0.00320 0.41130
H8 H 0.45370 0.08240 0.15960
H9 H 0.50200 0.14680 0.32440
H10 H 0.285(4) 0.289(3) 0.282(5)
H11 H 0.49340 0.34860 0.18290
H12 H 0.49160 0.27050 0.01750
H13 H 0.37890 0.46250 -0.06670
H14 H 0.26540 0.47990 0.09180
H15 H 0.232(4) 0.339(3) -0.192(5)
H16 H 0.108(4) 0.431(3) -0.119(5)
H17 H 0.242(6) 0.426(4) 0.528(7)
H18 H 0.379(6) 0.348(5) 0.546(7)
H19 H 0.64(1) 0.353(8) 0.57(1)
H20 H 0.65(1) 0.302(9) 0.67(1)
#END
