
#######################################################################
#
#                 Cambridge Crystallographic Data Centre
#                                CCDC
#
#######################################################################
#
# If this CIF has been generated from an entry in the Cambridge
# Structural Database, then it will include bibliographic, chemical,
# crystal, experimental, refinement or atomic coordinate data resulting
# from the CCDC's data processing and validation procedures.
#
#######################################################################

data_CSD_CIF_NODNOL
_audit_creation_date 2014-02-10
_audit_creation_method CSD-ConQuest-V1
_database_code_CSD NODNOL
_database_code_depnum_ccdc_archive 'CCDC 933781'
_chemical_formula_sum 'C24 H31 Cr1 N10 O10'
_chemical_formula_moiety
;
C24 H30 Cr1 N8 O4,H1 N2 O6
;
_journal_coden_Cambridge 580
_journal_volume 70
_journal_year 2014
_journal_page_first 119
_journal_name_full 'Polyhedron '
loop_
_publ_author_name
"N.Kitanovski"
"N.Borsan"
"M.Kasunic"
"V.Francetic"
"J.Popovic"
"I.Djerdj"
"X.Rocquefelte"
"J.Reedijk"
"B.Kozlevcar"
_chemical_name_systematic
;
bis(bis(3,5-dimethyl-1H-pyrazol-1-yl)acetato)-chromium dinitratohydrogenate
;
_cell_volume    739.990
_exptl_crystal_colour 'pink'
_exptl_crystal_density_diffrn 1.507
_exptl_crystal_description 'prism'
_diffrn_ambient_temperature 150
#These two values have been output from a single CSD field.
_refine_ls_R_factor_gt 0.0592
_refine_ls_wR_factor_gt 0.0592
_symmetry_cell_setting triclinic
_symmetry_space_group_name_H-M 'P -1'
_symmetry_Int_Tables_number 2
loop_
_symmetry_equiv_pos_site_id
_symmetry_equiv_pos_as_xyz
1 x,y,z
2 -x,-y,-z
_cell_length_a 7.8737(14)
_cell_length_b 9.8371(15)
_cell_length_c 10.7205(10)
_cell_angle_alpha 114.097(13)
_cell_angle_beta 92.416(12)
_cell_angle_gamma 100.181(14)
_cell_formula_units_Z 1
loop_
_atom_type_symbol
_atom_type_radius_bond
C 0.68
H 0.23
Cr 1.39
N 0.68
O 0.68
loop_
_atom_site_label
_atom_site_type_symbol
_atom_site_fract_x
_atom_site_fract_y
_atom_site_fract_z
Cr1 Cr 1.00000 0.00000 0.50000
O1 O 1.1263(2) 0.1642(2) 0.46214(18)
O2 O 1.1363(3) 0.3839(2) 0.4464(2)
N1 N 0.7785(3) 0.0220(2) 0.4085(2)
N2 N 0.7564(3) 0.1675(2) 0.4440(2)
N3 N 0.9506(3) 0.1636(2) 0.6788(2)
N4 N 0.9080(3) 0.2896(2) 0.6709(2)
C1 C 0.8921(3) 0.2937(3) 0.5372(3)
H1 H 0.86070 0.39180 0.54810
C2 C 1.0678(3) 0.2836(3) 0.4766(3)
C3 C 0.6087(4) -0.2410(3) 0.2638(3)
H2 H 0.71350 -0.26900 0.22300
H3 H 0.50840 -0.28560 0.19180
H4 H 0.58860 -0.27970 0.33410
C4 C 0.6325(3) -0.0706(3) 0.3289(3)
C5 C 0.5184(4) 0.0168(3) 0.3150(3)
H5 H 0.40570 -0.02100 0.26380
C6 C 0.5979(3) 0.1686(3) 0.3891(3)
C7 C 0.5395(4) 0.3113(4) 0.4111(3)
H6 H 0.53050 0.36760 0.50900
H7 H 0.42560 0.28630 0.35720
H8 H 0.62400 0.37430 0.38140
C8 C 0.9811(4) 0.0697(3) 0.8606(3)
H9 H 0.92570 -0.03370 0.79380
H10 H 0.93750 0.09000 0.94940
H11 H 1.10740 0.07920 0.87200
C9 C 0.9393(3) 0.1826(3) 0.8095(3)
C10 C 0.8872(4) 0.3202(3) 0.8828(3)
H12 H 0.86940 0.36060 0.97710
C11 C 0.8667(3) 0.3857(3) 0.7933(3)
C12 C 0.8138(4) 0.5313(3) 0.8140(3)
H13 H 0.91170 0.60140 0.80400
H14 H 0.77960 0.57790 0.90650
H15 H 0.71520 0.51030 0.74510
O3 O 0.7291(6) 0.1996(6) 0.1158(4)
O4 O 0.4615(7) 0.1281(6) 0.0292(4)
H16 H 0.50000 0.00000 0.00000
O5 O 0.5847(6) 0.3619(5) 0.1092(4)
N5 N 0.5971(8) 0.2352(7) 0.0876(5)
O1A O 0.8737(2) -0.1642(2) 0.53786(18)
O2A O 0.8637(3) -0.3839(2) 0.5536(2)
N1A N 1.2215(3) -0.0220(2) 0.5915(2)
N2A N 1.2436(3) -0.1675(2) 0.5560(2)
N3A N 1.0494(3) -0.1636(2) 0.3212(2)
N4A N 1.0920(3) -0.2896(2) 0.3291(2)
C1A C 1.1079(3) -0.2937(3) 0.4628(3)
H1A H 1.13930 -0.39180 0.45190
C2A C 0.9322(3) -0.2836(3) 0.5234(3)
C3A C 1.3913(4) 0.2410(3) 0.7362(3)
H2A H 1.28650 0.26900 0.77700
H3A H 1.49160 0.28560 0.80820
H4A H 1.41140 0.27970 0.66590
C4A C 1.3675(3) 0.0706(3) 0.6711(3)
C5A C 1.4816(4) -0.0168(3) 0.6850(3)
H5A H 1.59430 0.02100 0.73620
C6A C 1.4021(3) -0.1686(3) 0.6109(3)
C7A C 1.4605(4) -0.3113(4) 0.5889(3)
H6A H 1.46950 -0.36760 0.49100
H7A H 1.57440 -0.28630 0.64280
H8A H 1.37600 -0.37430 0.61860
C8A C 1.0189(4) -0.0697(3) 0.1394(3)
H9A H 1.07430 0.03370 0.20620
H10A H 1.06250 -0.09000 0.05060
H11A H 0.89260 -0.07920 0.12800
C9A C 1.0607(3) -0.1826(3) 0.1905(3)
C10A C 1.1128(4) -0.3202(3) 0.1172(3)
H12A H 1.13060 -0.36060 0.02290
C11A C 1.1333(3) -0.3857(3) 0.2067(3)
C12A C 1.1862(4) -0.5313(3) 0.1860(3)
H13A H 1.08830 -0.60140 0.19600
H14A H 1.22040 -0.57790 0.09350
H15A H 1.28480 -0.51030 0.25490
O3A O 0.2709(6) -0.1996(6) -0.1158(4)
O4A O 0.5385(7) -0.1281(6) -0.0292(4)
O5A O 0.4153(6) -0.3619(5) -0.1092(4)
N5A N 0.4029(8) -0.2352(7) -0.0876(5)
#END
