
#######################################################################
#
#                 Cambridge Crystallographic Data Centre
#                                CCDC
#
#######################################################################
#
# If this CIF has been generated from an entry in the Cambridge
# Structural Database, then it will include bibliographic, chemical,
# crystal, experimental, refinement or atomic coordinate data resulting
# from the CCDC's data processing and validation procedures.
#
#######################################################################

data_CSD_CIF_NOPDON
_audit_creation_date 2014-07-17
_audit_creation_method CSD-ConQuest-V1
_database_code_CSD NOPDON
_database_code_depnum_ccdc_archive 'CCDC 986621'
_chemical_formula_sum 'C14 H22 Co1 N4 O10'
_chemical_formula_moiety
;
C14 H22 Co1 N2 O4 2+,2(N1 O3 1-)
;
_journal_coden_Cambridge 222
_journal_volume 43
_journal_year 2014
_journal_page_first 13032
_journal_name_full 'Dalton Trans. '
loop_
_publ_author_name
"S.M.Mobin"
"A.Mohammad"
_chemical_name_systematic
;
diaqua-bis(2-(pyridin-2-yl)ethanol)-cobalt(ii) dinitrate
;
_cell_volume    468.285
_exptl_crystal_colour 'orange'
_exptl_crystal_density_diffrn 1.65
_exptl_crystal_description 'block'
_diffrn_ambient_temperature 150
#These two values have been output from a single CSD field.
_refine_ls_R_factor_gt 0.0233
_refine_ls_wR_factor_gt 0.0233
_symmetry_cell_setting triclinic
_symmetry_space_group_name_H-M 'P -1'
_symmetry_Int_Tables_number 2
loop_
_symmetry_equiv_pos_site_id
_symmetry_equiv_pos_as_xyz
1 x,y,z
2 -x,-y,-z
_cell_length_a 7.7747(6)
_cell_length_b 8.2003(5)
_cell_length_c 8.8496(8)
_cell_angle_alpha 96.823(6)
_cell_angle_beta 113.416(8)
_cell_angle_gamma 109.189(6)
_cell_formula_units_Z 1
loop_
_atom_type_symbol
_atom_type_radius_bond
C 0.68
H 0.23
Co 1.26
N 0.68
O 0.68
loop_
_atom_site_label
_atom_site_type_symbol
_atom_site_fract_x
_atom_site_fract_y
_atom_site_fract_z
Co1 Co 1.00000 0.00000 1.00000
O1 O 1.13936(19) 0.28166(16) 1.07851(16)
O2 O 1.2658(2) -0.00280(19) 0.99060(17)
N1 N 1.1346(2) 0.01057(18) 1.26717(18)
C1 C 1.1768(3) -0.1293(2) 1.3088(2)
H1 H 1.15110 -0.22450 1.21920
C2 C 1.2552(3) -0.1421(2) 1.4743(2)
H2 H 1.27930 -0.24490 1.49750
C3 C 1.2980(3) -0.0020(2) 1.6059(2)
H3 H 1.35140 -0.00690 1.72140
C4 C 1.2617(3) 0.1453(2) 1.5664(2)
H4 H 1.29340 0.24430 1.65540
C5 C 1.1789(3) 0.1483(2) 1.3967(2)
C6 C 1.1359(3) 0.3073(2) 1.3522(2)
H5 H 1.18230 0.39850 1.46010
H6 H 0.98530 0.26690 1.28420
C7 C 1.2387(3) 0.3960(2) 1.2515(2)
H7 H 1.23000 0.51360 1.25000
H8 H 1.38590 0.41800 1.30770
H9 H 1.369(4) 0.085(3) 1.051(3)
H10 H 1.185(4) 0.333(3) 1.023(3)
H11 H 1.291(4) -0.095(4) 1.004(3)
O3 O 1.6122(2) 0.31661(17) 1.19078(17)
O4 O 1.6843(2) 0.31668(17) 0.97715(17)
O5 O 1.7286(2) 0.56576(16) 1.13165(18)
N2 N 1.6748(2) 0.39936(19) 1.09956(19)
O1A O 0.86064(19) -0.28166(16) 0.92149(16)
O2A O 0.7342(2) 0.00280(19) 1.00940(17)
N1A N 0.8654(2) -0.01057(18) 0.73283(18)
C1A C 0.8232(3) 0.1293(2) 0.6912(2)
H1A H 0.84890 0.22450 0.78080
C2A C 0.7448(3) 0.1421(2) 0.5257(2)
H2A H 0.72070 0.24490 0.50250
C3A C 0.7020(3) 0.0020(2) 0.3941(2)
H3A H 0.64860 0.00690 0.27860
C4A C 0.7383(3) -0.1453(2) 0.4336(2)
H4A H 0.70660 -0.24430 0.34460
C5A C 0.8211(3) -0.1483(2) 0.6033(2)
C6A C 0.8641(3) -0.3073(2) 0.6478(2)
H5A H 0.81770 -0.39850 0.53990
H6A H 1.01470 -0.26690 0.71580
C7A C 0.7613(3) -0.3960(2) 0.7485(2)
H7A H 0.77000 -0.51360 0.75000
H8A H 0.61410 -0.41800 0.69230
H9A H 0.631(4) -0.085(3) 0.949(3)
H10A H 0.815(4) -0.333(3) 0.977(3)
H11A H 0.709(4) 0.095(4) 0.996(3)
#END
