
#######################################################################
#
#                 Cambridge Crystallographic Data Centre
#                                CCDC
#
#######################################################################
#
# If this CIF has been generated from an entry in the Cambridge
# Structural Database, then it will include bibliographic, chemical,
# crystal, experimental, refinement or atomic coordinate data resulting
# from the CCDC's data processing and validation procedures.
#
#######################################################################

data_CSD_CIF_NOTBAZ
_audit_creation_date 2002-03-14
_audit_creation_method CSD-ConQuest-V1
_database_code_CSD NOTBAZ
_database_code_depnum_ccdc_archive 'CCDC 176127'
_chemical_formula_sum 'C16 H38 Mn1 N12 O16'
_chemical_formula_moiety
;
4(C1 H6 N3 1+),C12 H14 Mn1 O16 4-
;
_journal_coden_Cambridge 233
_journal_volume 46
_journal_year 2001
_journal_page_first 927
_journal_name_full 'Zh.Neorg.Khim.(Russ.)(Russ.J.Inorg.Chem.) '
loop_
_publ_author_name
"A.E.Shvelashvili"
"E.B.Miminoshvili"
"V.K.Belsky"
"E.R.Kuteliya"
"T.N.Sakvarelidze"
"D.A.Ediberidze"
"M.G.Tavberidze"
_chemical_name_systematic
;
tetrakis(Guanidinium) diaqua-bis(citrato-O,O')-manganese(ii)
;
_cell_volume    747.058
_exptl_crystal_colour 'colorless'
_exptl_crystal_density_diffrn 1.577
_exptl_crystal_description 'prism'
_diffrn_ambient_temperature ?
_diffrn_special_details
;
The study was carried out at room temperature,in the range 283-303K

;
#These two values have been output from a single CSD field.
_refine_ls_R_factor_gt 0.022
_refine_ls_wR_factor_gt 0.022
_symmetry_cell_setting triclinic
_symmetry_space_group_name_H-M 'P -1'
_symmetry_Int_Tables_number 2
loop_
_symmetry_equiv_pos_site_id
_symmetry_equiv_pos_as_xyz
1 x,y,z
2 -x,-y,-z
_cell_length_a 8.523(2)
_cell_length_b 9.865(2)
_cell_length_c 10.460(2)
_cell_angle_alpha 117.31(3)
_cell_angle_beta 97.95(3)
_cell_angle_gamma 99.58(3)
_cell_formula_units_Z 1
loop_
_atom_type_symbol
_atom_type_radius_bond
C 0.68
H 0.23
Mn 1.35
N 0.68
O 0.68
loop_
_atom_site_label
_atom_site_type_symbol
_atom_site_fract_x
_atom_site_fract_y
_atom_site_fract_z
Mn1 Mn 0.50000 0.50000 0.50000
O1 O 0.4663(3) 0.5916(3) 0.7276(2)
O2 O 0.23123(18) 0.42342(17) 0.42196(16)
O3 O 0.43078(19) 0.26613(18) 0.46261(18)
O4 O 0.2311(2) 0.06203(18) 0.41680(17)
O5 O 0.2201(2) 0.25705(19) 0.08133(18)
O6 O 0.2706(2) 0.05157(19) 0.09496(19)
O7 O -0.0086(2) 0.4795(2) 0.69246(18)
O8 O 0.1991(2) 0.37444(19) 0.70345(17)
N1 N 0.2670(3) 0.1338(3) 0.7825(3)
N2 N 0.3839(3) -0.0362(3) 0.8273(3)
N3 N 0.3871(3) -0.0279(3) 0.6119(2)
N4 N 0.1984(3) 0.5026(3) 0.0157(3)
N5 N 0.2148(4) 0.7280(3) 0.0055(3)
N6 N 0.2289(4) 0.7354(3) 0.2267(3)
C1 C 0.1503(3) 0.2655(2) 0.3843(2)
C2 C 0.2809(3) 0.1925(2) 0.4265(2)
C3 C 0.0723(3) 0.1647(3) 0.2161(2)
C4 C 0.1954(3) 0.1566(2) 0.1236(2)
C5 C 0.0153(3) 0.2696(3) 0.4670(3)
C6 C 0.0736(3) 0.3838(3) 0.6325(2)
C7 C 0.3483(3) 0.0241(3) 0.7406(3)
C8 C 0.2131(3) 0.6550(3) 0.0833(3)
H1 H 0.162(4) 0.459(4) 0.389(3)
H2 H 0.411(6) 0.515(6) 0.727(5)
H3 H 0.546(6) 0.595(5) 0.782(5)
H4 H 0.251(4) 0.182(4) 0.729(4)
H5 H 0.256(4) 0.172(3) 0.872(4)
H6 H 0.357(4) 0.010(4) 0.929(4)
H7 H 0.444(4) -0.091(4) 0.808(3)
H8 H 0.348(3) 0.009(3) 0.552(3)
H9 H 0.440(3) -0.095(3) 0.593(3)
H10 H 0.192(3) 0.455(3) 0.062(3)
H11 H 0.198(4) 0.450(4) -0.088(4)
H12 H 0.180(5) 0.671(4) -0.090(4)
H13 H 0.229(4) 0.821(4) 0.043(3)
H14 H 0.213(5) 0.681(5) 0.266(4)
H15 H 0.238(4) 0.839(4) 0.269(4)
H16 H -0.010(3) 0.215(3) 0.198(2)
H17 H 0.027(3) 0.064(3) 0.196(3)
H18 H -0.069(3) 0.302(3) 0.423(3)
H19 H -0.019(3) 0.166(3) 0.456(3)
O1A O 0.5337(3) 0.4084(3) 0.2724(2)
H2A H 0.589(6) 0.485(6) 0.273(5)
H3A H 0.454(6) 0.405(5) 0.218(5)
O2A O 0.76877(18) 0.57658(17) 0.57804(16)
C1A C 0.8497(3) 0.7345(2) 0.6157(2)
C2A C 0.7191(3) 0.8075(2) 0.5735(2)
O3A O 0.56922(19) 0.73387(18) 0.53739(18)
O4A O 0.7689(2) 0.93797(18) 0.58320(17)
C3A C 0.9277(3) 0.8353(3) 0.7839(2)
C4A C 0.8046(3) 0.8434(2) 0.8764(2)
O5A O 0.7799(2) 0.74295(19) 0.91867(18)
O6A O 0.7294(2) 0.94843(19) 0.90504(19)
H16A H 1.010(3) 0.785(3) 0.802(2)
H17A H 0.973(3) 0.936(3) 0.804(3)
C5A C 0.9847(3) 0.7304(3) 0.5330(3)
C6A C 0.9264(3) 0.6162(3) 0.3675(2)
O7A O 1.0086(2) 0.5205(2) 0.30754(18)
O8A O 0.8009(2) 0.62556(19) 0.29655(17)
H18A H 1.069(3) 0.698(3) 0.577(3)
H19A H 1.019(3) 0.834(3) 0.544(3)
H1A H 0.838(4) 0.541(4) 0.611(3)
#END
