
#######################################################################
#
#                 Cambridge Crystallographic Data Centre
#                                CCDC
#
#######################################################################
#
# If this CIF has been generated from an entry in the Cambridge
# Structural Database, then it will include bibliographic, chemical,
# crystal, experimental, refinement or atomic coordinate data resulting
# from the CCDC's data processing and validation procedures.
#
#######################################################################

data_CSD_CIF_NPTTHF
_audit_creation_date 1975-04-17
_audit_creation_method CSD-ConQuest-V1
_database_code_CSD NPTTHF
_chemical_formula_sum 'C16 H16 Fe1 N2 O5'
_chemical_formula_moiety
;
C16 H16 Fe1 N2 O5
;
_journal_coden_Cambridge 36
_journal_volume 76
_journal_year 1974
_journal_page_first 65
_journal_name_full 'J.Organomet.Chem. '
loop_
_publ_author_name
"A.Immirzi"
_chemical_name_systematic
;
(2-(m-Nitrophenyl-amino)-trans,trans-3,5-heptadiene)-tricarbonyl-iron
;
_cell_volume    851.780
_exptl_crystal_density_diffrn 1.45
_diffrn_ambient_temperature ?
_diffrn_special_details
;
The study was carried out at room temperature,in the range 283-303K

;
#These two values have been output from a single CSD field.
_refine_ls_R_factor_gt 0.026
_refine_ls_wR_factor_gt 0.026
_symmetry_cell_setting triclinic
_symmetry_space_group_name_H-M 'P -1'
_symmetry_Int_Tables_number 2
loop_
_symmetry_equiv_pos_site_id
_symmetry_equiv_pos_as_xyz
1 x,y,z
2 -x,-y,-z
_cell_length_a 11.743(2)
_cell_length_b 9.755(2)
_cell_length_c 7.914(1)
_cell_angle_alpha 94.66(1)
_cell_angle_beta 89.55(1)
_cell_angle_gamma 109.46(1)
_cell_formula_units_Z 2
loop_
_atom_type_symbol
_atom_type_radius_bond
C 0.68
H 0.20
Fe 1.30
N 0.68
O 0.68
loop_
_atom_site_label
_atom_site_type_symbol
_atom_site_fract_x
_atom_site_fract_y
_atom_site_fract_z
C1 C 0.34310 0.05181 0.09034
C2 C 0.08825 0.07721 0.31033
C3 C -0.08277 0.26698 0.27729
C4 C -0.05306 0.29144 0.44979
C5 C -0.12693 0.33981 0.55872
C6 C -0.22697 0.36833 0.50801
C7 C -0.25482 0.34556 0.33578
C8 C -0.18439 0.29630 0.22338
C9 C 0.50552 0.29571 -0.03794
C10 C 0.38532 0.33858 0.21416
C11 C 0.38113 0.10069 -0.36415
C12 C 0.29448 0.12957 -0.23416
C13 C 0.28551 0.26967 -0.20221
C14 C 0.21848 0.29797 -0.06330
C15 C 0.16270 0.18092 0.03732
C16 C 0.10172 0.20365 0.20144
Fe1 Fe 0.35130 0.22427 0.01998
H1 H 0.16370 0.07840 0.34890
H2 H 0.06080 -0.01560 0.24630
H3 H 0.03110 0.07050 0.39580
H4 H -0.02210 0.23440 0.07360
H5 H 0.01680 0.27790 0.48960
H6 H -0.27620 0.40280 0.58520
H7 H -0.31810 0.36870 0.29510
H8 H -0.20590 0.27910 0.11470
H9 H 0.42410 0.02880 -0.33050
H10 H 0.45080 0.19080 -0.38430
H11 H 0.33440 0.05060 -0.46170
H12 H 0.22500 0.04450 -0.21080
H13 H 0.33190 0.34860 -0.25820
H14 H 0.21940 0.39630 -0.03270
H15 H 0.12810 0.08680 -0.01850
H16 H 0.14850 0.29400 0.26280
N1 N -0.01691 0.21216 0.15969
N2 N -0.09360 0.36309 0.74076
O1 O 0.33592 -0.05794 0.13692
O2 O 0.60469 0.34228 -0.07249
O3 O 0.41046 0.40991 0.33862
O4 O -0.02292 0.30680 0.79067
O5 O -0.13897 0.43606 0.83295
#END
