
#######################################################################
#
#                 Cambridge Crystallographic Data Centre
#                                CCDC
#
#######################################################################
#
# If this CIF has been generated from an entry in the Cambridge
# Structural Database, then it will include bibliographic, chemical,
# crystal, experimental, refinement or atomic coordinate data resulting
# from the CCDC's data processing and validation procedures.
#
#######################################################################

data_CSD_CIF_NUCCUK
_audit_creation_date 2010-04-23
_audit_creation_method CSD-ConQuest-V1
_database_code_CSD NUCCUK
_database_code_depnum_ccdc_archive 'CCDC 714832'
_chemical_formula_sum 'C19 H26 Cl2 Mn1 N14 S2'
_chemical_formula_moiety
;
(C18 H24 Mn1 N14 S2)n,n(C1 H2 Cl2)
;
_journal_coden_Cambridge 1350
_journal_volume 11
_journal_year 2009
_journal_page_first 997
_journal_name_full 'CrystEngComm '
loop_
_publ_author_name
"Xia Zhu"
"Xun-Gao Liu"
"Bao-Long Li"
"Yong Zhang"
_chemical_name_systematic
;
catena-[bis(\m~2~-1,4-bis(1,2,4-Triazol-1-yl)butane-N^4^,N^4'^)-bis(isothiocya
nato)-manganese(ii) dichloromethane solvate]
;
_cell_volume    806.984
_exptl_crystal_colour 'colorless'
_exptl_crystal_density_diffrn 1.318
_exptl_special_details
;
air-sensitive

;
_exptl_crystal_description 'block'
_diffrn_ambient_temperature 193
#These two values have been output from a single CSD field.
_refine_ls_R_factor_gt 0.0728
_refine_ls_wR_factor_gt 0.0728
_symmetry_cell_setting triclinic
_symmetry_space_group_name_H-M 'P -1'
_symmetry_Int_Tables_number 2
loop_
_symmetry_equiv_pos_site_id
_symmetry_equiv_pos_as_xyz
1 x,y,z
2 -x,-y,-z
_cell_length_a 8.4645(18)
_cell_length_b 9.117(2)
_cell_length_c 11.632(2)
_cell_angle_alpha 110.885(6)
_cell_angle_beta 90.108(3)
_cell_angle_gamma 104.698(5)
_cell_formula_units_Z 1
loop_
_atom_type_symbol
_atom_type_radius_bond
C 0.68
H 0.23
Cl 0.99
Mn 1.61
N 0.68
S 1.02
loop_
_atom_site_label
_atom_site_type_symbol
_atom_site_fract_x
_atom_site_fract_y
_atom_site_fract_z
Mn1 Mn 0.00000 0.00000 0.00000
S1 S 0.1648(3) 0.58689(17) 0.25003(17)
N1 N 0.4186(4) -0.1643(4) 0.0792(3)
N2 N 0.4754(4) -0.0019(4) 0.1518(3)
N3 N 0.2334(4) -0.0532(4) 0.0453(3)
N4 N -0.1889(4) 0.0188(4) 0.3555(3)
N5 N -0.1350(5) -0.1171(5) 0.3320(4)
N6 N -0.0772(4) -0.0143(4) 0.1833(3)
N7 N 0.1104(5) 0.2624(4) 0.0926(4)
C1 C 0.5146(5) -0.2752(5) 0.0855(4)
H1 H 0.51340 -0.28090 0.16890
H2 H 0.63000 -0.23010 0.07350
C2 C 0.4503(5) -0.4452(5) -0.0099(4)
H3 H 0.46000 -0.44240 -0.09400
H4 H 0.33290 -0.48920 -0.00220
C3 C 0.3594(5) 0.0571(5) 0.1279(4)
H5 H 0.36310 0.16920 0.16570
C4 C 0.2758(5) -0.1916(5) 0.0175(4)
H6 H 0.21280 -0.29510 -0.03840
C5 C -0.2787(6) 0.0759(6) 0.4630(4)
H7 H -0.27980 0.18970 0.47860
H8 H -0.22120 0.07510 0.53690
C6 C -0.4544(5) -0.0303(6) 0.4435(4)
H9 H -0.45380 -0.14430 0.42770
H10 H -0.51250 -0.02890 0.37010
C7 C -0.0698(6) -0.1307(6) 0.2274(4)
H11 H -0.02120 -0.21610 0.18610
C8 C -0.1545(5) 0.0769(5) 0.2666(4)
H12 H -0.18120 0.17030 0.26290
C9 C 0.1314(5) 0.3970(5) 0.1579(4)
Cl1 Cl 0.2557(4) 0.2660(4) 0.4176(3)
Cl2 Cl 0.3272(5) 0.5581(5) 0.6432(4)
C10 C 0.1881(15) 0.3871(15) 0.5210(15)
H13 H 0.11230 0.32310 0.56140
H14 H 0.12090 0.43310 0.48060
Mn1* Mn 1.00000 -1.00000 0.00000
Mn1** Mn -1.00000 0.00000 1.00000
S1A S -0.1648(3) -0.58689(17) -0.25003(17)
N1A N 0.5814(4) -0.8357(4) -0.0792(3)
N2A N 0.5246(4) -0.9981(4) -0.1518(3)
N3A N 0.7666(4) -0.9468(4) -0.0453(3)
N3A* N -0.2334(4) 0.0532(4) -0.0453(3)
N4A N -0.8111(4) -0.0188(4) 0.6445(3)
N5A N -0.8650(5) 0.1171(5) 0.6680(4)
N6A N -0.9228(4) 0.0143(4) 0.8167(3)
N6A* N 0.0772(4) 0.0143(4) -0.1833(3)
N7A N -0.1104(5) -0.2624(4) -0.0926(4)
C1A C 0.4854(5) -0.7248(5) -0.0855(4)
H1A H 0.48660 -0.71910 -0.16890
H2A H 0.37000 -0.76990 -0.07350
C2A C 0.5497(5) -0.5548(5) 0.0099(4)
H3A H 0.54000 -0.55760 0.09400
H4A H 0.66710 -0.51080 0.00220
C3A C 0.6406(5) -1.0571(5) -0.1279(4)
H5A H 0.63690 -1.16920 -0.16570
C4A C 0.7242(5) -0.8084(5) -0.0175(4)
H6A H 0.78720 -0.70490 0.03840
C5A C -0.7213(6) -0.0759(6) 0.5370(4)
H7A H -0.72020 -0.18970 0.52140
H8A H -0.77880 -0.07510 0.46310
C6A C -0.5456(5) 0.0303(6) 0.5565(4)
H9A H -0.54620 0.14430 0.57230
H10A H -0.48750 0.02890 0.62990
C7A C -0.9302(6) 0.1307(6) 0.7726(4)
H11A H -0.97880 0.21610 0.81390
C8A C -0.8455(5) -0.0769(5) 0.7334(4)
H12A H -0.81880 -0.17030 0.73710
C9A C -0.1314(5) -0.3970(5) -0.1579(4)
#END
