
#######################################################################
#
#                 Cambridge Crystallographic Data Centre
#                                CCDC
#
#######################################################################
#
# If this CIF has been generated from an entry in the Cambridge
# Structural Database, then it will include bibliographic, chemical,
# crystal, experimental, refinement or atomic coordinate data resulting
# from the CCDC's data processing and validation procedures.
#
#######################################################################

data_CSD_CIF_NUJDAZ
_audit_creation_date 2015-04-29
_audit_creation_method CSD-ConQuest-V1
_database_code_CSD NUJDAZ
_database_code_depnum_ccdc_archive 'CCDC 752075'
_chemical_formula_sum 'C26 H34 Mn2 N4 O16'
_chemical_formula_moiety
;
C26 H30 Mn2 N4 O14,2(H2 O1)
;
_journal_coden_Cambridge 597
_journal_volume 126
_journal_year 2014
_journal_page_first 1153
_journal_name_full 'J.Chem.Sci.(Bangalore,India) '
loop_
_publ_author_name
"S.Mohapatra"
"S.Roy"
"D.Ghoshal"
"T.K.Maji"
_chemical_name_systematic
;
hexaaqua-(\m-4,4'-ethane-1,2-diylbispyridine)-bis(pyridine-2,4-dicarboxylato)-
di-manganese(ii) dihydrate
;
_cell_volume    790.404
_exptl_crystal_colour 'light yellow'
_exptl_crystal_density_diffrn 1.614
_exptl_crystal_description 'square block'
_diffrn_ambient_temperature 293
#These two values have been output from a single CSD field.
_refine_ls_R_factor_gt 0.0351
_refine_ls_wR_factor_gt 0.0351
_symmetry_cell_setting triclinic
_symmetry_space_group_name_H-M 'P -1'
_symmetry_Int_Tables_number 2
loop_
_symmetry_equiv_pos_site_id
_symmetry_equiv_pos_as_xyz
1 x,y,z
2 -x,-y,-z
_cell_length_a 6.1628(9)
_cell_length_b 11.4705(18)
_cell_length_c 12.3489(17)
_cell_angle_alpha 75.303(10)
_cell_angle_beta 71.520(9)
_cell_angle_gamma 76.816(11)
_cell_formula_units_Z 1
loop_
_atom_type_symbol
_atom_type_radius_bond
C 0.68
H 0.23
Mn 1.61
N 0.68
O 0.68
loop_
_atom_site_label
_atom_site_type_symbol
_atom_site_fract_x
_atom_site_fract_y
_atom_site_fract_z
C1 C 1.1385(3) 0.67760(14) 0.73613(13)
C2 C 1.2835(3) 0.77413(14) 0.66074(14)
C3 C 1.2398(3) 0.55926(15) 0.77370(14)
C4 C 1.1001(3) 0.47473(14) 0.84573(14)
C5 C 1.2090(3) 0.34721(15) 0.89586(15)
C6 C 0.8611(3) 0.51139(16) 0.87349(15)
C7 C 0.7732(3) 0.63207(15) 0.83318(15)
C8 C 0.9867(3) 1.16167(16) 0.70252(16)
C9 C 1.0176(3) 1.28161(16) 0.66737(16)
C10 C 0.8734(3) 1.36480(14) 0.60745(14)
C11 C 0.7006(3) 1.32196(16) 0.58711(17)
C12 C 0.6800(3) 1.20000(16) 0.62546(17)
C13 C 0.9140(4) 1.49492(15) 0.56024(16)
N1 N 0.9071(2) 0.71465(12) 0.76778(12)
N2 N 0.8213(2) 1.11930(12) 0.68165(12)
O1 O 0.8284(3) 0.92717(13) 0.89752(12)
O2 O 0.7354(3) 0.92913(15) 0.56202(12)
O3 O 0.4357(2) 0.92997(15) 0.79979(13)
O4 O 1.1800(2) 0.88503(10) 0.65267(11)
O5 O 1.4908(2) 0.74172(11) 0.61409(12)
O6 O 1.4209(3) 0.33077(13) 0.88229(15)
O7 O 1.0753(3) 0.27116(12) 0.94914(14)
Mn1 Mn 0.80415(4) 0.920812(19) 0.727674(19)
H1 H 0.799(5) 0.986(2) 0.922(2)
H2 H 0.836(5) 0.875(3) 0.952(2)
H3 H 0.746(5) 0.974(3) 0.505(3)
H4 H 0.679(6) 0.874(3) 0.561(3)
H5 H 0.332(5) 0.914(2) 0.769(2)
H6 H 0.386(6) 0.902(3) 0.873(3)
H7 H 1.401(4) 0.535(2) 0.752(2)
H8 H 0.768(4) 0.453(2) 0.921(2)
H9 H 0.608(4) 0.668(2) 0.8521(19)
H10 H 1.089(4) 1.108(2) 0.740(2)
H11 H 1.132(4) 1.3102(19) 0.6880(18)
H12 H 0.587(4) 1.374(2) 0.553(2)
H13 H 0.559(4) 1.173(2) 0.615(2)
H14 H 0.983(5) 1.513(3) 0.615(3)
H15 H 0.771(4) 1.550(2) 0.558(2)
O8 O 0.2854(3) 0.84729(13) 1.02805(12)
H16 H 0.188(6) 0.805(3) 1.036(3)
H17 H 0.408(5) 0.800(3) 1.046(2)
C8A C 1.0133(3) 1.83833(16) 0.29748(16)
C9A C 0.9824(3) 1.71839(16) 0.33263(16)
C10A C 1.1266(3) 1.63520(14) 0.39255(14)
C11A C 1.2994(3) 1.67804(16) 0.41289(17)
C12A C 1.3200(3) 1.80000(16) 0.37454(17)
C13A C 1.0860(4) 1.50508(15) 0.43976(16)
N2A N 1.1787(2) 1.88070(12) 0.31835(12)
H10A H 0.911(4) 1.892(2) 0.260(2)
H11A H 0.868(4) 1.6898(19) 0.3120(18)
H12A H 1.413(4) 1.626(2) 0.447(2)
H13A H 1.441(4) 1.827(2) 0.385(2)
H14A H 1.017(5) 1.487(3) 0.385(3)
H15A H 1.229(4) 1.450(2) 0.442(2)
C1A C 0.8615(3) 2.32240(14) 0.26387(13)
C2A C 0.7165(3) 2.22587(14) 0.33926(14)
C3A C 0.7602(3) 2.44074(15) 0.22630(14)
C4A C 0.8999(3) 2.52527(14) 0.15427(14)
C5A C 0.7910(3) 2.65279(15) 0.10414(15)
C6A C 1.1389(3) 2.48861(16) 0.12651(15)
C7A C 1.2268(3) 2.36793(15) 0.16682(15)
N1A N 1.0929(2) 2.28535(12) 0.23222(12)
O1A O 1.1716(3) 2.07283(13) 0.10248(12)
O2A O 1.2646(3) 2.07087(15) 0.43798(12)
O3A O 1.5643(2) 2.07003(15) 0.20021(13)
O4A O 0.8200(2) 2.11497(10) 0.34733(11)
O5A O 0.5092(2) 2.25828(11) 0.38591(12)
O6A O 0.5791(3) 2.66923(13) 0.11771(15)
O7A O 0.9247(3) 2.72884(12) 0.05086(14)
Mn1A Mn 1.19585(4) 2.079188(19) 0.272326(19)
H1A H 1.201(5) 2.014(2) 0.078(2)
H2A H 1.164(5) 2.125(3) 0.048(2)
H3A H 1.254(5) 2.026(3) 0.495(3)
H4A H 1.321(6) 2.126(3) 0.439(3)
H5A H 1.668(5) 2.086(2) 0.231(2)
H6A H 1.614(6) 2.098(3) 0.127(3)
H7A H 0.599(4) 2.465(2) 0.248(2)
H8A H 1.232(4) 2.547(2) 0.079(2)
H9A H 1.392(4) 2.332(2) 0.1479(19)
#END
