
#######################################################################
#
#                 Cambridge Crystallographic Data Centre
#                                CCDC
#
#######################################################################
#
# If this CIF has been generated from an entry in the Cambridge
# Structural Database, then it will include bibliographic, chemical,
# crystal, experimental, refinement or atomic coordinate data resulting
# from the CCDC's data processing and validation procedures.
#
#######################################################################

data_CSD_CIF_NUKHOS
_audit_creation_date 2015-04-30
_audit_creation_method CSD-ConQuest-V1
_database_code_CSD NUKHOS
_database_code_depnum_ccdc_archive 'CCDC 1061935'
_chemical_formula_sum 'C28 H24 Co1 N6 O8'
_chemical_formula_moiety
;
C28 H24 Co1 N6 O8
;
_journal_coeditor_code "wm5151"
_journal_coden_Cambridge 1828
_journal_volume 71
_journal_year 2015
_journal_page_first 561
_journal_name_full 'Acta Crystallogr.,Sect.E:Cryst.Commun. '
loop_
_publ_author_name
"G.S.Askin"
"H.Necefoglu"
"G.Yilmaz Nayir"
"R.Catak Celik"
"T.Hokelek"
_chemical_name_systematic
;
diaqua-bis(4-cyanobenzoato)-bis(nicotinamide)-cobalt(ii)
;
_cell_volume    725.131
_exptl_crystal_colour 'light pink'
_exptl_crystal_density_diffrn 1.446
_exptl_crystal_description 'prism'
_diffrn_ambient_temperature 296
#These two values have been output from a single CSD field.
_refine_ls_R_factor_gt 0.0435
_refine_ls_wR_factor_gt 0.0435
_symmetry_cell_setting triclinic
_symmetry_space_group_name_H-M 'P -1'
_symmetry_Int_Tables_number 2
loop_
_symmetry_equiv_pos_site_id
_symmetry_equiv_pos_as_xyz
1 x,y,z
2 -x,-y,-z
_cell_length_a 7.6474(3)
_cell_length_b 9.9266(4)
_cell_length_c 10.2782(4)
_cell_angle_alpha 78.680(2)
_cell_angle_beta 84.200(3)
_cell_angle_gamma 71.556(2)
_cell_formula_units_Z 1
loop_
_atom_type_symbol
_atom_type_radius_bond
C 0.68
H 0.23
Co 1.26
N 0.68
O 0.68
loop_
_atom_site_label
_atom_site_type_symbol
_atom_site_fract_x
_atom_site_fract_y
_atom_site_fract_z
Co1 Co 0.50000 0.50000 0.50000
O1 O 0.6366(2) 0.34341(18) 0.23257(16)
O2 O 0.38784(18) 0.47948(14) 0.33110(13)
O3 O 0.0668(2) 0.16139(15) 0.50697(18)
O4 O 0.22430(19) 0.57799(15) 0.57811(16)
H1 H 0.250(4) 0.608(3) 0.644(3)
H2 H 0.147(4) 0.643(3) 0.538(2)
N1 N -0.0584(5) 0.1958(4) -0.1318(4)
N2 N 0.4952(2) 0.28815(16) 0.59167(15)
N3 N 0.1614(3) -0.0568(2) 0.6345(2)
H3 H 0.080(4) -0.079(3) 0.602(3)
H4 H 0.238(4) -0.121(3) 0.690(3)
C1 C 0.4662(2) 0.40272(19) 0.24567(17)
C2 C 0.3451(2) 0.37166(19) 0.15590(17)
C3 C 0.1622(3) 0.3852(2) 0.19215(19)
H5 H 0.10980 0.42400 0.26750
C4 C 0.0562(3) 0.3414(3) 0.1171(2)
H6 H -0.06610 0.34860 0.14300
C5 C 0.1336(3) 0.2869(3) 0.0037(2)
C6 C 0.3143(4) 0.2788(3) -0.0368(2)
H7 H 0.36410 0.24600 -0.11520
C7 C 0.4203(3) 0.3198(3) 0.0398(2)
H8 H 0.54240 0.31260 0.01370
C8 C 0.0255(4) 0.2372(4) -0.0727(3)
C9 C 0.6293(2) 0.1956(2) 0.66831(19)
H9 H 0.72800 0.22520 0.68410
C10 C 0.6261(3) 0.0585(2) 0.7244(2)
H10 H 0.72100 -0.00330 0.77720
C11 C 0.4798(3) 0.0138(2) 0.7013(2)
H11 H 0.47560 -0.07860 0.73790
C12 C 0.3394(2) 0.10851(18) 0.62286(18)
C13 C 0.3539(2) 0.24444(18) 0.57084(18)
H12 H 0.26010 0.30880 0.51850
C14 C 0.1776(3) 0.07268(19) 0.5848(2)
O1A O 0.3634(2) 0.65659(18) 0.76743(16)
O2A O 0.61216(18) 0.52052(14) 0.66890(13)
O3A O 0.9332(2) 0.83861(15) 0.49303(18)
O4A O 0.77570(19) 0.42201(15) 0.42189(16)
H1A H 0.750(4) 0.392(3) 0.356(3)
H2A H 0.853(4) 0.357(3) 0.462(2)
N1A N 1.0584(5) 0.8042(4) 1.1318(4)
N2A N 0.5048(2) 0.71185(16) 0.40833(15)
N3A N 0.8386(3) 1.0568(2) 0.3655(2)
H3A H 0.920(4) 1.079(3) 0.398(3)
H4A H 0.762(4) 1.121(3) 0.310(3)
C1A C 0.5338(2) 0.59728(19) 0.75433(17)
C2A C 0.6549(2) 0.62834(19) 0.84410(17)
C3A C 0.8378(3) 0.6148(2) 0.80785(19)
H5A H 0.89020 0.57600 0.73250
C4A C 0.9438(3) 0.6586(3) 0.8829(2)
H6A H 1.06610 0.65140 0.85700
C5A C 0.8664(3) 0.7131(3) 0.9963(2)
C6A C 0.6857(4) 0.7212(3) 1.0368(2)
H7A H 0.63590 0.75400 1.11520
C7A C 0.5797(3) 0.6802(3) 0.9602(2)
H8A H 0.45760 0.68740 0.98630
C8A C 0.9745(4) 0.7628(4) 1.0727(3)
C9A C 0.3707(2) 0.8044(2) 0.33169(19)
H9A H 0.27200 0.77480 0.31590
C10A C 0.3739(3) 0.9415(2) 0.2756(2)
H10A H 0.27900 1.00330 0.22280
C11A C 0.5202(3) 0.9862(2) 0.2987(2)
H11A H 0.52440 1.07860 0.26210
C12A C 0.6606(2) 0.89149(18) 0.37714(18)
C13A C 0.6461(2) 0.75556(18) 0.42916(18)
H12A H 0.73990 0.69120 0.48150
C14A C 0.8224(3) 0.92732(19) 0.4152(2)
#END
