
#######################################################################
#
#                 Cambridge Crystallographic Data Centre
#                                CCDC
#
#######################################################################
#
# If this CIF has been generated from an entry in the Cambridge
# Structural Database, then it will include bibliographic, chemical,
# crystal, experimental, refinement or atomic coordinate data resulting
# from the CCDC's data processing and validation procedures.
#
#######################################################################

data_CSD_CIF_NUNKEN
_audit_creation_date 2010-06-29
_audit_creation_method CSD-ConQuest-V1
_database_code_CSD NUNKEN
_database_code_depnum_ccdc_archive 'CCDC 777838'
_chemical_formula_sum 'C28 H30 Mn1 N4 O8'
_chemical_formula_moiety
;
C28 H30 Mn1 N4 O8
;
_journal_coeditor_code "IUCr CI5069"
_journal_coden_Cambridge 1370
_journal_volume 66
_journal_year 2010
_journal_page_first m490
_journal_name_full 'Acta Crystallogr.,Sect.E:Struct.Rep.Online '
loop_
_publ_author_name
"H.Necefoglu"
"E.Cimen"
"B.Tercan"
"H.Dal"
"T.Hokelek"
_chemical_name_systematic
;
Diaqua-bis(4-methylbenzoato-\kO)-bis(nicotinamide-\kN^1^)-manganese(ii)
;
_cell_volume    683.580
_exptl_crystal_colour 'colorless'
_exptl_crystal_density_diffrn 1.471
_exptl_crystal_description 'block'
_diffrn_ambient_temperature 100
#These two values have been output from a single CSD field.
_refine_ls_R_factor_gt 0.035
_refine_ls_wR_factor_gt 0.035
_symmetry_cell_setting triclinic
_symmetry_space_group_name_H-M 'P -1'
_symmetry_Int_Tables_number 2
loop_
_symmetry_equiv_pos_site_id
_symmetry_equiv_pos_as_xyz
1 x,y,z
2 -x,-y,-z
_cell_length_a 7.3289(2)
_cell_length_b 10.1768(3)
_cell_length_c 10.6292(3)
_cell_angle_alpha 66.852(2)
_cell_angle_beta 78.232(4)
_cell_angle_gamma 70.206(3)
_cell_formula_units_Z 1
loop_
_atom_type_symbol
_atom_type_radius_bond
C 0.68
H 0.23
Mn 1.61
N 0.68
O 0.68
loop_
_atom_site_label
_atom_site_type_symbol
_atom_site_fract_x
_atom_site_fract_y
_atom_site_fract_z
Mn1 Mn 0.00000 0.00000 0.00000
O1 O 0.24237(17) -0.33733(12) 0.25988(12)
O2 O 0.16077(17) -0.08763(12) 0.17238(12)
O3 O 0.78404(16) -0.34130(13) -0.01469(13)
O4 O 0.18323(19) 0.15102(14) -0.09400(13)
H1 H 0.208(4) 0.190(3) -0.1860(17)
H2 H 0.218(4) 0.205(3) -0.058(2)
N1 N 0.21166(18) -0.15932(14) -0.10409(13)
N2 N 0.84692(19) -0.50868(14) -0.11834(14)
H3 H 0.810(3) -0.555(3) -0.159(2)
H4 H 0.958(4) -0.545(3) -0.084(2)
C1 C 0.2620(2) -0.21470(17) 0.24423(15)
C2 C 0.4196(2) -0.21314(16) 0.31505(15)
C3 C 0.4331(2) -0.07942(16) 0.31453(15)
H5 H 0.34260 0.00990 0.27140
C4 C 0.5805(2) -0.07856(18) 0.37770(16)
H6 H 0.58710 0.01150 0.37670
C5 C 0.7191(2) -0.21079(19) 0.44279(16)
C6 C 0.7063(2) -0.34413(18) 0.44183(16)
H7 H 0.79790 -0.43330 0.48390
C7 C 0.5589(2) -0.34546(17) 0.37902(16)
H8 H 0.55280 -0.43550 0.37950
C8 C 0.8783(3) -0.2097(2) 0.51214(18)
H9 H 0.89470 -0.11150 0.47630
H10 H 0.99770 -0.27970 0.49510
H11 H 0.84370 -0.23710 0.60920
C9 C 0.3975(2) -0.22336(16) -0.07444(15)
H12 H 0.44180 -0.19710 -0.01420
C10 C 0.5280(2) -0.32707(16) -0.12893(15)
C11 C 0.4623(2) -0.36415(17) -0.22143(16)
H13 H 0.54530 -0.43280 -0.26020
C12 C 0.2710(2) -0.29647(18) -0.25420(17)
H14 H 0.22390 -0.31820 -0.31640
C13 C 0.1508(2) -0.19621(17) -0.19343(16)
H15 H 0.02210 -0.15230 -0.21530
C14 C 0.7300(2) -0.39401(16) -0.08365(15)
O1A O -0.24237(17) 0.33733(12) -0.25988(12)
O2A O -0.16077(17) 0.08763(12) -0.17238(12)
O3A O -0.78404(16) 0.34130(13) 0.01469(13)
O4A O -0.18323(19) -0.15102(14) 0.09400(13)
H1A H -0.208(4) -0.190(3) 0.1860(17)
H2A H -0.218(4) -0.205(3) 0.058(2)
N1A N -0.21166(18) 0.15932(14) 0.10409(13)
N2A N -0.84692(19) 0.50868(14) 0.11834(14)
H3A H -0.810(3) 0.555(3) 0.159(2)
H4A H -0.958(4) 0.545(3) 0.084(2)
C1A C -0.2620(2) 0.21470(17) -0.24423(15)
C2A C -0.4196(2) 0.21314(16) -0.31505(15)
C3A C -0.4331(2) 0.07942(16) -0.31453(15)
H5A H -0.34260 -0.00990 -0.27140
C4A C -0.5805(2) 0.07856(18) -0.37770(16)
H6A H -0.58710 -0.01150 -0.37670
C5A C -0.7191(2) 0.21079(19) -0.44279(16)
C6A C -0.7063(2) 0.34413(18) -0.44183(16)
H7A H -0.79790 0.43330 -0.48390
C7A C -0.5589(2) 0.34546(17) -0.37902(16)
H8A H -0.55280 0.43550 -0.37950
C8A C -0.8783(3) 0.2097(2) -0.51214(18)
H9A H -0.89470 0.11150 -0.47630
H10A H -0.99770 0.27970 -0.49510
H11A H -0.84370 0.23710 -0.60920
C9A C -0.3975(2) 0.22336(16) 0.07444(15)
H12A H -0.44180 0.19710 0.01420
C10A C -0.5280(2) 0.32707(16) 0.12893(15)
C11A C -0.4623(2) 0.36415(17) 0.22143(16)
H13A H -0.54530 0.43280 0.26020
C12A C -0.2710(2) 0.29647(18) 0.25420(17)
H14A H -0.22390 0.31820 0.31640
C13A C -0.1508(2) 0.19621(17) 0.19343(16)
H15A H -0.02210 0.15230 0.21530
C14A C -0.7300(2) 0.39401(16) 0.08365(15)
#END
