
#######################################################################
#
#                 Cambridge Crystallographic Data Centre
#                                CCDC
#
#######################################################################
#
# If this CIF has been generated from an entry in the Cambridge
# Structural Database, then it will include bibliographic, chemical,
# crystal, experimental, refinement or atomic coordinate data resulting
# from the CCDC's data processing and validation procedures.
#
#######################################################################

data_CSD_CIF_NUPBOQ
_audit_creation_date 2010-06-29
_audit_creation_method CSD-ConQuest-V1
_database_code_CSD NUPBOQ
_database_code_depnum_ccdc_archive 'CCDC 777878'
_chemical_formula_sum 'C36 H46 Co1 N4 O8'
_chemical_formula_moiety
;
C36 H46 Co1 N4 O8
;
_journal_coeditor_code "IUCr CI5076"
_journal_coden_Cambridge 1370
_journal_volume 66
_journal_year 2010
_journal_page_first m556
_journal_name_full 'Acta Crystallogr.,Sect.E:Struct.Rep.Online '
loop_
_publ_author_name
"H.Necefoglu"
"E.Cimen"
"B.Tercan"
"E.Ermis"
"T.Hokelek"
_chemical_name_systematic
;
Diaqua-bis(N,N-diethylnicotinamide)-bis(4-methylbenzoato)-cobalt(ii)
;
_cell_volume    898.709
_exptl_crystal_colour 'pink'
_exptl_crystal_density_diffrn 1.334
_exptl_crystal_description 'block'
_diffrn_ambient_temperature 100
#These two values have been output from a single CSD field.
_refine_ls_R_factor_gt 0.0377
_refine_ls_wR_factor_gt 0.0377
_symmetry_cell_setting triclinic
_symmetry_space_group_name_H-M 'P -1'
_symmetry_Int_Tables_number 2
loop_
_symmetry_equiv_pos_site_id
_symmetry_equiv_pos_as_xyz
1 x,y,z
2 -x,-y,-z
_cell_length_a 7.2791(2)
_cell_length_b 8.5453(2)
_cell_length_c 16.0438(4)
_cell_angle_alpha 84.090(3)
_cell_angle_beta 77.583(3)
_cell_angle_gamma 67.271(2)
_cell_formula_units_Z 1
loop_
_atom_type_symbol
_atom_type_radius_bond
C 0.68
H 0.23
Co 1.26
N 0.68
O 0.68
loop_
_atom_site_label
_atom_site_type_symbol
_atom_site_fract_x
_atom_site_fract_y
_atom_site_fract_z
Co1 Co 0.00000 0.00000 0.00000
O1 O -0.07573(18) 0.12790(16) -0.20025(8)
O2 O 0.11412(18) 0.12158(15) -0.10611(7)
O3 O 0.84302(19) -0.32653(16) -0.12244(8)
O4 O 0.22201(18) 0.01547(16) 0.06192(8)
H1 H 0.191(4) -0.036(3) 0.1190(12)
H2 H 0.211(4) 0.117(2) 0.0762(16)
N1 N 0.2241(2) -0.23699(18) -0.04865(9)
N2 N 0.8480(2) -0.42543(18) -0.24793(9)
C1 C 0.0833(3) 0.1274(2) -0.18126(11)
C2 C 0.2508(3) 0.1341(2) -0.25355(11)
C3 C 0.2310(3) 0.1313(2) -0.33787(11)
H3 H 0.11610 0.12120 -0.34920
C4 C 0.3813(3) 0.1434(2) -0.40496(11)
H4 H 0.36550 0.14250 -0.46090
C5 C 0.5557(3) 0.1569(2) -0.38953(11)
C6 C 0.5781(3) 0.1543(2) -0.30536(12)
H5 H 0.69520 0.16030 -0.29400
C7 C 0.4276(3) 0.1429(2) -0.23807(11)
H6 H 0.44500 0.14110 -0.18220
C8 C 0.7177(3) 0.1732(3) -0.46257(13)
H7 H 0.72310 0.11170 -0.51040
H8 H 0.84680 0.12750 -0.44510
H9 H 0.68610 0.29070 -0.47860
C9 C 0.1932(3) -0.3834(2) -0.03785(11)
H10 H 0.07000 -0.38310 -0.00630
C10 C 0.3371(3) -0.5349(2) -0.07173(11)
H11 H 0.31020 -0.63390 -0.06310
C11 C 0.5216(3) -0.5369(2) -0.11857(11)
H12 H 0.62000 -0.63660 -0.14260
C12 C 0.5562(3) -0.3860(2) -0.1289(1)
C13 C 0.4048(3) -0.2405(2) -0.09221(11)
H13 H 0.42970 -0.14070 -0.09810
C14 C 0.7599(3) -0.3773(2) -0.16750(11)
C15 C 0.7528(3) -0.4745(2) -0.30709(11)
H14 H 0.62290 -0.47620 -0.27690
H15 H 0.83770 -0.58860 -0.32610
C16 C 0.7198(4) -0.3567(3) -0.38450(15)
H16 H 0.65550 -0.39430 -0.42030
H17 H 0.84820 -0.35750 -0.41600
H18 H 0.63480 -0.24350 -0.36630
C17 C 1.0549(3) -0.4277(2) -0.27880(12)
H19 H 1.11830 -0.50040 -0.32780
H20 H 1.13370 -0.47690 -0.23440
C18 C 1.0623(3) -0.2529(3) -0.30397(14)
H21 H 1.20090 -0.26340 -0.32260
H22 H 1.00140 -0.18030 -0.25560
H23 H 0.98910 -0.20500 -0.34950
O1A O 0.07573(18) -0.12790(16) 0.20025(8)
O2A O -0.11412(18) -0.12158(15) 0.10611(7)
O3A O -0.84302(19) 0.32653(16) 0.12244(8)
O4A O -0.22201(18) -0.01547(16) -0.06192(8)
H1A H -0.191(4) 0.036(3) -0.1190(12)
H2A H -0.211(4) -0.117(2) -0.0762(16)
N1A N -0.2241(2) 0.23699(18) 0.04865(9)
N2A N -0.8480(2) 0.42543(18) 0.24793(9)
C1A C -0.0833(3) -0.1274(2) 0.18126(11)
C2A C -0.2508(3) -0.1341(2) 0.25355(11)
C3A C -0.2310(3) -0.1313(2) 0.33787(11)
H3A H -0.11610 -0.12120 0.34920
C4A C -0.3813(3) -0.1434(2) 0.40496(11)
H4A H -0.36550 -0.14250 0.46090
C5A C -0.5557(3) -0.1569(2) 0.38953(11)
C6A C -0.5781(3) -0.1543(2) 0.30536(12)
H5A H -0.69520 -0.16030 0.29400
C7A C -0.4276(3) -0.1429(2) 0.23807(11)
H6A H -0.44500 -0.14110 0.18220
C8A C -0.7177(3) -0.1732(3) 0.46257(13)
H7A H -0.72310 -0.11170 0.51040
H8A H -0.84680 -0.12750 0.44510
H9A H -0.68610 -0.29070 0.47860
C9A C -0.1932(3) 0.3834(2) 0.03785(11)
H10A H -0.07000 0.38310 0.00630
C10A C -0.3371(3) 0.5349(2) 0.07173(11)
H11A H -0.31020 0.63390 0.06310
C11A C -0.5216(3) 0.5369(2) 0.11857(11)
H12A H -0.62000 0.63660 0.14260
C12A C -0.5562(3) 0.3860(2) 0.1289(1)
C13A C -0.4048(3) 0.2405(2) 0.09221(11)
H13A H -0.42970 0.14070 0.09810
C14A C -0.7599(3) 0.3773(2) 0.16750(11)
C15A C -0.7528(3) 0.4745(2) 0.30709(11)
H14A H -0.62290 0.47620 0.27690
H15A H -0.83770 0.58860 0.32610
C16A C -0.7198(4) 0.3567(3) 0.38450(15)
H16A H -0.65550 0.39430 0.42030
H17A H -0.84820 0.35750 0.41600
H18A H -0.63480 0.24350 0.36630
C17A C -1.0549(3) 0.4277(2) 0.27880(12)
H19A H -1.11830 0.50040 0.32780
H20A H -1.13370 0.47690 0.23440
C18A C -1.0623(3) 0.2529(3) 0.30397(14)
H21A H -1.20090 0.26340 0.32260
H22A H -1.00140 0.18030 0.25560
H23A H -0.98910 0.20500 0.34950
#END
