
#######################################################################
#
#                 Cambridge Crystallographic Data Centre
#                                CCDC
#
#######################################################################
#
# If this CIF has been generated from an entry in the Cambridge
# Structural Database, then it will include bibliographic, chemical,
# crystal, experimental, refinement or atomic coordinate data resulting
# from the CCDC's data processing and validation procedures.
#
#######################################################################

data_CSD_CIF_NUXSEF
_audit_creation_date 2010-10-20
_audit_creation_method CSD-ConQuest-V1
_database_code_CSD NUXSEF
_database_code_depnum_ccdc_archive 'CCDC 739348'
_chemical_formula_sum 'C16 H15 Fe1 N2 O1 P1'
_chemical_formula_moiety
;
C16 H15 Fe1 N2 O1 P1
;
_journal_coden_Cambridge 644
_journal_volume 64
_journal_year 2009
_journal_page_first 1401
_journal_name_full 'Z.Naturforsch.,B:Chem.Sci. '
loop_
_publ_author_name
"B.Wrackmeyer"
"E.V.Klimkina"
"W.Milius"
_chemical_name_systematic
;
2-Phenoxy-1,3,2-diazaphospha(3)ferrocenophane
;
_chemical_melting_point 499.15
_cell_volume    711.110
_exptl_crystal_colour 'orange'
_exptl_crystal_density_diffrn 1.579
_exptl_special_details
;
Melting point range 499.15-502.15K

;
_exptl_crystal_description 'prism'
_exptl_crystal_preparation 'toluene'
_diffrn_ambient_temperature 293
#These two values have been output from a single CSD field.
_refine_ls_R_factor_gt 0.0433
_refine_ls_wR_factor_gt 0.0433
_symmetry_cell_setting monoclinic
_symmetry_space_group_name_H-M 'P 21'
_symmetry_Int_Tables_number 4
loop_
_symmetry_equiv_pos_site_id
_symmetry_equiv_pos_as_xyz
1 x,y,z
2 -x,1/2+y,-z
_cell_length_a 6.0691(12)
_cell_length_b 12.577(3)
_cell_length_c 9.4413(19)
_cell_angle_alpha 90
_cell_angle_beta 99.34(3)
_cell_angle_gamma 90
_cell_formula_units_Z 2
loop_
_atom_type_symbol
_atom_type_radius_bond
C 0.68
H 0.23
Fe 1.52
N 0.68
O 0.68
P 1.05
loop_
_atom_site_label
_atom_site_type_symbol
_atom_site_fract_x
_atom_site_fract_y
_atom_site_fract_z
Fe1 Fe 0.25098(8) 0.25439(2) 0.08150(5)
N1 N 0.5745(6) 0.1713(3) -0.1038(4)
H1 H 0.69660 0.13660 -0.10420
N2 N 0.4184(6) 0.3722(2) -0.1620(4)
H2 H 0.46150 0.43200 -0.19230
P1 P 0.50342(15) 0.26015(10) -0.23829(9)
O1 O 0.2461(5) 0.2192(2) -0.3017(3)
C1 C 0.4549(7) 0.1479(3) 0.0090(4)
C2 C 0.5285(8) 0.1679(3) 0.1569(5)
H3 H 0.67440 0.19650 0.19960
C3 C 0.3518(9) 0.1403(4) 0.2319(5)
H4 H 0.35440 0.14760 0.33550
C4 C 0.1704(11) 0.1020(3) 0.1318(7)
H5 H 0.02600 0.07810 0.15370
C5 C 0.2344(8) 0.1059(3) -0.0076(5)
H6 H 0.14210 0.08470 -0.09810
C6 C 0.2849(7) 0.3760(3) -0.0545(5)
C7 C 0.3558(8) 0.4090(3) 0.0899(5)
H7 H 0.50540 0.43430 0.13070
C8 C 0.1713(10) 0.3973(3) 0.1656(6)
H8 H 0.17270 0.41270 0.26750
C9 C -0.0137(8) 0.3573(3) 0.0675(5)
H9 H -0.16210 0.34070 0.08990
C10 C 0.0560(7) 0.3447(3) -0.0681(5)
H10 H -0.03650 0.31820 -0.15580
C11 C 0.1963(8) 0.1289(3) -0.3815(4)
C12 C 0.3493(9) 0.0469(3) -0.3906(5)
H11 H 0.49560 0.05270 -0.34310
C13 C 0.2819(10) -0.0430(3) -0.4705(5)
H12 H 0.38400 -0.09700 -0.47810
C14 C 0.0645(10) -0.0530(4) -0.5390(5)
H13 H 0.01890 -0.11420 -0.59080
C15 C -0.0839(10) 0.0275(4) -0.5303(6)
H14 H -0.23000 0.02120 -0.57780
C16 C -0.0190(8) 0.1189(4) -0.4512(5)
H15 H -0.12160 0.17310 -0.44570
#END
