
#######################################################################
#
#                 Cambridge Crystallographic Data Centre
#                                CCDC
#
#######################################################################
#
# If this CIF has been generated from an entry in the Cambridge
# Structural Database, then it will include bibliographic, chemical,
# crystal, experimental, refinement or atomic coordinate data resulting
# from the CCDC's data processing and validation procedures.
#
#######################################################################

data_CSD_CIF_NUZYOY
_audit_creation_date 2016-02-01
_audit_creation_method CSD-ConQuest-V1
_database_code_CSD NUZYOY
_database_code_depnum_ccdc_archive 'CCDC 1451130'
_chemical_formula_sum 'C12 H18 Mn1 N20 O4'
_chemical_formula_moiety
;
C12 H14 Mn1 N20 O2,2(H2 O1)
;
_journal_coden_Cambridge 702
_journal_volume 32
_journal_year 2016
_journal_page_first 1267
_journal_name_full 'Wuji Huaxue Xuebao(Chin.)(Chin.J.Inorg.Chem.) '
loop_
_publ_author_name
"Ji-Xing Gao"
"Qing Xu"
"Yu-Hui Tan"
"Yi-Liu Yi"
"He-Rui Wen"
"Yun-Zhi Tang"
_chemical_name_systematic
;
diaqua-bis(5-(1-methyl-5-tetrazolato-1H-imidazol-4-yl)-1H-tetrazole)-manganese
 dihydrate
;
_cell_volume    538.073
_exptl_crystal_colour 'colorless'
_exptl_crystal_density_diffrn 1.733
_exptl_special_details
;
Jiangxi University of Science and Technology, Ganzhou, 341000, P. R. China

;
_exptl_crystal_description 'block'
_diffrn_ambient_temperature 296
#These two values have been output from a single CSD field.
_refine_ls_R_factor_gt 0.0312
_refine_ls_wR_factor_gt 0.0312
_symmetry_cell_setting triclinic
_symmetry_space_group_name_H-M 'P -1'
_symmetry_Int_Tables_number 2
loop_
_symmetry_equiv_pos_site_id
_symmetry_equiv_pos_as_xyz
1 x,y,z
2 -x,-y,-z
_cell_length_a 7.0097(8)
_cell_length_b 7.5137(9)
_cell_length_c 11.0972(13)
_cell_angle_alpha 104.575(3)
_cell_angle_beta 104.248(3)
_cell_angle_gamma 96.783(3)
_cell_formula_units_Z 1
loop_
_atom_type_symbol
_atom_type_radius_bond
C 0.68
H 0.23
Mn 1.61
N 0.68
O 0.68
loop_
_atom_site_label
_atom_site_type_symbol
_atom_site_fract_x
_atom_site_fract_y
_atom_site_fract_z
Mn1 Mn 1.00000 0.50000 1.00000
O1 O 0.7616(3) 0.6124(3) 1.06412(17)
N1 N 0.9660(3) 0.6487(2) 0.84847(15)
N2 N 0.9907(3) 0.8068(2) 0.70880(16)
N3 N 0.8124(3) 0.6801(3) 0.41768(18)
N4 N 0.7107(3) 0.5687(3) 0.29893(18)
N5 N 0.6273(3) 0.4076(3) 0.30617(17)
N6 N 0.6724(3) 0.4085(3) 0.43133(16)
N7 N 0.6436(3) 0.2212(3) 0.61066(18)
N8 N 0.5855(3) 0.0710(3) 0.64795(18)
N9 N 0.6658(3) 0.1148(3) 0.77185(18)
N10 N 0.7752(3) 0.2916(2) 0.81664(16)
C1 C 1.0430(3) 0.8066(3) 0.8338(2)
H1 H 1.12450 0.90690 0.90190
C2 C 1.0634(4) 0.9607(3) 0.6632(2)
H2 H 1.15530 0.92290 0.61480
H3 H 1.13050 1.06770 0.73650
H4 H 0.95200 0.99280 0.60840
C3 C 0.8705(3) 0.6356(3) 0.63654(18)
C4 C 0.7861(3) 0.5782(3) 0.49644(19)
C5 C 0.8574(3) 0.5402(3) 0.72531(18)
C6 C 0.7586(3) 0.3548(3) 0.71394(18)
H5 H 0.699(4) 0.682(4) 1.028(3)
H6 H 0.730(4) 0.601(4) 1.130(2)
H7 H 0.610(4) 0.231(4) 0.531(3)
O2 O 0.5838(4) 0.8503(3) 0.9372(2)
H8 H 0.522(5) 0.779(5) 0.868(2)
H9 H 0.474(5) 0.856(9) 0.943(6)
O1A O 1.2384(3) 0.3876(3) 0.93588(17)
N1A N 1.0340(3) 0.3513(2) 1.15153(15)
N2A N 1.0093(3) 0.1932(2) 1.29120(16)
N3A N 1.1876(3) 0.3199(3) 1.58232(18)
N4A N 1.2893(3) 0.4313(3) 1.70107(18)
N5A N 1.3727(3) 0.5924(3) 1.69383(17)
N6A N 1.3276(3) 0.5915(3) 1.56867(16)
N7A N 1.3564(3) 0.7788(3) 1.38934(18)
N8A N 1.4145(3) 0.9290(3) 1.35205(18)
N9A N 1.3342(3) 0.8852(3) 1.22815(18)
N10A N 1.2248(3) 0.7084(2) 1.18336(16)
C1A C 0.9570(3) 0.1934(3) 1.1662(2)
H1A H 0.87550 0.09310 1.09810
C2A C 0.9366(4) 0.0393(3) 1.3368(2)
H2A H 0.84470 0.07710 1.38520
H3A H 0.86950 -0.06770 1.26350
H4A H 1.04800 0.00720 1.39160
C3A C 1.1295(3) 0.3644(3) 1.36346(18)
C4A C 1.2139(3) 0.4218(3) 1.50356(19)
C5A C 1.1426(3) 0.4598(3) 1.27469(18)
C6A C 1.2414(3) 0.6452(3) 1.28606(18)
H5A H 1.301(4) 0.318(4) 0.972(3)
H6A H 1.270(4) 0.399(4) 0.870(2)
H7A H 1.390(4) 0.769(4) 1.469(3)
#END
