
#######################################################################
#
#                 Cambridge Crystallographic Data Centre
#                                CCDC
#
#######################################################################
#
# If this CIF has been generated from an entry in the Cambridge
# Structural Database, then it will include bibliographic, chemical,
# crystal, experimental, refinement or atomic coordinate data resulting
# from the CCDC's data processing and validation procedures.
#
#######################################################################

data_CSD_CIF_OBIBAE
_audit_creation_date 2011-11-21
_audit_creation_method CSD-ConQuest-V1
_database_code_CSD OBIBAE
_database_code_depnum_ccdc_archive 'CCDC 789655'
_chemical_formula_sum 'C24 H44 B2 Br2 Fe1 N2 Si2'
_chemical_formula_moiety
;
C24 H44 B2 Br2 Fe1 N2 Si2
;
_journal_coden_Cambridge 1078
_journal_year 2010
_journal_name_full 'CSD Communication(Private Communication) '
loop_
_publ_author_name
"Kuangbiao Ma"
"M.Wagner"
"M.Bolte"
_chemical_name_systematic
;
1,1'-bis(bromo(t-butyl(trimethylsilyl)amino)boranyl)ferrocene
;
_cell_volume    745.840
_exptl_crystal_colour 'dark red'
_exptl_crystal_density_diffrn 1.456
_exptl_special_details
;
contribution from Institut fuer Anorganische 
Chemie,J.-W.-Goethe-Universitaet, Max-von-Laue-Str. 7,D-60438 
Frankfurt/Main,Germany
;
_exptl_crystal_description 'plate'
_diffrn_ambient_temperature 173
#These two values have been output from a single CSD field.
_refine_ls_R_factor_gt 0.0694
_refine_ls_wR_factor_gt 0.0694
_symmetry_cell_setting triclinic
_symmetry_space_group_name_H-M 'P -1'
_symmetry_Int_Tables_number 2
loop_
_symmetry_equiv_pos_site_id
_symmetry_equiv_pos_as_xyz
1 x,y,z
2 -x,-y,-z
_cell_length_a 6.4583(13)
_cell_length_b 8.7615(18)
_cell_length_c 14.334(3)
_cell_angle_alpha 82.70(3)
_cell_angle_beta 84.07(3)
_cell_angle_gamma 68.25(3)
_cell_formula_units_Z 1
loop_
_atom_type_symbol
_atom_type_radius_bond
C 0.68
H 0.23
B 0.83
Br 1.21
Fe 1.52
N 0.68
Si 1.20
loop_
_atom_site_label
_atom_site_type_symbol
_atom_site_fract_x
_atom_site_fract_y
_atom_site_fract_z
B1 B 0.2393(13) 0.7251(10) 0.3238(6)
Br1 Br -0.06051(13) 0.81795(12) 0.38756(6)
N1 N 0.3099(9) 0.8072(7) 0.2435(4)
Si1 Si 0.4094(3) 0.6906(3) 0.14468(14)
C1 C 0.2401(13) 0.7983(9) 0.0383(5)
H1 H 0.25390 0.90610 0.02100
H2 H 0.08270 0.81360 0.05400
H3 H 0.29640 0.73060 -0.01470
C2 C 0.3659(15) 0.4897(10) 0.1663(6)
H4 H 0.44750 0.42470 0.22080
H5 H 0.42120 0.42860 0.11060
H6 H 0.20630 0.51030 0.17900
C3 C 0.7264(12) 0.6366(10) 0.1088(5)
H7 H 0.75830 0.73850 0.09620
H8 H 0.76500 0.57810 0.05180
H9 H 0.81500 0.56620 0.16010
C4 C 0.2655(13) 0.9916(8) 0.2330(6)
C5 C 0.0300(15) 1.0936(10) 0.2007(7)
H10 H -0.08100 1.06950 0.24590
H11 H 0.01530 1.06500 0.13850
H12 H 0.00550 1.21140 0.19710
C6 C 0.4428(17) 1.0268(11) 0.1646(7)
H13 H 0.59130 0.96100 0.18690
H14 H 0.41980 1.14440 0.16090
H15 H 0.43140 0.99770 0.10210
C7 C 0.2953(15) 1.0397(10) 0.3284(6)
H16 H 0.44610 0.97390 0.34810
H17 H 0.18500 1.01890 0.37540
H18 H 0.27380 1.15720 0.32260
Fe1 Fe 0.50000 0.50000 0.50000
C8 C 0.3807(12) 0.5512(8) 0.3675(5)
C9 C 0.6215(12) 0.4840(9) 0.3632(5)
H19 H 0.71670 0.53730 0.33170
C10 C 0.6925(16) 0.3257(11) 0.4137(6)
H20 H 0.84310 0.25520 0.42230
C11 C 0.4995(17) 0.2901(10) 0.4492(6)
H21 H 0.49860 0.19100 0.48450
C12 C 0.3095(15) 0.4284(9) 0.4228(5)
H22 H 0.15880 0.43870 0.43890
B1A B 0.7607(13) 0.2749(10) 0.6762(6)
Br1A Br 1.06051(13) 0.18205(12) 0.61244(6)
N1A N 0.6901(9) 0.1928(7) 0.7565(4)
Si1A Si 0.5906(3) 0.3094(3) 0.85532(14)
C1A C 0.7599(13) 0.2017(9) 0.9617(5)
H1A H 0.74610 0.09390 0.97900
H2A H 0.91730 0.18640 0.94600
H3A H 0.70360 0.26940 1.01470
C2A C 0.6341(15) 0.5103(10) 0.8337(6)
H4A H 0.55250 0.57530 0.77920
H5A H 0.57880 0.57140 0.88940
H6A H 0.79370 0.48970 0.82100
C3A C 0.2736(12) 0.3634(10) 0.8912(5)
H7A H 0.24170 0.26150 0.90380
H8A H 0.23500 0.42190 0.94820
H9A H 0.18500 0.43380 0.83990
C4A C 0.7345(13) 0.0084(8) 0.7670(6)
C5A C 0.9700(15) -0.0936(10) 0.7993(7)
H10A H 1.08100 -0.06950 0.75410
H11A H 0.98470 -0.06500 0.86150
H12A H 0.99450 -0.21140 0.80290
C6A C 0.5572(17) -0.0268(11) 0.8354(7)
H13A H 0.40870 0.03900 0.81310
H14A H 0.58020 -0.14440 0.83910
H15A H 0.56860 0.00230 0.89790
C7A C 0.7047(15) -0.0397(10) 0.6716(6)
H16A H 0.55390 0.02610 0.65190
H17A H 0.81500 -0.01890 0.62460
H18A H 0.72620 -0.15720 0.67740
C8A C 0.6193(12) 0.4488(8) 0.6325(5)
C9A C 0.3785(12) 0.5160(9) 0.6368(5)
H19A H 0.28330 0.46270 0.66830
C10A C 0.3075(16) 0.6743(11) 0.5863(6)
H20A H 0.15690 0.74480 0.57770
C11A C 0.5005(17) 0.7099(10) 0.5508(6)
H21A H 0.50140 0.80900 0.51550
C12A C 0.6905(15) 0.5716(9) 0.5772(5)
H22A H 0.84120 0.56130 0.56110
#END
