
#######################################################################
#
#                 Cambridge Crystallographic Data Centre
#                                CCDC
#
#######################################################################
#
# If this CIF has been generated from an entry in the Cambridge
# Structural Database, then it will include bibliographic, chemical,
# crystal, experimental, refinement or atomic coordinate data resulting
# from the CCDC's data processing and validation procedures.
#
#######################################################################

data_CSD_CIF_OCIGIT
_audit_creation_date 2017-01-10
_audit_creation_method CSD-ConQuest-V1
_database_code_CSD OCIGIT
_database_code_depnum_ccdc_archive 'CCDC 1040325'
_chemical_formula_sum 'C12 H15 Co1 N1 O9'
_chemical_formula_moiety
;
C12 H13 Co1 N1 O8,H2 O1
;
_journal_coden_Cambridge 702
_journal_volume 32
_journal_year 2016
_journal_page_first 2172
_journal_name_full 'Wuji Huaxue Xuebao(Chin.)(Chin.J.Inorg.Chem.) '
loop_
_publ_author_name
"Yong-Po Zhang"
"Jia-Jia Yang"
"Jia-Yuan Lu"
"Chun Yan Gao"
"Jin-Zhong Zhao"
_chemical_name_systematic
;
triaqua-(8-(carboxylatomethoxy)quinoline-2-carboxylato)-cobalt(ii) monohydrate
;
_cell_volume    705.112
_exptl_crystal_colour 'red'
_exptl_crystal_description 'Prism'
_diffrn_ambient_temperature 293
#These two values have been output from a single CSD field.
_refine_ls_R_factor_gt 0.0929
_refine_ls_wR_factor_gt 0.0929
_symmetry_cell_setting triclinic
_symmetry_space_group_name_H-M 'P -1'
_symmetry_Int_Tables_number 2
loop_
_symmetry_equiv_pos_site_id
_symmetry_equiv_pos_as_xyz
1 x,y,z
2 -x,-y,-z
_cell_length_a 7.2910(15)
_cell_length_b 8.2400(16)
_cell_length_c 11.989(2)
_cell_angle_alpha 84.96(3)
_cell_angle_beta 80.38(3)
_cell_angle_gamma 84.63(3)
_cell_formula_units_Z 2
loop_
_atom_type_symbol
_atom_type_radius_bond
C 0.68
H 0.23
Co 1.26
N 0.68
O 0.68
loop_
_atom_site_label
_atom_site_type_symbol
_atom_site_fract_x
_atom_site_fract_y
_atom_site_fract_z
Co1 Co 0.29911(16) 0.27325(14) 0.84715(9)
O1 O 0.1849(9) 0.1819(9) 0.6780(5)
O2 O 0.5297(8) 0.3947(8) 0.8793(5)
O3 O 0.7849(8) 0.5166(8) 0.8121(6)
O4 O 0.0331(8) 0.1593(8) 0.8822(5)
O5 O -0.1899(9) 0.0098(8) 0.8495(6)
O6 O 0.1594(7) 0.5042(7) 0.8176(5)
O7 O 0.2319(11) 0.2757(9) 1.0242(5)
O8 O 0.4303(8) 0.0376(7) 0.8636(6)
N1 N 0.4895(9) 0.3093(8) 0.6811(6)
C1 C 0.6367(11) 0.3846(11) 0.6855(7)
C2 C 0.7706(12) 0.4155(11) 0.5880(8)
H1 H 0.87510 0.46970 0.59280
C3 C 0.7447(12) 0.3646(12) 0.4862(8)
H2 H 0.83520 0.38020 0.42250
C4 C 0.5894(12) 0.2919(11) 0.4770(7)
C5 C 0.5480(13) 0.2406(11) 0.3772(7)
H3 H 0.63110 0.25590 0.31000
C6 C 0.3850(14) 0.1671(10) 0.3762(7)
H4 H 0.36050 0.13400 0.30830
C7 C 0.2548(14) 0.1417(11) 0.4771(7)
H5 H 0.14500 0.09280 0.47660
C8 C 0.2970(12) 0.1917(11) 0.5746(7)
C9 C 0.4627(12) 0.2653(10) 0.5779(7)
C10 C 0.6522(11) 0.4356(10) 0.8006(8)
C11 C 0.0400(12) 0.0746(11) 0.6972(8)
H6 H 0.08970 -0.03570 0.68110
H7 H -0.05300 0.10980 0.64910
C12 C -0.0442(12) 0.0809(11) 0.8197(8)
O9 O 0.2608(8) 0.7431(7) 0.9413(5)
#END
