
#######################################################################
#
#                 Cambridge Crystallographic Data Centre
#                                CCDC
#
#######################################################################
#
# If this CIF has been generated from an entry in the Cambridge
# Structural Database, then it will include bibliographic, chemical,
# crystal, experimental, refinement or atomic coordinate data resulting
# from the CCDC's data processing and validation procedures.
#
#######################################################################

data_CSD_CIF_OCISUP
_audit_creation_date 2006-07-13
_audit_creation_method CSD-ConQuest-V1
_database_code_CSD OCISUP
_database_code_depnum_ccdc_archive 'CCDC 285129'
_chemical_formula_sum 'C17 H11 Cr1 N1 O3'
_chemical_formula_moiety
;
C17 H11 Cr1 N1 O3
;
_journal_coden_Cambridge 36
_journal_volume 691
_journal_year 2006
_journal_page_first 994
_journal_name_full 'J.Organomet.Chem. '
loop_
_publ_author_name
"Xiaohui Tian"
"Wei Shi"
"Kanyi Shen"
"Chenyan Li"
"Jiaping Lin"
"Yanchao Che"
"Ping Zhang"
_chemical_name_systematic
;
tricarbonyl-(\h^6^-N-vinylcarbazole)-chromium
;
_chemical_melting_point 398.15
_cell_volume   1465.688
_exptl_crystal_colour 'yellow'
_exptl_crystal_density_diffrn 1.492
_exptl_crystal_description 'plate'
_exptl_crystal_preparation 'dichloromethane/n-hexane'
_diffrn_ambient_temperature 293
#These two values have been output from a single CSD field.
_refine_ls_R_factor_gt 0.0593
_refine_ls_wR_factor_gt 0.0593
_symmetry_cell_setting monoclinic
_symmetry_space_group_name_H-M 'C 2'
_symmetry_Int_Tables_number 5
loop_
_symmetry_equiv_pos_site_id
_symmetry_equiv_pos_as_xyz
1 x,y,z
2 -x,y,-z
3 1/2+x,1/2+y,z
4 1/2-x,1/2+y,-z
_cell_length_a 13.1714(17)
_cell_length_b 13.8190(17)
_cell_length_c 9.4899(12)
_cell_angle_alpha 90
_cell_angle_beta 121.947(3)
_cell_angle_gamma 90
_cell_formula_units_Z 4
loop_
_atom_type_symbol
_atom_type_radius_bond
C 0.68
H 0.23
Cr 1.35
N 0.68
O 0.68
loop_
_atom_site_label
_atom_site_type_symbol
_atom_site_fract_x
_atom_site_fract_y
_atom_site_fract_z
Cr1 Cr 0.18751(5) 0.07185(18) -0.07341(7)
O1 O 0.1598(11) 0.2191(6) 0.1276(14)
O2 O -0.0719(4) 0.0625(14) -0.3211(5)
O3 O 0.1472(10) -0.0784(6) 0.1132(14)
N1 N 0.4679(8) -0.0020(7) 0.1915(13)
C1 C 0.1616(12) 0.1613(7) 0.0469(18)
C2 C 0.1699(12) -0.0196(8) 0.0409(17)
C3 C 0.0288(5) 0.0672(13) -0.2222(6)
C4 C 0.3769(8) 0.0225(7) 0.0241(9)
C5 C 0.2964(10) -0.0297(7) -0.1253(12)
H1 H 0.29210 -0.09700 -0.12900
C6 C 0.2262(9) 0.0271(11) -0.2625(10)
H2 H 0.17790 -0.00420 -0.36350
C7 C 0.222(1) 0.1247(8) -0.2621(13)
H3 H 0.16970 0.15890 -0.35820
C8 C 0.2982(12) 0.1723(7) -0.1134(15)
H4 H 0.29400 0.23940 -0.11110
C9 C 0.3805(9) 0.1243(7) 0.0325(13)
C10 C 0.4651(7) 0.1604(7) 0.1835(9)
C11 C 0.4963(10) 0.2542(9) 0.2297(13)
H5 H 0.45880 0.30350 0.15210
C12 C 0.5785(10) 0.2749(9) 0.3819(13)
H6 H 0.59620 0.33900 0.41630
C13 C 0.6424(8) 0.1964(9) 0.4979(9)
H7 H 0.70260 0.21130 0.60620
C14 C 0.6146(6) 0.0937(13) 0.4488(8)
H8 H 0.65470 0.04150 0.51820
C15 C 0.5199(5) 0.0857(10) 0.2840(7)
C16 C 0.5002(11) -0.1076(9) 0.2448(13)
H9 H 0.45910 -0.15590 0.16660
C17 C 0.5809(11) -0.1321(8) 0.3919(14)
H10 H 0.62310 -0.08490 0.47200
H11 H 0.59780 -0.19720 0.41910
#END
