
#######################################################################
#
#                 Cambridge Crystallographic Data Centre
#                                CCDC
#
#######################################################################
#
# If this CIF has been generated from an entry in the Cambridge
# Structural Database, then it will include bibliographic, chemical,
# crystal, experimental, refinement or atomic coordinate data resulting
# from the CCDC's data processing and validation procedures.
#
#######################################################################

data_CSD_CIF_ODAXIA
_audit_creation_date 2002-02-21
_audit_creation_method CSD-ConQuest-V1
_database_code_CSD ODAXIA
_database_code_depnum_ccdc_archive 'CCDC 138493'
_chemical_formula_sum 'C14 H36 Cr1 I3 P4'
_chemical_formula_moiety
;
C14 H36 Cr1 I2 P4 1+,I1 1-
;
_journal_coden_Cambridge 7
_journal_volume 74
_journal_year 2001
_journal_page_first 1055
_journal_name_full 'Bull.Chem.Soc.Jpn. '
loop_
_publ_author_name
"T.Suzuki"
"K.Kashiwabara"
"T.Usami"
"T.Imamura"
"M.Kiki"
"J.Fujita"
"S.Kaizaki"
_chemical_name_systematic
;
trans-Diiodo-bis(1,3-bis(dimethylphosphino)propane-P,P')-chromium(iii) iodide
;
_cell_volume   1276.644
_exptl_crystal_colour 'green'
_exptl_crystal_density_diffrn 1.98
_exptl_crystal_description 'columnar'
_exptl_crystal_preparation 'methanol'
_diffrn_ambient_temperature 296.2
#These two values have been output from a single CSD field.
_refine_ls_R_factor_gt 0.0218
_refine_ls_wR_factor_gt 0.0218
_symmetry_cell_setting monoclinic
_symmetry_space_group_name_H-M 'C 2/m'
_symmetry_Int_Tables_number 12
loop_
_symmetry_equiv_pos_site_id
_symmetry_equiv_pos_as_xyz
1 x,y,z
2 x,-y,z
3 1/2+x,1/2+y,z
4 1/2+x,1/2-y,z
5 -x,-y,-z
6 -x,y,-z
7 -1/2-x,-1/2-y,-z
8 -1/2-x,-1/2+y,-z
_cell_length_a 13.1053(7)
_cell_length_b 10.373(1)
_cell_length_c 10.3997(7)
_cell_angle_alpha 90
_cell_angle_beta 115.442(4)
_cell_angle_gamma 90
_cell_formula_units_Z 2
loop_
_atom_type_symbol
_atom_type_radius_bond
C 0.68
H 0.23
Cr 1.35
I 1.40
P 1.05
loop_
_atom_site_label
_atom_site_type_symbol
_atom_site_fract_x
_atom_site_fract_y
_atom_site_fract_z
I1 I -0.69486(2) 0.00000 -0.47764(3)
I2 I 0.00000 0.00000 0.00000
Cr1 Cr -0.50000 0.00000 -0.50000
P1 P -0.43614(5) -0.16809(6) -0.30706(6)
C1 C -0.5236(4) -0.3120(3) -0.3467(4)
C2 C -0.2937(3) -0.2308(4) -0.2475(4)
C3 C -0.4392(3) -0.1223(3) -0.1381(3)
C4 C -0.3770(5) 0.00000 -0.0684(4)
H1 H -0.538(6) -0.340(7) -0.279(7)
H2 H -0.499(5) -0.366(6) -0.377(6)
H3 H -0.599(5) -0.301(6) -0.427(6)
H4 H -0.276(3) -0.262(4) -0.328(4)
H5 H -0.282(3) -0.288(4) -0.191(4)
H6 H -0.235(4) -0.160(6) -0.194(6)
H7 H -0.517(3) -0.122(3) -0.168(3)
H8 H -0.409(3) -0.202(4) -0.069(4)
H9 H -0.301(4) 0.00000 -0.064(5)
H10 H -0.364(5) 0.00000 0.017(6)
I1D I -0.30514(2) 0.00000 -0.52236(3)
C3A C -0.4392(3) 0.1223(3) -0.1381(3)
P1A P -0.43614(5) 0.16809(6) -0.30706(6)
P1D P -0.56386(5) 0.16809(6) -0.69294(6)
C1D C -0.4764(4) 0.3120(3) -0.6533(4)
H1D H -0.462(6) 0.340(7) -0.721(7)
H2D H -0.501(5) 0.366(6) -0.623(6)
H3D H -0.401(5) 0.301(6) -0.573(6)
C2D C -0.7063(3) 0.2308(4) -0.7525(4)
H4D H -0.724(3) 0.262(4) -0.672(4)
H5D H -0.718(3) 0.288(4) -0.809(4)
H6D H -0.765(4) 0.160(6) -0.806(6)
C3D C -0.5608(3) 0.1223(3) -0.8619(3)
C4D C -0.6230(5) 0.00000 -0.9316(4)
C3E C -0.5608(3) -0.1223(3) -0.8619(3)
P1E P -0.56386(5) -0.16809(6) -0.69294(6)
C1E C -0.4764(4) -0.3120(3) -0.6533(4)
H1E H -0.462(6) -0.340(7) -0.721(7)
H2E H -0.501(5) -0.366(6) -0.623(6)
H3E H -0.401(5) -0.301(6) -0.573(6)
C2E C -0.7063(3) -0.2308(4) -0.7525(4)
H4E H -0.724(3) -0.262(4) -0.672(4)
H5E H -0.718(3) -0.288(4) -0.809(4)
H6E H -0.765(4) -0.160(6) -0.806(6)
H7E H -0.483(3) -0.122(3) -0.832(3)
H8E H -0.591(3) -0.202(4) -0.931(4)
H9D H -0.699(4) 0.00000 -0.936(5)
H10D H -0.636(5) 0.00000 -1.017(6)
H7D H -0.483(3) 0.122(3) -0.832(3)
H8D H -0.591(3) 0.202(4) -0.931(4)
C1A C -0.5236(4) 0.3120(3) -0.3467(4)
H1A H -0.538(6) 0.340(7) -0.279(7)
H2A H -0.499(5) 0.366(6) -0.377(6)
H3A H -0.599(5) 0.301(6) -0.427(6)
C2A C -0.2937(3) 0.2308(4) -0.2475(4)
H4A H -0.276(3) 0.262(4) -0.328(4)
H5A H -0.282(3) 0.288(4) -0.191(4)
H6A H -0.235(4) 0.160(6) -0.194(6)
H7A H -0.517(3) 0.122(3) -0.168(3)
H8A H -0.409(3) 0.202(4) -0.069(4)
#END
