
#######################################################################
#
#                 Cambridge Crystallographic Data Centre
#                                CCDC
#
#######################################################################
#
# If this CIF has been generated from an entry in the Cambridge
# Structural Database, then it will include bibliographic, chemical,
# crystal, experimental, refinement or atomic coordinate data resulting
# from the CCDC's data processing and validation procedures.
#
#######################################################################

data_CSD_CIF_ODUPAG
_audit_creation_date 2013-08-27
_audit_creation_method CSD-ConQuest-V1
_database_code_CSD ODUPAG
_database_code_depnum_ccdc_archive 'CCDC 642190'
_chemical_formula_sum 'C19 H16 Cr1 O3 Si1'
_chemical_formula_moiety
;
C19 H16 Cr1 O3 Si1
;
_journal_coden_Cambridge 579
_journal_volume 32
_journal_year 2013
_journal_page_first 4531
_journal_name_full 'Organometallics '
loop_
_publ_author_name
"F.Hoffmann"
"J.Wagler"
"G.Roewer"
_chemical_name_systematic
;
Tricarbonyl-(\h^6^-dimethyl(phenyl)(phenylethynyl)silane)-chromium
;
_chemical_melting_point 321
_cell_volume    913.360
_exptl_crystal_colour 'yellow'
_exptl_crystal_density_diffrn 1.354
_exptl_crystal_description 'needle'
_diffrn_ambient_temperature 173
#These two values have been output from a single CSD field.
_refine_ls_R_factor_gt 0.0278
_refine_ls_wR_factor_gt 0.0278
_symmetry_cell_setting triclinic
_symmetry_space_group_name_H-M 'P -1'
_symmetry_Int_Tables_number 2
loop_
_symmetry_equiv_pos_site_id
_symmetry_equiv_pos_as_xyz
1 x,y,z
2 -x,-y,-z
_cell_length_a 6.4992(13)
_cell_length_b 11.707(2)
_cell_length_c 12.543(3)
_cell_angle_alpha 100.50(3)
_cell_angle_beta 102.43(3)
_cell_angle_gamma 92.21(3)
_cell_formula_units_Z 2
loop_
_atom_type_symbol
_atom_type_radius_bond
C 0.68
H 0.23
Cr 1.39
O 0.68
Si 1.20
loop_
_atom_site_label
_atom_site_type_symbol
_atom_site_fract_x
_atom_site_fract_y
_atom_site_fract_z
Cr1 Cr 0.08916(4) 0.73858(3) 0.04435(2)
Si1 Si 0.46513(8) 0.91379(5) 0.29629(4)
O1 O -0.1526(2) 0.95165(13) 0.08112(13)
O2 O -0.1392(2) 0.63091(13) 0.19155(12)
O3 O -0.2628(2) 0.63780(17) -0.15287(12)
C1 C 0.4014(3) 0.81304(16) 0.15570(15)
C2 C -0.0517(3) 0.67268(17) 0.13434(16)
C3 C -0.0590(3) 0.86938(18) 0.06686(16)
C4 C 0.2108(3) 0.71297(17) 0.51968(15)
C5 C 0.2896(3) 0.77974(18) 0.44795(16)
C6 C 0.3417(4) 1.05447(19) 0.29000(19)
H1 H 0.18830 1.03900 0.26310
H2 H 0.39860 1.09440 0.23910
H3 H 0.37350 1.10380 0.36450
C7 C 0.7577(3) 0.93896(19) 0.34604(17)
H4 H 0.79260 0.98110 0.42350
H5 H 0.81410 0.98520 0.29950
H6 H 0.82010 0.86390 0.34130
C8 C 0.3699(3) 0.85752(18) 0.05533(15)
H7 H 0.37760 0.93940 0.05930
C9 C -0.1270(3) 0.6770(2) -0.07652(16)
C10 C 0.3829(3) 0.69005(17) 0.14454(16)
H8 H 0.39970 0.65790 0.20990
C11 C 0.0267(3) 0.74140(18) 0.55688(17)
H9 H -0.04580 0.80560 0.53600
C12 C 0.3575(3) 0.83447(18) 0.38862(16)
C13 C 0.3112(3) 0.6608(2) -0.05628(17)
H10 H 0.27990 0.61020 -0.12710
C14 C 0.3405(3) 0.61385(19) 0.04026(17)
H11 H 0.33200 0.53180 0.03560
C15 C -0.0494(4) 0.67620(19) 0.62388(17)
H12 H -0.17300 0.69620 0.64950
C16 C 0.3176(4) 0.62006(19) 0.55287(18)
H13 H 0.44450 0.60140 0.53010
C17 C 0.2385(4) 0.5544(2) 0.61957(18)
H14 H 0.31110 0.49070 0.64170
C18 C 0.0547(4) 0.58176(19) 0.65363(17)
H15 H -0.00030 0.53560 0.69760
C19 C 0.3275(3) 0.7825(2) -0.04960(16)
H16 H 0.31010 0.81370 -0.11550
#END
