
#######################################################################
#
#                 Cambridge Crystallographic Data Centre
#                                CCDC
#
#######################################################################
#
# If this CIF has been generated from an entry in the Cambridge
# Structural Database, then it will include bibliographic, chemical,
# crystal, experimental, refinement or atomic coordinate data resulting
# from the CCDC's data processing and validation procedures.
#
#######################################################################

data_CSD_CIF_OFIFIU
_audit_creation_date 2013-08-29
_audit_creation_method CSD-ConQuest-V1
_database_code_CSD OFIFIU
_database_code_depnum_ccdc_archive 'CCDC 923420'
_chemical_formula_sum 'C18 H12 Cl4 Fe1 N10 S2'
_chemical_formula_moiety
;
C18 H12 Cl4 Fe1 N10 S2
;
_journal_coden_Cambridge 155
_journal_volume 406
_journal_year 2013
_journal_page_first 196
_journal_name_full 'Inorg.Chim.Acta '
loop_
_publ_author_name
"S.Wohlert"
"C.Nather"
_chemical_name_systematic
;
tetrakis(2-chloropyrazine)-bis(thiocyanato)-iron(ii)
;
_cell_volume    659.195
_exptl_crystal_colour 'brown'
_exptl_crystal_density_diffrn 1.587
_exptl_crystal_description 'block'
_diffrn_ambient_temperature 293
#These two values have been output from a single CSD field.
_refine_ls_R_factor_gt 0.0389
_refine_ls_wR_factor_gt 0.0389
_symmetry_cell_setting triclinic
_symmetry_space_group_name_H-M 'P -1'
_symmetry_Int_Tables_number 2
loop_
_symmetry_equiv_pos_site_id
_symmetry_equiv_pos_as_xyz
1 x,y,z
2 -x,-y,-z
_cell_length_a 8.0580(6)
_cell_length_b 9.4672(7)
_cell_length_c 9.7632(6)
_cell_angle_alpha 100.930(6)
_cell_angle_beta 106.981(5)
_cell_angle_gamma 104.978(5)
_cell_formula_units_Z 1
loop_
_atom_type_symbol
_atom_type_radius_bond
C 0.68
H 0.23
Cl 0.99
Fe 1.52
N 0.68
S 1.02
loop_
_atom_site_label
_atom_site_type_symbol
_atom_site_fract_x
_atom_site_fract_y
_atom_site_fract_z
Fe1 Fe 0.50000 0.50000 0.00000
N1 N 0.7747(3) 0.6175(3) 0.0599(3)
C1 C 0.9262(4) 0.6942(3) 0.1293(3)
S1 S 1.13315(12) 0.80088(12) 0.22816(13)
N2 N 0.5718(3) 0.3094(2) 0.0870(2)
C2 C 0.7382(4) 0.2957(3) 0.1142(3)
H1 H 0.82830 0.36540 0.09610
C3 C 0.7783(5) 0.1805(3) 0.1686(3)
C4 C 0.4980(6) 0.0935(3) 0.1744(4)
H2 H 0.41040 0.02480 0.19580
C5 C 0.4505(5) 0.2065(3) 0.1165(3)
H3 H 0.33200 0.21030 0.09800
N3 N 0.6621(5) 0.0796(3) 0.2005(3)
N4 N 0.5062(3) 0.6201(2) 0.2257(2)
C6 C 0.3883(4) 0.5581(3) 0.2862(3)
H4 H 0.29730 0.46400 0.23360
C7 C 0.4002(5) 0.6322(4) 0.4263(3)
C8 C 0.6364(6) 0.8268(4) 0.4445(4)
H5 H 0.72500 0.92220 0.49700
C9 C 0.6300(4) 0.7568(3) 0.3061(3)
H6 H 0.71370 0.80550 0.26740
N5 N 0.5216(4) 0.7644(4) 0.5073(3)
Cl1 Cl 0.99285(17) 0.16183(15) 0.19624(16)
Cl2 Cl 0.24217(15) 0.54764(13) 0.49948(10)
N1A N 0.2253(3) 0.3825(3) -0.0599(3)
C1A C 0.0738(4) 0.3058(3) -0.1293(3)
S1A S -0.13315(12) 0.19912(12) -0.22816(13)
N2A N 0.4282(3) 0.6906(2) -0.0870(2)
C2A C 0.2618(4) 0.7043(3) -0.1142(3)
H1A H 0.17170 0.63460 -0.09610
C3A C 0.2217(5) 0.8195(3) -0.1686(3)
C4A C 0.5020(6) 0.9065(3) -0.1744(4)
H2A H 0.58960 0.97520 -0.19580
C5A C 0.5495(5) 0.7935(3) -0.1165(3)
H3A H 0.66800 0.78970 -0.09800
N3A N 0.3379(5) 0.9204(3) -0.2005(3)
N4A N 0.4938(3) 0.3799(2) -0.2257(2)
C6A C 0.6117(4) 0.4419(3) -0.2862(3)
H4A H 0.70270 0.53600 -0.23360
C7A C 0.5998(5) 0.3678(4) -0.4263(3)
C8A C 0.3636(6) 0.1732(4) -0.4445(4)
H5A H 0.27500 0.07780 -0.49700
C9A C 0.3700(4) 0.2432(3) -0.3061(3)
H6A H 0.28630 0.19450 -0.26740
N5A N 0.4784(4) 0.2356(4) -0.5073(3)
Cl1A Cl 0.00715(17) 0.83817(15) -0.19624(16)
Cl2A Cl 0.75783(15) 0.45236(13) -0.49948(10)
#END
