
#######################################################################
#
#                 Cambridge Crystallographic Data Centre
#                                CCDC
#
#######################################################################
#
# If this CIF has been generated from an entry in the Cambridge
# Structural Database, then it will include bibliographic, chemical,
# crystal, experimental, refinement or atomic coordinate data resulting
# from the CCDC's data processing and validation procedures.
#
#######################################################################

data_CSD_CIF_OFUQUB
_audit_creation_date 2002-09-17
_audit_creation_method CSD-ConQuest-V1
_database_code_CSD OFUQUB
_database_code_depnum_ccdc_archive 'CCDC 181668'
_chemical_formula_sum 'C14 H18 Fe1 N4 O4'
_chemical_formula_moiety
;
C14 H18 Fe1 N4 O4
;
_journal_coden_Cambridge 179
_journal_volume 41
_journal_year 2002
_journal_page_first 2393
_journal_name_full 'Angew.Chem.,Int.Ed. '
loop_
_publ_author_name
"A.C.Filippou"
"T.Rosenauer"
_chemical_name_systematic
;
(2,3-bis(Dimethylamino)-4,5-bis(methylimino)cyclopent-2-en-1-one-N,N')-tricarb
onyl-iron(0)
;
_chemical_melting_point 366.15
_cell_volume    827.171
_exptl_crystal_colour 'violet'
_exptl_crystal_density_diffrn 1.454
_exptl_special_details
;
Melts with decomposition.

;
_exptl_crystal_description 'block'
_exptl_crystal_preparation 'pentane'
_diffrn_ambient_temperature 180
#These two values have been output from a single CSD field.
_refine_ls_R_factor_gt 0.0451
_refine_ls_wR_factor_gt 0.0451
_symmetry_cell_setting triclinic
_symmetry_space_group_name_H-M 'P -1'
_symmetry_Int_Tables_number 2
loop_
_symmetry_equiv_pos_site_id
_symmetry_equiv_pos_as_xyz
1 x,y,z
2 -x,-y,-z
_cell_length_a 8.6326(12)
_cell_length_b 10.222(2)
_cell_length_c 11.114(3)
_cell_angle_alpha 113.15(2)
_cell_angle_beta 105.499(17)
_cell_angle_gamma 99.58(3)
_cell_formula_units_Z 2
loop_
_atom_type_symbol
_atom_type_radius_bond
C 0.68
H 0.23
Fe 1.34
N 0.68
O 0.68
loop_
_atom_site_label
_atom_site_type_symbol
_atom_site_fract_x
_atom_site_fract_y
_atom_site_fract_z
C1 C 0.4785(3) 0.5166(2) 0.2556(2)
C2 C 0.5553(3) 0.6360(2) 0.4039(2)
C3 C 0.7288(3) 0.6598(3) 0.4484(2)
C4 C 0.7722(3) 0.5671(3) 0.3283(2)
C5 C 0.6089(3) 0.4802(3) 0.2076(2)
C6 C 0.1186(4) 0.2831(3) -0.0956(3)
C7 C 0.2572(3) 0.1143(3) 0.0178(3)
C8 C 0.3359(4) 0.1740(3) -0.1755(3)
C9 C 0.1784(3) 0.4321(3) 0.2105(3)
H1 H 0.07660 0.35860 0.13090
H2 H 0.16570 0.53220 0.23920
H3 H 0.19450 0.40830 0.28940
C10 C 0.3436(3) 0.7681(3) 0.4161(3)
H4 H 0.28820 0.81240 0.48150
H5 H 0.25830 0.68950 0.32660
H6 H 0.40460 0.84550 0.39990
C11 C 0.5130(4) 0.7590(3) 0.6273(3)
H7 H 0.43060 0.80400 0.65960
H8 H 0.62450 0.83430 0.67470
H9 H 0.51820 0.67580 0.64970
C12 C 0.8549(4) 0.9230(3) 0.6166(3)
H10 H 0.94370 0.98810 0.70930
H11 H 0.74600 0.93650 0.61960
H12 H 0.88050 0.94890 0.54650
C13 C 1.0121(3) 0.7494(4) 0.6288(3)
H13 H 1.08100 0.83400 0.72120
H14 H 1.06840 0.74520 0.56220
H15 H 0.99780 0.65630 0.63680
C14 C 0.6940(3) 0.3244(3) 0.0283(3)
H16 H 0.64160 0.23970 -0.06640
H17 H 0.76580 0.29520 0.09150
H18 H 0.76280 0.40870 0.02530
N1 N 0.3257(2) 0.4277(2) 0.1683(2)
N2 N 0.5614(2) 0.3687(2) 0.0803(2)
N3 N 0.4621(3) 0.7040(2) 0.4761(2)
N4 N 0.8470(3) 0.7680(2) 0.5786(2)
O1 O 0.9143(2) 0.5663(2) 0.3291(2)
O2 O -0.0146(3) 0.2867(3) -0.1459(3)
O3 O 0.2090(4) 0.0091(3) 0.0285(3)
O4 O 0.3458(3) 0.1089(3) -0.2825(2)
Fe1 Fe 0.32049(4) 0.27435(3) -0.00935(3)
#END
