
#######################################################################
#
#                 Cambridge Crystallographic Data Centre
#                                CCDC
#
#######################################################################
#
# If this CIF has been generated from an entry in the Cambridge
# Structural Database, then it will include bibliographic, chemical,
# crystal, experimental, refinement or atomic coordinate data resulting
# from the CCDC's data processing and validation procedures.
#
#######################################################################

data_CSD_CIF_OFUSIR
_audit_creation_date 2002-09-17
_audit_creation_method CSD-ConQuest-V1
_database_code_CSD OFUSIR
_database_code_depnum_ccdc_archive 'CCDC 179013'
_chemical_formula_sum 'C17 H24 Cr1 O4 Si2'
_chemical_formula_moiety
;
C17 H24 Cr1 O4 Si2
;
_journal_coden_Cambridge 179
_journal_volume 41
_journal_year 2002
_journal_page_first 2525
_journal_name_full 'Angew.Chem.,Int.Ed. '
loop_
_publ_author_name
"S.Zemolka"
"J.Lex"
"H.-G.Schmalz"
_chemical_name_systematic
;
rac-Tricarbonyl-(\h^6^-1,1-bis(trimethylsilyl)-dihydroisobenzofuran)-chromium
;
_chemical_melting_point 423
_cell_volume    985.532
_exptl_crystal_colour 'yellow'
_exptl_crystal_density_diffrn 1.35
_exptl_special_details
;
Melting point range 423-424K

;
_exptl_crystal_description 'prism'
_diffrn_ambient_temperature 293
#These two values have been output from a single CSD field.
_refine_ls_R_factor_gt 0.0413
_refine_ls_wR_factor_gt 0.0413
_symmetry_cell_setting triclinic
_symmetry_space_group_name_H-M 'P -1'
_symmetry_Int_Tables_number 2
loop_
_symmetry_equiv_pos_site_id
_symmetry_equiv_pos_as_xyz
1 x,y,z
2 -x,-y,-z
_cell_length_a 8.745(1)
_cell_length_b 9.882(1)
_cell_length_c 13.116
_cell_angle_alpha 75.46(1)
_cell_angle_beta 75.11(1)
_cell_angle_gamma 65.82(1)
_cell_formula_units_Z 2
loop_
_atom_type_symbol
_atom_type_radius_bond
C 0.68
H 0.23
Cr 1.35
O 0.68
Si 1.20
loop_
_atom_site_label
_atom_site_type_symbol
_atom_site_fract_x
_atom_site_fract_y
_atom_site_fract_z
Cr1 Cr 0.44663(4) 0.04793(4) 0.20509(3)
Si1 Si 0.15598(8) 0.59851(7) 0.24295(5)
Si2 Si -0.04909(7) 0.36267(7) 0.30089(5)
C1 C 0.1563(2) 0.3963(2) 0.28882(15)
O1 O 0.1863(2) 0.35702(19) 0.40144(12)
C2 C 0.3517(3) 0.2459(3) 0.4113(2)
H1 H 0.417(3) 0.289(3) 0.438(2)
H2 H 0.344(4) 0.153(4) 0.456(2)
C3 C 0.4347(3) 0.2145(3) 0.30041(19)
C4 C 0.6066(3) 0.1285(3) 0.2627(3)
H3 H 0.678(3) 0.079(3) 0.309(2)
C5 C 0.6591(3) 0.1273(3) 0.1528(3)
H4 H 0.767(4) 0.076(4) 0.128(3)
C6 C 0.5437(3) 0.2045(3) 0.0819(2)
H5 H 0.570(4) 0.201(4) 0.013(3)
C7 C 0.3713(3) 0.2842(3) 0.12047(18)
H6 H 0.295(3) 0.322(3) 0.075(2)
C8 C 0.3185(2) 0.2951(2) 0.23062(16)
C9 C -0.0065(6) 0.7308(4) 0.3316(3)
H7 H -0.001(5) 0.688(5) 0.400(4)
H8 H 0.018(5) 0.820(5) 0.314(3)
H9 H -0.099(7) 0.755(7) 0.318(5)
C10 C 0.3699(5) 0.5884(4) 0.2496(5)
H10 H 0.417(8) 0.542(8) 0.294(5)
H11 H 0.457(5) 0.538(5) 0.198(3)
H12 H 0.377(6) 0.673(7) 0.236(4)
C11 C 0.1154(4) 0.6708(3) 0.1035(2)
H13 H 0.004(5) 0.661(4) 0.090(3)
H14 H 0.107(4) 0.764(4) 0.086(3)
H15 H 0.208(5) 0.622(5) 0.048(4)
C12 C -0.2291(4) 0.5012(4) 0.3782(3)
H16 H -0.253(5) 0.590(5) 0.330(3)
H17 H -0.321(5) 0.469(5) 0.399(3)
H18 H -0.197(4) 0.525(4) 0.442(2)
C13 C -0.0952(4) 0.3823(3) 0.1656(2)
H19 H -0.093(5) 0.464(5) 0.130(3)
H20 H -0.005(5) 0.308(5) 0.112(3)
H21 H -0.202(4) 0.372(4) 0.172(3)
C14 C -0.0261(4) 0.1715(4) 0.3791(3)
H22 H 0.019(5) 0.155(4) 0.440(3)
H23 H -0.131(5) 0.171(4) 0.400(3)
H24 H 0.030(5) 0.106(5) 0.339(4)
C15 C 0.4058(3) -0.0731(3) 0.3330(2)
O2 O 0.3815(3) -0.1466(3) 0.41343(17)
C16 C 0.2766(3) 0.0280(3) 0.1595(2)
O3 O 0.1750(3) 0.0100(2) 0.12851(19)
C17 C 0.5886(3) -0.1205(3) 0.1458(2)
O4 O 0.6763(3) -0.2253(2) 0.10757(18)
#END
