
#######################################################################
#
#                 Cambridge Crystallographic Data Centre
#                                CCDC
#
#######################################################################
#
# If this CIF has been generated from an entry in the Cambridge
# Structural Database, then it will include bibliographic, chemical,
# crystal, experimental, refinement or atomic coordinate data resulting
# from the CCDC's data processing and validation procedures.
#
#######################################################################

data_CSD_CIF_OGIHEU
_audit_creation_date 2020-04-06
_audit_creation_method CSD-ConQuest-V1
_database_code_CSD OGIHEU
_database_code_depnum_ccdc_archive 'CCDC 1567448'
_chemical_formula_sum 'C15 H11 Cl2 Mn1 N3 O1'
_chemical_formula_moiety
;
C15 H11 Cl2 Mn1 N3 O1
;
_journal_coden_Cambridge 1077
_journal_volume 34
_journal_year 2020
_journal_name_full 'Appl.Organomet.Chem. '
loop_
_publ_author_name
"B.Z.Momeni"
"F.Rahimi"
"M.Torrei"
"F.Rominger"
_chemical_name_systematic
;
dichloro-(4'-hydroxy-2,2':6',2''-terpyridine)-manganese
;
_cell_volume    736.769
_exptl_crystal_colour 'yellow'
_exptl_crystal_density_diffrn 1.691
_exptl_crystal_description 'polyhedron'
_diffrn_ambient_temperature 200
#These two values have been output from a single CSD field.
_refine_ls_R_factor_gt 0.0506
_refine_ls_wR_factor_gt 0.0506
_symmetry_cell_setting triclinic
_symmetry_space_group_name_H-M 'P -1'
_symmetry_Int_Tables_number 2
loop_
_symmetry_equiv_pos_site_id
_symmetry_equiv_pos_as_xyz
1 x,y,z
2 -x,-y,-z
_cell_length_a 8.1662(11)
_cell_length_b 8.8007(12)
_cell_length_c 11.2298(15)
_cell_angle_alpha 104.665(5)
_cell_angle_beta 94.294(4)
_cell_angle_gamma 107.034(4)
_cell_formula_units_Z 2
loop_
_atom_type_symbol
_atom_type_radius_bond
C 0.68
H 0.23
Cl 0.99
Mn 1.61
N 0.68
O 0.68
loop_
_atom_site_label
_atom_site_type_symbol
_atom_site_fract_x
_atom_site_fract_y
_atom_site_fract_z
Mn1 Mn 0.51028(13) 0.74389(12) 0.74336(10)
Cl1 Cl 0.7072(2) 0.9749(2) 0.70785(17)
Cl2 Cl 0.3050(2) 0.8284(2) 0.86385(17)
N1 N 0.4330(6) 0.4753(6) 0.7035(5)
N2 N 0.6738(7) 0.6839(6) 0.8834(5)
N3 N 0.3402(7) 0.6298(6) 0.5528(5)
O1 O 0.1932(7) -0.0169(6) 0.6717(6)
H1 H 0.237(9) -0.044(9) 0.713(7)
C1 C 0.4897(8) 0.4059(8) 0.7851(6)
C2 C 0.4192(8) 0.2397(8) 0.7788(6)
H2 H 0.46340 0.19350 0.83670
C3 C 0.2811(9) 0.1443(8) 0.6841(6)
C4 C 0.2225(9) 0.2134(8) 0.5982(6)
H3 H 0.12920 0.14780 0.53240
C5 C 0.3021(8) 0.3789(8) 0.6104(6)
C6 C 0.6356(8) 0.5248(8) 0.8835(6)
C7 C 0.7271(8) 0.4751(8) 0.9676(6)
H4 H 0.69740 0.36170 0.96580
C8 C 0.8626(9) 0.5952(9) 1.0539(6)
H5 H 0.92710 0.56480 1.11250
C9 C 0.9034(9) 0.7584(9) 1.0547(6)
H6 H 0.99640 0.84200 1.11320
C10 C 0.8058(9) 0.7984(9) 0.9683(6)
H7 H 0.83340 0.91130 0.96900
C11 C 0.2562(8) 0.4660(8) 0.5215(6)
C12 C 0.1356(8) 0.3844(8) 0.4146(6)
H8 H 0.07840 0.26810 0.39370
C13 C 0.0995(9) 0.4759(8) 0.3382(6)
H9 H 0.01590 0.42330 0.26440
C14 C 0.1848(9) 0.6412(8) 0.3698(6)
H10 H 0.16120 0.70540 0.31840
C15 C 0.3052(9) 0.7154(8) 0.4764(6)
H11 H 0.36600 0.83100 0.49680
#END
