
#######################################################################
#
#                 Cambridge Crystallographic Data Centre
#                                CCDC
#
#######################################################################
#
# If this CIF has been generated from an entry in the Cambridge
# Structural Database, then it will include bibliographic, chemical,
# crystal, experimental, refinement or atomic coordinate data resulting
# from the CCDC's data processing and validation procedures.
#
#######################################################################

data_CSD_CIF_OGIPOJ
_audit_creation_date 2003-01-24
_audit_creation_method CSD-ConQuest-V1
_database_code_CSD OGIPOJ
_database_code_depnum_ccdc_archive 'CCDC 169407'
_chemical_formula_sum 'C26 H20 Mn1 N10 O4 S2'
_chemical_formula_moiety
;
C26 H20 Mn1 N10 O4 S2
;
_journal_coden_Cambridge 119
_journal_volume 608
_journal_year 2002
_journal_page_first 229
_journal_name_full 'J.Mol.Struct. '
loop_
_publ_author_name
"Ya-Yin Fang"
"He Liu"
"Miao Du"
"Ya-Mei Guo"
"Xian-He Bu"
_chemical_name_systematic
;
diaqua-diisothiocyanato-bis(2,5-bis(4-pyridyl)-1,3,4-oxadiazole)-manganese(ii)
;
_cell_volume    736.935
_exptl_crystal_density_diffrn 1.477
_exptl_special_details
;
Isomorphous with the Co analogue

;
_diffrn_ambient_temperature 293
#These two values have been output from a single CSD field.
_refine_ls_R_factor_gt 0.0619
_refine_ls_wR_factor_gt 0.0619
_symmetry_cell_setting triclinic
_symmetry_space_group_name_H-M 'P -1'
_symmetry_Int_Tables_number 2
loop_
_symmetry_equiv_pos_site_id
_symmetry_equiv_pos_as_xyz
1 x,y,z
2 -x,-y,-z
_cell_length_a 8.005(3)
_cell_length_b 8.693(3)
_cell_length_c 11.379(5)
_cell_angle_alpha 94.188(7)
_cell_angle_beta 110.109(7)
_cell_angle_gamma 94.563(8)
_cell_formula_units_Z 1
loop_
_atom_type_symbol
_atom_type_radius_bond
C 0.68
H 0.23
Mn 1.35
N 0.68
O 0.68
S 1.02
loop_
_atom_site_label
_atom_site_type_symbol
_atom_site_fract_x
_atom_site_fract_y
_atom_site_fract_z
Mn1 Mn 1.00000 0.00000 1.00000
N1 N 0.8975(5) 0.1933(5) 0.8654(4)
N2 N 0.6743(6) 0.6897(5) 0.6695(4)
N3 N 0.6336(6) 0.7718(5) 0.5623(4)
O1 O 0.7208(4) 0.5456(4) 0.5180(3)
N4 N 0.6110(6) 0.7567(6) 0.1007(4)
N5 N 0.9111(6) 0.1150(5) 1.1379(4)
O2 O 1.2622(4) 0.1430(4) 1.0852(3)
H1 H 1.35190 0.13070 1.05180
H2 H 1.28260 0.21540 1.15430
S1 S 0.8668(3) 0.2266(2) 1.35897(16)
C1 C 0.8559(7) 0.3233(6) 0.9104(5)
H3 H 0.86370 0.33280 0.99410
C2 C 0.8021(7) 0.4453(6) 0.8419(5)
H4 H 0.77580 0.53460 0.87900
C3 C 0.7876(6) 0.4333(6) 0.7159(4)
C4 C 0.8277(7) 0.2972(6) 0.6672(5)
H5 H 0.81810 0.28360 0.58320
C5 C 0.8814(8) 0.1827(7) 0.7428(5)
H6 H 0.90850 0.09210 0.70810
C6 C 0.7264(7) 0.5613(6) 0.6399(4)
C7 C 0.6649(6) 0.6841(6) 0.4775(5)
C8 C 0.6470(7) 0.7107(6) 0.3475(5)
C9 C 0.5907(7) 0.8464(6) 0.3001(5)
H7 H 0.56360 0.92400 0.34910
C10 C 0.5755(8) 0.8637(7) 0.1758(5)
H8 H 0.53820 0.95550 0.14360
C11 C 0.6636(8) 0.6270(8) 0.1472(5)
H9 H 0.68770 0.55090 0.09530
C12 C 0.6849(7) 0.5976(7) 0.2710(5)
H10 H 0.72340 0.50500 0.30070
C13 C 0.8913(7) 0.1626(6) 1.2297(5)
N1A N 1.1025(5) -0.1933(5) 1.1346(4)
C1A C 1.1441(7) -0.3233(6) 1.0896(5)
H3A H 1.13630 -0.33280 1.00590
C2A C 1.1979(7) -0.4453(6) 1.1581(5)
H4A H 1.22420 -0.53460 1.12100
C3A C 1.2124(6) -0.4333(6) 1.2841(4)
C4A C 1.1723(7) -0.2972(6) 1.3328(5)
H5A H 1.18190 -0.28360 1.41680
C5A C 1.1186(8) -0.1827(7) 1.2572(5)
H6A H 1.09150 -0.09210 1.29190
C6A C 1.2736(7) -0.5613(6) 1.3601(4)
N2A N 1.3257(6) -0.6897(5) 1.3305(4)
N3A N 1.3664(6) -0.7718(5) 1.4377(4)
C7A C 1.3351(6) -0.6841(6) 1.5225(5)
O1A O 1.2792(4) -0.5456(4) 1.4820(3)
C8A C 1.3530(7) -0.7107(6) 1.6525(5)
C9A C 1.4093(7) -0.8464(6) 1.6999(5)
H7A H 1.43640 -0.92400 1.65090
C10A C 1.4245(8) -0.8637(7) 1.8242(5)
N4A N 1.3890(6) -0.7567(6) 1.8993(4)
C11A C 1.3364(8) -0.6270(8) 1.8528(5)
H9A H 1.31230 -0.55090 1.90470
C12A C 1.3151(7) -0.5976(7) 1.7290(5)
H10A H 1.27660 -0.50500 1.69930
H8A H 1.46180 -0.95550 1.85640
N5A N 1.0889(6) -0.1150(5) 0.8621(4)
C13A C 1.1087(7) -0.1626(6) 0.7703(5)
S1A S 1.1332(3) -0.2266(2) 0.64103(16)
O2A O 0.7378(4) -0.1430(4) 0.9148(3)
H1A H 0.64810 -0.13070 0.94820
H2A H 0.71740 -0.21540 0.84570
#END
