
#######################################################################
#
#                 Cambridge Crystallographic Data Centre
#                                CCDC
#
#######################################################################
#
# If this CIF has been generated from an entry in the Cambridge
# Structural Database, then it will include bibliographic, chemical,
# crystal, experimental, refinement or atomic coordinate data resulting
# from the CCDC's data processing and validation procedures.
#
#######################################################################

data_CSD_CIF_OGIPOJ01
_audit_creation_date 2004-06-17
_audit_creation_method CSD-ConQuest-V1
_database_code_CSD OGIPOJ01
_database_code_depnum_ccdc_archive 'CCDC 213500'
_chemical_formula_sum 'C26 H20 Mn1 N10 O4 S2'
_chemical_formula_moiety
;
C26 H20 Mn1 N10 O4 S2
;
_journal_coden_Cambridge 440
_journal_volume 28
_journal_year 2004
_journal_page_first 191
_journal_name_full 'New J.Chem. '
loop_
_publ_author_name
"Hongwei Hou"
"Lixia Xie"
"Gang Li"
"Tiezhu Ge"
"Yaoting Fan"
"Yu Zhu"
_chemical_name_systematic
;
diaqua-diisothiocyanato-bis(2,5-bis(4-pyridyl)-1,3,4-oxadiazole)-manganese(ii)
;
_cell_volume    726.894
_exptl_crystal_colour 'colorless'
_exptl_crystal_density_diffrn 1.498
_exptl_crystal_description 'prismatic'
_diffrn_ambient_temperature 291
#These two values have been output from a single CSD field.
_refine_ls_R_factor_gt 0.0594
_refine_ls_wR_factor_gt 0.0594
_symmetry_cell_setting triclinic
_symmetry_space_group_name_H-M 'P -1'
_symmetry_Int_Tables_number 2
loop_
_symmetry_equiv_pos_site_id
_symmetry_equiv_pos_as_xyz
1 x,y,z
2 -x,-y,-z
_cell_length_a 7.9571(16)
_cell_length_b 8.6740(17)
_cell_length_c 11.326(2)
_cell_angle_alpha 94.31(3)
_cell_angle_beta 110.17(3)
_cell_angle_gamma 94.66(3)
_cell_formula_units_Z 1
loop_
_atom_type_symbol
_atom_type_radius_bond
C 0.68
H 0.23
Mn 1.35
N 0.68
O 0.68
S 1.02
loop_
_atom_site_label
_atom_site_type_symbol
_atom_site_fract_x
_atom_site_fract_y
_atom_site_fract_z
Mn1 Mn 0.00000 0.00000 0.00000
S1 S 0.1331(2) -0.22597(16) -0.35919(14)
O1 O 0.2773(4) -0.5461(3) 0.4811(2)
O2 O -0.2650(5) -0.1425(4) -0.0865(3)
C1 C 0.1458(6) -0.3245(4) 0.0879(4)
H1 H 0.14080 -0.33360 0.00440
C2 C 0.1978(6) -0.4465(4) 0.1580(4)
H2 H 0.22280 -0.53690 0.12090
C3 C 0.2125(5) -0.4341(4) 0.2831(4)
C4 C 0.1720(7) -0.2972(5) 0.3329(4)
H3 H 0.18130 -0.28370 0.41730
C5 C 0.1177(7) -0.1812(5) 0.2561(4)
H4 H 0.09080 -0.09020 0.29110
C6 C 0.2737(5) -0.5599(4) 0.3611(4)
C7 C 0.3359(6) -0.6837(4) 0.5232(4)
C8 C 0.3364(7) -0.6262(6) 0.8511(5)
H5 H 0.31170 -0.55000 0.90310
C9 C 0.3161(7) -0.5968(6) 0.7299(5)
H6 H 0.27900 -0.50330 0.70080
C10 C 0.3523(5) -0.7095(5) 0.6524(4)
C11 C 0.4088(6) -0.8465(5) 0.7010(4)
H7 H 0.43500 -0.92450 0.65130
C12 C 0.4251(7) -0.8645(6) 0.8241(5)
H8 H 0.46300 -0.95640 0.85610
C13 C 0.1090(6) -0.1617(4) -0.2298(4)
N1 N 0.1017(5) -0.1919(4) 0.1345(3)
N2 N 0.3257(5) -0.6904(4) 0.3310(3)
N3 N 0.3669(5) -0.7720(4) 0.4371(3)
N4 N 0.3895(6) -0.7575(5) 0.8993(4)
N5 N 0.0894(5) -0.1141(4) -0.1383(4)
H9 H -0.264(10) -0.204(8) -0.149(8)
H10 H -0.292(9) -0.189(7) -0.026(7)
O2A O 0.2650(5) 0.1425(4) 0.0865(3)
H9A H 0.264(10) 0.204(8) 0.149(8)
H10A H 0.292(9) 0.189(7) 0.026(7)
N1A N -0.1017(5) 0.1919(4) -0.1345(3)
C1A C -0.1458(6) 0.3245(4) -0.0879(4)
H1A H -0.14080 0.33360 -0.00440
C2A C -0.1978(6) 0.4465(4) -0.1580(4)
H2A H -0.22280 0.53690 -0.12090
C3A C -0.2125(5) 0.4341(4) -0.2831(4)
C4A C -0.1720(7) 0.2972(5) -0.3329(4)
H3A H -0.18130 0.28370 -0.41730
C5A C -0.1177(7) 0.1812(5) -0.2561(4)
H4A H -0.09080 0.09020 -0.29110
C6A C -0.2737(5) 0.5599(4) -0.3611(4)
O1A O -0.2773(4) 0.5461(3) -0.4811(2)
C7A C -0.3359(6) 0.6837(4) -0.5232(4)
C10A C -0.3523(5) 0.7095(5) -0.6524(4)
C9A C -0.3161(7) 0.5968(6) -0.7299(5)
C8A C -0.3364(7) 0.6262(6) -0.8511(5)
H5A H -0.31170 0.55000 -0.90310
N4A N -0.3895(6) 0.7575(5) -0.8993(4)
C12A C -0.4251(7) 0.8645(6) -0.8241(5)
C11A C -0.4088(6) 0.8465(5) -0.7010(4)
H7A H -0.43500 0.92450 -0.65130
H8A H -0.46300 0.95640 -0.85610
H6A H -0.27900 0.50330 -0.70080
N3A N -0.3669(5) 0.7720(4) -0.4371(3)
N2A N -0.3257(5) 0.6904(4) -0.3310(3)
N5A N -0.0894(5) 0.1141(4) 0.1383(4)
C13A C -0.1090(6) 0.1617(4) 0.2298(4)
S1A S -0.1331(2) 0.22597(16) 0.35919(14)
#END
