
#######################################################################
#
#                 Cambridge Crystallographic Data Centre
#                                CCDC
#
#######################################################################
#
# If this CIF has been generated from an entry in the Cambridge
# Structural Database, then it will include bibliographic, chemical,
# crystal, experimental, refinement or atomic coordinate data resulting
# from the CCDC's data processing and validation procedures.
#
#######################################################################

data_CSD_CIF_OGIYIN
_audit_creation_date 2010-07-26
_audit_creation_method CSD-ConQuest-V1
_database_code_CSD OGIYIN
_database_code_depnum_ccdc_archive 'CCDC 744586'
_chemical_formula_sum 'C6 H18 Cr1 N3 O12'
_chemical_formula_moiety
;
C6 H12 Cr1 N3 O9,3(H2 O1)
;
_journal_coden_Cambridge 222
_journal_year 2009
_journal_page_first 10343
_journal_name_full 'Dalton Trans. '
loop_
_publ_author_name
"O.Sengupta"
"You Song"
"P.S.Mukherjee"
_chemical_name_systematic
;
fac-tris(Formamido)-tris(formato)-chromium(iii) trihydrate
;
_cell_volume   1175.241
_exptl_crystal_colour 'violet'
_exptl_crystal_density_diffrn 1.569
_exptl_crystal_description 'prism'
_diffrn_ambient_temperature 293
#These two values have been output from a single CSD field.
_refine_ls_R_factor_gt 0.073
_refine_ls_wR_factor_gt 0.073
_symmetry_cell_setting rhombohedral
_symmetry_space_group_name_H-M 'R 3'
_symmetry_Int_Tables_number 146
loop_
_symmetry_equiv_pos_site_id
_symmetry_equiv_pos_as_xyz
1 x,y,z
2 -y,x-y,z
3 -x+y,-x,z
4 2/3+x,1/3+y,1/3+z
5 2/3-y,1/3+x-y,1/3+z
6 2/3-x+y,1/3-x,1/3+z
7 1/3+x,2/3+y,2/3+z
8 1/3-y,2/3+x-y,2/3+z
9 1/3-x+y,2/3-x,2/3+z
_cell_length_a 7.9412(1)
_cell_length_b 7.9412(1)
_cell_length_c 21.5191(5)
_cell_angle_alpha 90
_cell_angle_beta 90
_cell_angle_gamma 120
_cell_formula_units_Z 3
loop_
_atom_type_symbol
_atom_type_radius_bond
C 0.68
H 0.23
Cr 1.39
N 0.68
O 0.68
loop_
_atom_site_label
_atom_site_type_symbol
_atom_site_fract_x
_atom_site_fract_y
_atom_site_fract_z
Cr1 Cr 0.33330 0.66670 0.10873(7)
C1 C 0.5986(13) 0.5844(12) 0.1794(5)
H1 H 0.52770 0.46000 0.16270
C2 C 0.2559(12) 0.3264(10) 0.0394(4)
H2 H 0.13260 0.28030 0.05620
O1 O 0.3776(7) 0.4898(7) 0.0536(2)
O2 O 0.5501(9) 0.7156(7) 0.1613(3)
O3 O 0.7293(8) 0.6142(8) 0.2162(3)
N1 N 0.2763(9) 0.2154(10) 0.0056(3)
H3 H 0.38750 0.25100 -0.01120
H4 H 0.17960 0.10130 -0.00160
O4 O 0.00000 0.00000 -0.0573(3)
O5 O 0.00000 0.00000 0.2487(6)
O6 O 0.66670 0.33330 -0.0388(6)
C1A C 0.4156(13) 1.0142(12) 0.1794(5)
C1B C -0.0142(13) 0.4014(12) 0.1794(5)
H1A H 0.54000 1.06770 0.16270
H1B H -0.06770 0.47230 0.16270
C2A C 0.6736(12) 0.9295(10) 0.0394(4)
C2B C 0.0705(12) 0.7441(10) 0.0394(4)
H2A H 0.71970 0.85230 0.05620
H2B H 0.14770 0.86740 0.05620
O1A O 0.5102(7) 0.8878(7) 0.0536(2)
O1B O 0.1122(7) 0.6224(7) 0.0536(2)
O2A O 0.2844(9) 0.8345(7) 0.1613(3)
O2B O 0.1655(9) 0.4499(7) 0.1613(3)
O3A O 0.3858(8) 1.1151(8) 0.2162(3)
O3B O -0.1151(8) 0.2707(8) 0.2162(3)
N1A N 0.7846(9) 1.0609(10) 0.0056(3)
N1B N -0.0609(9) 0.7237(10) 0.0056(3)
H3A H 0.74900 1.13650 -0.01120
H3B H -0.13650 0.61250 -0.01120
H4A H 0.89870 1.07830 -0.00160
H4B H -0.07830 0.82040 -0.00160
#END
