
#######################################################################
#
#                 Cambridge Crystallographic Data Centre
#                                CCDC
#
#######################################################################
#
# If this CIF has been generated from an entry in the Cambridge
# Structural Database, then it will include bibliographic, chemical,
# crystal, experimental, refinement or atomic coordinate data resulting
# from the CCDC's data processing and validation procedures.
#
#######################################################################

data_CSD_CIF_OGUJOQ
_audit_creation_date 2010-07-26
_audit_creation_method CSD-ConQuest-V1
_database_code_CSD OGUJOQ
_database_code_depnum_ccdc_archive 'CCDC 719739'
_chemical_formula_sum 'C15 H23 Cl2 Mn1 N3 O3'
_chemical_formula_moiety
;
C15 H21 Cl2 Mn1 N3 O2,H2 O1
;
_journal_coden_Cambridge 1350
_journal_volume 11
_journal_year 2009
_journal_page_first 2447
_journal_name_full 'CrystEngComm '
loop_
_publ_author_name
"Daopeng Zhang"
"Hailong Wang"
"Laijin Tian"
"Jianzhuang Jiang"
"Zhong-Hai Ni"
_chemical_name_systematic
;
Dichloro-(2,13-dimethyl-6,9-dioxa-3,12,18-triazabicyclo[12.3.1]octadeca-1(18),
2,12,14,16-pentaene)-manganese(ii) monohydrate
;
_cell_volume    916.650
_exptl_crystal_colour 'yellow'
_exptl_crystal_density_diffrn 1.519
_exptl_crystal_description 'block'
_diffrn_ambient_temperature 293
#These two values have been output from a single CSD field.
_refine_ls_R_factor_gt 0.069
_refine_ls_wR_factor_gt 0.069
_symmetry_cell_setting triclinic
_symmetry_space_group_name_H-M 'P -1'
_symmetry_Int_Tables_number 2
loop_
_symmetry_equiv_pos_site_id
_symmetry_equiv_pos_as_xyz
1 x,y,z
2 -x,-y,-z
_cell_length_a 8.267(14)
_cell_length_b 8.394(13)
_cell_length_c 14.19(2)
_cell_angle_alpha 73.89(2)
_cell_angle_beta 76.72(2)
_cell_angle_gamma 81.28(2)
_cell_formula_units_Z 2
loop_
_atom_type_symbol
_atom_type_radius_bond
C 0.68
H 0.23
Cl 0.99
Mn 1.61
N 0.68
O 0.68
loop_
_atom_site_label
_atom_site_type_symbol
_atom_site_fract_x
_atom_site_fract_y
_atom_site_fract_z
Mn1 Mn 0.36265(13) 0.16288(13) 0.72438(7)
Cl1 Cl 0.5575(2) 0.3636(2) 0.74507(14)
Cl2 Cl 0.1780(3) -0.0317(3) 0.69166(15)
O1 O 0.2717(8) 0.6164(8) 0.8442(5)
H1 H 0.35720 0.56910 0.81590
H2 H 0.22430 0.68120 0.79780
N1 N 0.2541(7) 0.1071(7) 0.8868(4)
N2 N 0.5177(7) -0.0574(7) 0.8028(4)
N3 N 0.1334(8) 0.3388(7) 0.7528(5)
O2 O 0.5684(7) 0.0781(7) 0.6055(4)
O3 O 0.3366(7) 0.3500(7) 0.5757(4)
C1 C 0.3245(8) -0.0262(8) 0.9476(5)
C2 C 0.2640(9) -0.0601(9) 1.0513(5)
H3 H 0.31270 -0.14970 1.09420
C3 C 0.1327(10) 0.040(1) 1.0886(6)
H4 H 0.09250 0.01790 1.15730
C4 C 0.0564(10) 0.178(1) 1.0236(6)
H5 H -0.03390 0.24660 1.04750
C5 C 0.1270(9) 0.2029(9) 0.9215(5)
C6 C 0.0565(9) 0.3373(9) 0.8430(6)
C7 C -0.088(1) 0.4578(10) 0.8681(7)
H6 H -0.05390 0.56870 0.84500
H7 H -0.12710 0.43210 0.93920
H8 H -0.17610 0.45030 0.83610
C8 C 0.4661(8) -0.1205(8) 0.8981(5)
C9 C 0.5362(10) -0.2834(9) 0.9564(6)
H9 H 0.62570 -0.33100 0.91320
H10 H 0.45020 -0.35810 0.98320
H11 H 0.57750 -0.26560 1.01020
C10 C 0.6528(10) -0.1334(10) 0.7386(6)
H12 H 0.61330 -0.22200 0.72080
H13 H 0.74360 -0.18080 0.77370
C11 C 0.7145(10) 0.0009(11) 0.6439(7)
H14 H 0.76900 0.08180 0.65980
H15 H 0.79280 -0.04880 0.59530
C12 C 0.5997(11) 0.2081(11) 0.5150(6)
H16 H 0.66730 0.16330 0.46100
H17 H 0.65780 0.29280 0.52450
C13 C 0.4301(12) 0.2808(12) 0.4914(6)
H18 H 0.44250 0.36790 0.42950
H19 H 0.37100 0.19500 0.48390
C14 C 0.1655(10) 0.3977(11) 0.5710(6)
H20 H 0.11060 0.30300 0.57170
H21 H 0.15460 0.48420 0.51060
C15 C 0.0876(12) 0.4636(11) 0.6655(6)
H22 H 0.12960 0.56870 0.65900
H23 H -0.03290 0.48140 0.67300
#END
