
#######################################################################
#
#                 Cambridge Crystallographic Data Centre
#                                CCDC
#
#######################################################################
#
# If this CIF has been generated from an entry in the Cambridge
# Structural Database, then it will include bibliographic, chemical,
# crystal, experimental, refinement or atomic coordinate data resulting
# from the CCDC's data processing and validation procedures.
#
#######################################################################

data_CSD_CIF_OGUJIK
_audit_creation_date 2010-07-26
_audit_creation_method CSD-ConQuest-V1
_database_code_CSD OGUJIK
_database_code_depnum_ccdc_archive 'CCDC 719737'
_chemical_formula_sum 'C15 H25 Cl2 Mn1 N5 O1'
_chemical_formula_moiety
;
C15 H23 Cl2 Mn1 N5,H2 O1
;
_journal_coden_Cambridge 1350
_journal_volume 11
_journal_year 2009
_journal_page_first 2447
_journal_name_full 'CrystEngComm '
loop_
_publ_author_name
"Daopeng Zhang"
"Hailong Wang"
"Laijin Tian"
"Jianzhuang Jiang"
"Zhong-Hai Ni"
_chemical_name_systematic
;
Dichloro-(2,13-dimethyl-3,6,9,12,18-penta-azabicyclo[12.3.1]octadeca-1(18),2,1
2,14,16-pentaene)-manganese(ii) monohydrate
;
_cell_volume    927.896
_exptl_crystal_colour 'yellow'
_exptl_crystal_density_diffrn 1.493
_exptl_crystal_description 'block'
_diffrn_ambient_temperature 293
#These two values have been output from a single CSD field.
_refine_ls_R_factor_gt 0.0612
_refine_ls_wR_factor_gt 0.0612
_symmetry_cell_setting triclinic
_symmetry_space_group_name_H-M 'P -1'
_symmetry_Int_Tables_number 2
loop_
_symmetry_equiv_pos_site_id
_symmetry_equiv_pos_as_xyz
1 x,y,z
2 -x,-y,-z
_cell_length_a 8.433(14)
_cell_length_b 8.661(13)
_cell_length_c 13.62(2)
_cell_angle_alpha 74.33(2)
_cell_angle_beta 77.10(2)
_cell_angle_gamma 80.55(2)
_cell_formula_units_Z 2
loop_
_atom_type_symbol
_atom_type_radius_bond
C 0.68
H 0.23
Cl 0.99
Mn 1.61
N 0.68
O 0.68
loop_
_atom_site_label
_atom_site_type_symbol
_atom_site_fract_x
_atom_site_fract_y
_atom_site_fract_z
Mn1 Mn 0.36254(11) 0.16298(11) 0.72442(6)
Cl1 Cl 0.5571(2) 0.3638(2) 0.74533(13)
Cl2 Cl 0.1787(2) -0.0323(2) 0.69132(14)
O1 O 0.2698(7) 0.6165(7) 0.8452(5)
H1 H 0.35780 0.56940 0.81970
H2 H 0.22710 0.68430 0.80100
N1 N 0.2545(6) 0.1066(6) 0.8865(4)
N2 N 0.5169(6) -0.0561(6) 0.8026(4)
N3 N 0.1332(7) 0.3384(6) 0.7530(4)
N4 N 0.5671(6) 0.0788(6) 0.6060(3)
H3 H 0.52840 0.00370 0.58480
N5 N 0.3366(6) 0.3482(6) 0.5752(3)
H4 H 0.38280 0.43590 0.57530
C1 C 0.3244(7) -0.0238(7) 0.9480(4)
C2 C 0.2633(8) -0.0605(8) 1.0513(5)
H5 H 0.30830 -0.14990 1.09590
C3 C 0.1306(9) 0.0407(9) 1.0881(5)
H6 H 0.08800 0.01730 1.15890
C4 C 0.0584(8) 0.1751(9) 1.0245(5)
H7 H -0.03040 0.24120 1.05060
C5 C 0.1253(7) 0.2036(8) 0.9223(5)
C6 C 0.0581(8) 0.3385(8) 0.8424(5)
C7 C -0.0859(9) 0.4594(9) 0.8690(6)
H8 H -0.05240 0.56610 0.84590
H9 H -0.12410 0.43490 0.94280
H10 H -0.17250 0.45390 0.83520
C8 C 0.4670(7) -0.1220(7) 0.8971(5)
C9 C 0.5338(9) -0.2827(8) 0.9565(6)
H11 H 0.57730 -0.35160 0.91000
H12 H 0.44770 -0.33100 1.00920
H13 H 0.61920 -0.26830 0.98850
C10 C 0.6522(8) -0.1319(9) 0.7389(5)
H14 H 0.61620 -0.21590 0.71700
H15 H 0.73930 -0.17950 0.77750
C11 C 0.7114(8) 0.0009(10) 0.6456(6)
H16 H 0.76300 0.07640 0.66600
H17 H 0.78950 -0.04410 0.59370
C12 C 0.5989(11) 0.212(1) 0.5156(5)
H18 H 0.66720 0.17410 0.45750
H19 H 0.65270 0.29140 0.53060
C13 C 0.4321(12) 0.2825(10) 0.4922(5)
H20 H 0.44340 0.36660 0.42830
H21 H 0.37690 0.19910 0.48270
C14 C 0.1659(9) 0.3988(10) 0.5722(6)
H22 H 0.11220 0.30820 0.57190
H23 H 0.15490 0.48210 0.50940
C15 C 0.0884(10) 0.4618(9) 0.6643(6)
H24 H 0.12870 0.56270 0.65980
H25 H -0.02960 0.48010 0.67010
#END
