
#######################################################################
#
#                 Cambridge Crystallographic Data Centre
#                                CCDC
#
#######################################################################
#
# If this CIF has been generated from an entry in the Cambridge
# Structural Database, then it will include bibliographic, chemical,
# crystal, experimental, refinement or atomic coordinate data resulting
# from the CCDC's data processing and validation procedures.
#
#######################################################################

data_CSD_CIF_OGUNEM
_audit_creation_date 2020-04-07
_audit_creation_method CSD-ConQuest-V1
_database_code_CSD OGUNEM
_database_code_depnum_ccdc_archive 'CCDC 1916751'
_chemical_formula_sum 'C27 H26 Fe1 N1 O1 P1'
_chemical_formula_moiety
;
C27 H26 Fe1 N1 O1 P1
;
_journal_coden_Cambridge 35
_journal_volume 85
_journal_year 2020
_journal_page_first 4838
_journal_name_full 'J.Org.Chem. '
loop_
_publ_author_name
"R.A.Arthurs"
"D.L.Hughes"
"C.J.Richards"
_chemical_name_systematic
;
(S)-2-[(R~p~)-2-((S~phos~)-ortho-Tolylphenylphosphino)-5-ferrocenyl]-4-methylo
xazoline
;
_cell_volume    551.584
_exptl_crystal_colour 'orange red'
_exptl_crystal_density_diffrn 1.407
_exptl_special_details
;
Absolute configuration

;
_exptl_crystal_description 'block'
_diffrn_ambient_temperature 140
#These two values have been output from a single CSD field.
_refine_ls_R_factor_gt 0.0329
_refine_ls_wR_factor_gt 0.0329
_symmetry_cell_setting triclinic
_symmetry_space_group_name_H-M 'P 1'
_symmetry_Int_Tables_number 1
loop_
_symmetry_equiv_pos_site_id
_symmetry_equiv_pos_as_xyz
1 x,y,z
_cell_length_a 8.0680(3)
_cell_length_b 8.1779(3)
_cell_length_c 9.0160(4)
_cell_angle_alpha 74.336(3)
_cell_angle_beta 74.502(4)
_cell_angle_gamma 87.802(3)
_cell_formula_units_Z 1
loop_
_atom_type_symbol
_atom_type_radius_bond
C 0.68
H 0.23
Fe 1.52
N 0.68
O 0.68
P 1.05
loop_
_atom_site_label
_atom_site_type_symbol
_atom_site_fract_x
_atom_site_fract_y
_atom_site_fract_z
Fe1 Fe 0.53841(5) 0.81437(5) 0.31710(5)
C1 C 0.4429(5) 0.5905(5) 0.4850(5)
C2 C 0.3443(5) 0.6390(5) 0.3691(5)
C3 C 0.2775(5) 0.8034(5) 0.3720(5)
H1 H 0.21020 0.86460 0.30830
C4 C 0.3321(5) 0.8557(5) 0.4888(5)
H2 H 0.30650 0.95770 0.51560
C5 C 0.4324(5) 0.7267(5) 0.5586(5)
H3 H 0.48320 0.73010 0.63900
C6 C 0.7862(6) 0.7828(6) 0.1973(5)
H4 H 0.84480 0.68190 0.20880
C7 C 0.6859(6) 0.8439(5) 0.0880(5)
H5 H 0.66640 0.78970 0.01550
C8 C 0.6204(6) 1.0018(6) 0.1081(5)
H6 H 0.55050 1.06930 0.05110
C9 C 0.6798(6) 1.0393(5) 0.2300(6)
H7 H 0.65650 1.13580 0.26670
C10 C 0.7812(6) 0.9029(6) 0.2862(5)
H8 H 0.83510 0.89400 0.36710
C11 C 0.3018(5) 0.5337(5) 0.2760(5)
N1 N 0.3296(4) 0.3776(4) 0.2929(4)
C12 C 0.2358(5) 0.3226(5) 0.1934(5)
H9 H 0.30980 0.25590 0.12810
C13 C 0.0753(6) 0.2185(6) 0.3005(7)
H10 H 0.01440 0.18280 0.23600
H11 H 0.10760 0.12050 0.37210
H12 H 0.00250 0.28650 0.36120
C14 C 0.1931(6) 0.4893(6) 0.0874(6)
H13 H 0.27230 0.51530 -0.01850
H14 H 0.07650 0.48460 0.07800
O1 O 0.2118(4) 0.6133(4) 0.1700(4)
P1 P 0.57221(12) 0.40203(11) 0.51569(11)
C15 C 0.6830(5) 0.4584(5) 0.6513(5)
C16 C 0.8432(5) 0.5436(5) 0.5858(5)
H15 H 0.89560 0.56320 0.47700
C17 C 0.9249(6) 0.5991(6) 0.6810(6)
H16 H 1.03010 0.65880 0.63520
C18 C 0.8515(6) 0.5665(6) 0.8434(6)
H17 H 0.90690 0.60450 0.90680
C19 C 0.6944(6) 0.4767(6) 0.9119(5)
H18 H 0.64520 0.45190 1.02160
C20 C 0.6121(6) 0.4247(5) 0.8154(5)
H19 H 0.50660 0.36550 0.86150
C21 C 0.4159(5) 0.2409(5) 0.6638(5)
C22 C 0.4758(5) 0.0817(5) 0.7301(5)
C23 C 0.3583(6) -0.0381(5) 0.8469(5)
H20 H 0.39680 -0.14330 0.89300
C24 C 0.1860(6) -0.0044(6) 0.8956(6)
H21 H 0.11040 -0.08610 0.97420
C25 C 0.1263(6) 0.1505(6) 0.8277(6)
H22 H 0.01020 0.17310 0.85870
C26 C 0.2417(6) 0.2726(5) 0.7125(6)
H23 H 0.20170 0.37740 0.66720
C27 C 0.6626(6) 0.0401(5) 0.6801(5)
H24 H 0.72810 0.09550 0.72850
H25 H 0.70470 0.07910 0.56590
H26 H 0.67410 -0.08060 0.71420
#END
