
#######################################################################
#
#                 Cambridge Crystallographic Data Centre
#                                CCDC
#
#######################################################################
#
# If this CIF has been generated from an entry in the Cambridge
# Structural Database, then it will include bibliographic, chemical,
# crystal, experimental, refinement or atomic coordinate data resulting
# from the CCDC's data processing and validation procedures.
#
#######################################################################

data_CSD_CIF_OJIPOM
_audit_creation_date 2003-12-12
_audit_creation_method CSD-ConQuest-V1
_database_code_CSD OJIPOM
_database_code_depnum_ccdc_archive 'CCDC 202845'
_chemical_formula_sum 'C16 H26 Cl2 Fe1 N2 Si2 Sn1'
_chemical_formula_moiety
;
C16 H26 Cl2 Fe1 N2 Si2 Sn1
;
_journal_coden_Cambridge 29
_journal_volume 629
_journal_year 2003
_journal_page_first 1169
_journal_name_full 'Z.Anorg.Allg.Chem. '
loop_
_publ_author_name
"B.Wrackmeyer"
"W.Milius"
"H.E.Maisel"
"H.Vollrath"
"M.Herberhold"
_chemical_name_systematic
;
2,2-Dichloro-1,3-bis(trimethylsilyl)-1,3,2-diazastanna-(3)ferrocenophane
;
_chemical_melting_point 394.15
_cell_volume   2160.850
_exptl_crystal_colour 'orange'
_exptl_crystal_density_diffrn 1.684
_exptl_crystal_description 'plate'
_diffrn_ambient_temperature 296
#These two values have been output from a single CSD field.
_refine_ls_R_factor_gt 0.0224
_refine_ls_wR_factor_gt 0.0224
_symmetry_cell_setting monoclinic
_symmetry_space_group_name_H-M 'C 2/c'
_symmetry_Int_Tables_number 15
loop_
_symmetry_equiv_pos_site_id
_symmetry_equiv_pos_as_xyz
1 x,y,z
2 1/2+x,1/2+y,z
3 x,-y,1/2+z
4 1/2+x,1/2-y,1/2+z
5 -x,-y,-z
6 -1/2-x,-1/2-y,-z
7 -x,y,-1/2-z
8 -1/2-x,-1/2+y,-1/2-z
_cell_length_a 19.277(2)
_cell_length_b 9.7058(8)
_cell_length_c 11.8170(11)
_cell_angle_alpha 90
_cell_angle_beta 102.220(7)
_cell_angle_gamma 90
_cell_formula_units_Z 4
loop_
_atom_type_symbol
_atom_type_radius_bond
C 0.68
H 0.23
Cl 0.99
Fe 1.34
N 0.68
Si 1.20
Sn 1.46
loop_
_atom_site_label
_atom_site_type_symbol
_atom_site_fract_x
_atom_site_fract_y
_atom_site_fract_z
Sn1 Sn 0.50000 0.44804(2) 0.25000
Fe1 Fe 0.50000 0.06875(5) 0.25000
Cl1 Cl 0.54043(4) 0.60434(8) 0.39936(7)
Si1 Si 0.33302(4) 0.41253(8) 0.27793(7)
N1 N 0.41602(11) 0.3407(2) 0.2740(2)
C1 C 0.41865(14) 0.1936(3) 0.2680(3)
C2 C 0.39864(16) 0.1113(3) 0.1669(3)
H1 H 0.38350 0.14510 0.08740
C3 C 0.40486(19) -0.0297(3) 0.2022(4)
H2 H 0.39520 -0.10970 0.15070
C4 C 0.4281(2) -0.0342(3) 0.3230(4)
H3 H 0.43750 -0.11780 0.37030
C5 C 0.43642(17) 0.1030(3) 0.3647(3)
H4 H 0.45240 0.13070 0.44580
C6 C 0.34717(18) 0.5929(3) 0.3303(3)
H5 H 0.37750 0.59340 0.40600
H6 H 0.30230 0.63370 0.33390
H7 H 0.36900 0.64480 0.27800
C7 C 0.27439(17) 0.4092(4) 0.1316(3)
H8 H 0.26720 0.31560 0.10560
H9 H 0.29620 0.46020 0.07880
H10 H 0.22950 0.45010 0.13470
C8 C 0.29297(17) 0.3082(4) 0.3796(3)
H11 H 0.28580 0.21560 0.35120
H12 H 0.24820 0.34760 0.38560
H13 H 0.32430 0.30770 0.45450
Cl1F Cl 0.45957(4) 0.60434(8) 0.10064(7)
C1F C 0.58135(14) 0.1936(3) 0.2320(3)
N1F N 0.58398(11) 0.3407(2) 0.2260(2)
Si1F Si 0.66698(4) 0.41253(8) 0.22207(7)
C6F C 0.65283(18) 0.5929(3) 0.1697(3)
H5F H 0.62250 0.59340 0.09400
H6F H 0.69770 0.63370 0.16610
H7F H 0.63100 0.64480 0.22200
C7F C 0.72561(17) 0.4092(4) 0.3684(3)
H8F H 0.73280 0.31560 0.39440
H9F H 0.70380 0.46020 0.42120
H10F H 0.77050 0.45010 0.36530
C8F C 0.70703(17) 0.3082(4) 0.1204(3)
H11F H 0.71420 0.21560 0.14880
H12F H 0.75180 0.34760 0.11440
H13F H 0.67570 0.30770 0.04550
C2F C 0.60136(16) 0.1113(3) 0.3331(3)
C3F C 0.59514(19) -0.0297(3) 0.2978(4)
H1F H 0.61650 0.14510 0.41260
H2F H 0.60480 -0.10970 0.34930
C4F C 0.5719(2) -0.0342(3) 0.1770(4)
C5F C 0.56358(17) 0.1030(3) 0.1353(3)
H3F H 0.56250 -0.11780 0.12970
H4F H 0.54760 0.13070 0.05420
#END
