
#######################################################################
#
#                 Cambridge Crystallographic Data Centre
#                                CCDC
#
#######################################################################
#
# If this CIF has been generated from an entry in the Cambridge
# Structural Database, then it will include bibliographic, chemical,
# crystal, experimental, refinement or atomic coordinate data resulting
# from the CCDC's data processing and validation procedures.
#
#######################################################################

data_CSD_CIF_OKIHIB
_audit_creation_date 2016-04-09
_audit_creation_method CSD-ConQuest-V1
_database_code_CSD OKIHIB
_database_code_depnum_ccdc_archive 'CCDC 1472331'
_chemical_formula_sum 'C26 H24 Mn1 N6 O12'
_chemical_formula_moiety
;
C26 H24 Mn1 N6 O12
;
_journal_coeditor_code "is5449"
_journal_coden_Cambridge 1828
_journal_volume 72
_journal_year 2016
_journal_page_first 656
_journal_name_full 'Acta Crystallogr.,Sect.E:Cryst.Commun. '
loop_
_publ_author_name
"G.S.Askin"
"H.Necefoglu"
"A.M.Tonbul"
"N.Dilek"
"T.Hokelek"
_chemical_name_systematic
;
diaqua-bis(nicotinamide)-bis(4-nitrobenzoato)-manganese(ii)
;
_cell_volume    721.449
_exptl_crystal_colour 'colorless'
_exptl_crystal_density_diffrn 1.536
_exptl_crystal_description 'prism'
_diffrn_ambient_temperature 296
#These two values have been output from a single CSD field.
_refine_ls_R_factor_gt 0.0582
_refine_ls_wR_factor_gt 0.0582
_symmetry_cell_setting triclinic
_symmetry_space_group_name_H-M 'P -1'
_symmetry_Int_Tables_number 2
loop_
_symmetry_equiv_pos_site_id
_symmetry_equiv_pos_as_xyz
1 x,y,z
2 -x,-y,-z
_cell_length_a 7.6051(3)
_cell_length_b 10.0027(4)
_cell_length_c 10.2152(4)
_cell_angle_alpha 78.067(3)
_cell_angle_beta 88.430(4)
_cell_angle_gamma 71.746(3)
_cell_formula_units_Z 1
loop_
_atom_type_symbol
_atom_type_radius_bond
C 0.68
H 0.23
Mn 1.61
N 0.68
O 0.68
loop_
_atom_site_label
_atom_site_type_symbol
_atom_site_fract_x
_atom_site_fract_y
_atom_site_fract_z
Mn1 Mn 0.00000 0.00000 0.00000
O1 O -0.1121(4) 0.1452(4) 0.2673(3)
O2 O 0.1322(3) 0.0165(3) 0.1728(2)
O3 O 0.4619(6) 0.2860(8) 0.6872(5)
O4 O 0.6545(6) 0.2824(7) 0.5355(5)
O5 O 0.4269(4) 0.3417(3) -0.0003(3)
O6 O 0.2722(3) -0.0746(3) -0.0769(3)
H1 H 0.227(7) -0.084(6) -0.154(3)
H2 H 0.377(4) -0.135(4) -0.034(5)
N1 N 0.5113(5) 0.2645(5) 0.5801(4)
N2 N -0.0042(4) 0.2124(3) -0.0942(3)
N3 N 0.3202(5) 0.5611(4) -0.1340(4)
H3 H 0.424(5) 0.579(6) -0.113(6)
H4 H 0.227(6) 0.623(5) -0.189(5)
C1 C 0.0585(4) 0.0898(3) 0.2563(3)
C2 C 0.1853(4) 0.1239(3) 0.3472(3)
C3 C 0.1181(5) 0.1682(5) 0.4643(4)
H5 H -0.00020 0.16850 0.49020
C4 C 0.2265(5) 0.2118(5) 0.5428(4)
H6 H 0.18350 0.24020 0.62200
C5 C 0.3994(5) 0.2121(4) 0.5000(4)
C6 C 0.4712(5) 0.1680(4) 0.3862(3)
H7 H 0.58880 0.16960 0.36010
C7 C 0.3619(5) 0.1205(4) 0.3104(3)
H8 H 0.40880 0.08630 0.23440
C8 C 0.1370(4) 0.2581(3) -0.0689(3)
H9 H 0.23430 0.19490 -0.01190
C9 C 0.1454(4) 0.3939(3) -0.1231(3)
C10 C -0.0002(6) 0.4870(4) -0.2088(4)
H10 H 0.00030 0.57960 -0.24750
C11 C -0.1449(6) 0.4407(4) -0.2358(5)
H11 H -0.24330 0.50150 -0.29320
C12 C -0.1424(5) 0.3030(4) -0.1765(4)
H12 H -0.24090 0.27240 -0.19480
C13 C 0.3087(5) 0.4309(3) -0.0821(4)
O1A O 0.1121(4) -0.1452(4) -0.2673(3)
O2A O -0.1322(3) -0.0165(3) -0.1728(2)
O3A O -0.4619(6) -0.2860(8) -0.6872(5)
O4A O -0.6545(6) -0.2824(7) -0.5355(5)
O5A O -0.4269(4) -0.3417(3) 0.0003(3)
O6A O -0.2722(3) 0.0746(3) 0.0769(3)
H1A H -0.227(7) 0.084(6) 0.154(3)
H2A H -0.377(4) 0.135(4) 0.034(5)
N1A N -0.5113(5) -0.2645(5) -0.5801(4)
N2A N 0.0042(4) -0.2124(3) 0.0942(3)
N3A N -0.3202(5) -0.5611(4) 0.1340(4)
H3A H -0.424(5) -0.579(6) 0.113(6)
H4A H -0.227(6) -0.623(5) 0.189(5)
C1A C -0.0585(4) -0.0898(3) -0.2563(3)
C2A C -0.1853(4) -0.1239(3) -0.3472(3)
C3A C -0.1181(5) -0.1682(5) -0.4643(4)
H5A H 0.00020 -0.16850 -0.49020
C4A C -0.2265(5) -0.2118(5) -0.5428(4)
H6A H -0.18350 -0.24020 -0.62200
C5A C -0.3994(5) -0.2121(4) -0.5000(4)
C6A C -0.4712(5) -0.1680(4) -0.3862(3)
H7A H -0.58880 -0.16960 -0.36010
C7A C -0.3619(5) -0.1205(4) -0.3104(3)
H8A H -0.40880 -0.08630 -0.23440
C8A C -0.1370(4) -0.2581(3) 0.0689(3)
H9A H -0.23430 -0.19490 0.01190
C9A C -0.1454(4) -0.3939(3) 0.1231(3)
C10A C 0.0002(6) -0.4870(4) 0.2088(4)
H10A H -0.00030 -0.57960 0.24750
C11A C 0.1449(6) -0.4407(4) 0.2358(5)
H11A H 0.24330 -0.50150 0.29320
C12A C 0.1424(5) -0.3030(4) 0.1765(4)
H12A H 0.24090 -0.27240 0.19480
C13A C -0.3087(5) -0.4309(3) 0.0821(4)
#END
