
#######################################################################
#
#                 Cambridge Crystallographic Data Centre
#                                CCDC
#
#######################################################################
#
# If this CIF has been generated from an entry in the Cambridge
# Structural Database, then it will include bibliographic, chemical,
# crystal, experimental, refinement or atomic coordinate data resulting
# from the CCDC's data processing and validation procedures.
#
#######################################################################

data_CSD_CIF_OPOMAJ
_audit_creation_date 2016-06-16
_audit_creation_method CSD-ConQuest-V1
_database_code_CSD OPOMAJ
_database_code_depnum_ccdc_archive 'CCDC 1403899'
_chemical_formula_sum 'C6 H14 Mn1 N8 O8'
_chemical_formula_moiety
;
C6 H10 Mn1 N8 O6,2(H2 O1)
;
_journal_coden_Cambridge 1268
_journal_volume 20
_journal_year 2015
_journal_page_first 12341
_journal_name_full 'Molecules '
loop_
_publ_author_name
"Bing Liu"
"J.A.Fernandes"
"J.P.C.Tome"
"F.A.A.Paz"
"L.Cunha-Silva"
_chemical_name_systematic
;
bis(5-amino-1H-1,2,4-triazole-3-carboxylato)-diaqua-manganese(ii) dihydrate
;
_cell_volume    333.931
_exptl_crystal_colour 'colorless'
_exptl_crystal_density_diffrn 1.896
_exptl_crystal_description 'Block'
_diffrn_ambient_temperature 150
_refine_special_details
;
H11A and H12A disordered over two sites with occupancies 0.75:0.25.

;
#These two values have been output from a single CSD field.
_refine_ls_R_factor_gt 0.0514
_refine_ls_wR_factor_gt 0.0514
_symmetry_cell_setting triclinic
_symmetry_space_group_name_H-M 'P -1'
_symmetry_Int_Tables_number 2
loop_
_symmetry_equiv_pos_site_id
_symmetry_equiv_pos_as_xyz
1 x,y,z
2 -x,-y,-z
_cell_length_a 5.2482(9)
_cell_length_b 6.5330(11)
_cell_length_c 10.6128(18)
_cell_angle_alpha 90.532(10)
_cell_angle_beta 102.774(11)
_cell_angle_gamma 109.139(10)
_cell_formula_units_Z 1
loop_
_atom_type_symbol
_atom_type_radius_bond
C 0.68
H 0.23
Mn 1.61
N 0.68
O 0.68
loop_
_atom_site_label
_atom_site_type_symbol
_atom_site_fract_x
_atom_site_fract_y
_atom_site_fract_z
Mn1 Mn 0.50000 0.50000 0.50000
N1 N 0.0251(5) 0.2462(4) 0.0981(2)
H1 H -0.106(9) 0.217(7) 0.022(4)
N2 N 0.1988(5) 0.1277(4) 0.1338(2)
C1 C 0.3279(6) 0.2114(5) 0.2532(3)
N3 N 0.2506(5) 0.3740(4) 0.2978(2)
C2 C 0.0565(6) 0.3904(5) 0.1968(3)
N4 N -0.0826(6) 0.5312(5) 0.1900(3)
H2 H -0.095(7) 0.589(6) 0.263(4)
H3 H -0.216(8) 0.509(6) 0.128(4)
C3 C 0.5488(6) 0.1425(5) 0.3370(3)
O1 O 0.6487(4) 0.2410(3) 0.45041(19)
O2 O 0.6236(4) -0.0004(3) 0.2932(2)
O3 O 0.8334(4) 0.7265(3) 0.4234(2)
H4 H 1.019(3) 0.772(4) 0.471(3)
H5 H 0.792(5) 0.846(3) 0.387(3)
H6? H 0.18(3) 0.005(11) 0.093(11)
O4 O 0.4732(5) 0.7414(4) 0.0638(2)
H7 H 0.596(6) 0.828(5) 0.018(3)
H8 H 0.516(8) 0.824(6) 0.129(4)
N1A N 0.9749(5) 0.7538(4) 0.9019(2)
H1A H 1.106(9) 0.783(7) 0.978(4)
N2A N 0.8012(5) 0.8723(4) 0.8662(2)
C1A C 0.6721(6) 0.7886(5) 0.7468(3)
N3A N 0.7494(5) 0.6260(4) 0.7022(2)
C2A C 0.9435(6) 0.6096(5) 0.8032(3)
N4A N 1.0826(6) 0.4688(5) 0.8100(3)
H2A H 1.095(7) 0.411(6) 0.737(4)
H3A H 1.216(8) 0.491(6) 0.872(4)
C3A C 0.4512(6) 0.8575(5) 0.6630(3)
O1A O 0.3513(4) 0.7590(3) 0.54959(19)
O2A O 0.3764(4) 1.0004(3) 0.7068(2)
O3A O 0.1666(4) 0.2735(3) 0.5766(2)
H4A H -0.019(3) 0.228(4) 0.529(3)
H5A H 0.208(5) 0.154(3) 0.613(3)
#END
