
#######################################################################
#
#                 Cambridge Crystallographic Data Centre
#                                CCDC
#
#######################################################################
#
# If this CIF has been generated from an entry in the Cambridge
# Structural Database, then it will include bibliographic, chemical,
# crystal, experimental, refinement or atomic coordinate data resulting
# from the CCDC's data processing and validation procedures.
#
#######################################################################

data_CSD_CIF_OQUDAG
_audit_creation_date 2011-06-16
_audit_creation_method CSD-ConQuest-V1
_database_code_CSD OQUDAG
_database_code_depnum_ccdc_archive 'CCDC 749833'
_chemical_formula_sum 'C6 H5 Cl3 Mn1 N1 O2 Sn1'
_chemical_formula_moiety
;
C6 H5 Cl3 Mn1 N1 O2 Sn1
;
_journal_coden_Cambridge 367
_journal_volume 36
_journal_year 2010
_journal_page_first 284
_journal_name_full 'Koord.Khim.(Russ.)(Coord.Chem.) '
loop_
_publ_author_name
"A.I.Blokhin"
"A.A.Pasynsky"
"Yu.V.Torubaev"
"M.Sheer"
_chemical_name_systematic
;
Nitrosyl-carbonyl-(\h^5^-cyclopentadienyl)-trichloro-tin(iv)-manganese
;
_cell_volume    560.414
_exptl_crystal_colour 'dark red'
_exptl_crystal_density_diffrn 2.389
_exptl_crystal_description 'plate'
_diffrn_ambient_temperature 295
#These two values have been output from a single CSD field.
_refine_ls_R_factor_gt 0.0269
_refine_ls_wR_factor_gt 0.0269
_symmetry_cell_setting triclinic
_symmetry_space_group_name_H-M 'P -1'
_symmetry_Int_Tables_number 2
loop_
_symmetry_equiv_pos_site_id
_symmetry_equiv_pos_as_xyz
1 x,y,z
2 -x,-y,-z
_cell_length_a 6.4698(4)
_cell_length_b 8.3427(5)
_cell_length_c 10.8692(7)
_cell_angle_alpha 83.6815(12)
_cell_angle_beta 84.7057(12)
_cell_angle_gamma 74.3967(11)
_cell_formula_units_Z 2
loop_
_atom_type_symbol
_atom_type_radius_bond
C 0.68
H 0.23
Cl 0.99
Mn 1.41
N 0.68
O 0.68
Sn 1.39
loop_
_atom_site_label
_atom_site_type_symbol
_atom_site_fract_x
_atom_site_fract_y
_atom_site_fract_z
Sn1 Sn 0.07388(3) 0.47918(2) 0.751407(19)
Mn1 Mn 0.27863(8) 0.17602(5) 0.77693(4)
Cl1 Cl -0.30414(13) 0.53204(10) 0.74915(8)
Cl2 Cl 0.13517(14) 0.65455(10) 0.57128(7)
Cl3 Cl 0.09265(13) 0.66561(9) 0.89612(7)
N1 N 0.0478(4) 0.1244(3) 0.8457(3)
O1 O -0.1042(4) 0.0861(3) 0.8870(2)
O2 O 0.4578(4) 0.2197(3) 1.0023(2)
C1 C 0.3854(4) 0.2066(3) 0.9129(3)
C2 C 0.2728(6) 0.0752(4) 0.6042(3)
C3 C 0.3878(5) -0.0522(4) 0.6902(3)
C4 C 0.5673(5) -0.0022(4) 0.7214(3)
C5 C 0.5624(6) 0.1558(4) 0.6552(3)
C6 C 0.3822(6) 0.2020(4) 0.5820(3)
H1 H 0.346(6) -0.151(4) 0.722(3)
H2 H 0.337(7) 0.296(5) 0.527(4)
H3 H 0.135(7) 0.073(5) 0.569(4)
H4 H 0.671(6) -0.064(5) 0.784(3)
H5 H 0.664(6) 0.216(5) 0.661(3)
#END
