
#######################################################################
#
#                 Cambridge Crystallographic Data Centre
#                                CCDC
#
#######################################################################
#
# If this CIF has been generated from an entry in the Cambridge
# Structural Database, then it will include bibliographic, chemical,
# crystal, experimental, refinement or atomic coordinate data resulting
# from the CCDC's data processing and validation procedures.
#
#######################################################################

data_CSD_CIF_OROWOJ
_audit_creation_date 2016-07-20
_audit_creation_method CSD-ConQuest-V1
_database_code_CSD OROWOJ
_database_code_depnum_ccdc_archive 'CCDC 1426403'
_chemical_formula_sum 'C13 H29 Br2 Fe1 N1 O1 P2'
_chemical_formula_moiety
;
C13 H29 Br2 Fe1 N1 O1 P2
;
_journal_coden_Cambridge 1490
_journal_volume 7
_journal_year 2016
_journal_page_first 12075
_journal_name_full 'Nat.Commun. '
loop_
_publ_author_name
"Kaiwu Dong"
"S.Elangovan"
"Rui Sang"
"A.Spannenberg"
"R.Jackstell"
"Kathrin Junge"
"Yuehui Li"
"M.Beller"
_chemical_name_systematic
;
dibromo-carbonyl-(2-(diethylphosphino)-N-(2-(diethylphosphino)ethyl)ethanamine
)-iron
;
_cell_volume    969.373
_exptl_crystal_colour 'blue'
_exptl_crystal_density_diffrn 1.689
_exptl_special_details
;
triclinic P-1 polymorph

;
_exptl_crystal_description 'prism'
_diffrn_ambient_temperature 150
#These two values have been output from a single CSD field.
_refine_ls_R_factor_gt 0.0158
_refine_ls_wR_factor_gt 0.0158
_symmetry_cell_setting triclinic
_symmetry_space_group_name_H-M 'P -1'
_symmetry_Int_Tables_number 2
loop_
_symmetry_equiv_pos_site_id
_symmetry_equiv_pos_as_xyz
1 x,y,z
2 -x,-y,-z
_cell_length_a 9.0871(4)
_cell_length_b 10.6078(5)
_cell_length_c 11.4672(5)
_cell_angle_alpha 102.8749(10)
_cell_angle_beta 101.3372(10)
_cell_angle_gamma 109.6577(10)
_cell_formula_units_Z 2
loop_
_atom_type_symbol
_atom_type_radius_bond
C 0.68
H 0.23
Br 1.21
Fe 1.52
N 0.68
O 0.68
P 1.05
loop_
_atom_site_label
_atom_site_type_symbol
_atom_site_fract_x
_atom_site_fract_y
_atom_site_fract_z
Br1 Br 0.35706(2) 0.12998(2) 0.01472(2)
Br2 Br 0.46432(2) 0.20310(2) 0.46822(2)
C1 C 0.54507(16) -0.04936(13) 0.27638(13)
H1 H 0.55810 -0.02290 0.36740
H2 H 0.62360 -0.09220 0.26050
C2 C 0.37204(16) -0.15415(14) 0.20484(13)
H3 H 0.33860 -0.22870 0.24470
H4 H 0.36610 -0.19930 0.11760
C3 C 0.75103(15) 0.17846(14) 0.29455(14)
H5 H 0.82500 0.13320 0.27190
H6 H 0.77490 0.20720 0.38680
C4 C 0.77927(16) 0.30694(14) 0.25013(14)
H7 H 0.77160 0.28130 0.16000
H8 H 0.88930 0.38100 0.29760
C5 C 0.13013(17) -0.10807(14) 0.31985(13)
H9 H 0.07820 -0.21200 0.29700
H10 H 0.21170 -0.07210 0.40340
C6 C -0.00002(19) -0.04856(17) 0.32679(16)
H11 H 0.05180 0.05460 0.35450
H12 H -0.05580 -0.07980 0.38650
H13 H -0.07970 -0.08220 0.24390
C7 C 0.07394(17) -0.15743(14) 0.05594(13)
H14 H -0.00860 -0.11560 0.05150
H15 H 0.12290 -0.14420 -0.01260
C8 C -0.0131(2) -0.31506(16) 0.03324(17)
H16 H 0.06810 -0.35590 0.04790
H17 H -0.08400 -0.36050 -0.05340
H18 H -0.07950 -0.33010 0.09070
C9 C 0.71175(16) 0.50013(14) 0.43327(13)
H19 H 0.62810 0.53310 0.45540
H20 H 0.73980 0.45200 0.49360
C10 C 0.86438(19) 0.62877(15) 0.45022(15)
H21 H 0.94680 0.59800 0.42480
H22 H 0.90850 0.68700 0.53840
H23 H 0.83590 0.68400 0.39830
C11 C 0.61938(18) 0.48002(14) 0.17385(13)
H24 H 0.73220 0.55000 0.19200
H25 H 0.58470 0.41930 0.08590
C12 C 0.5071(2) 0.55757(17) 0.18756(16)
H26 H 0.39320 0.48920 0.15920
H27 H 0.52080 0.62130 0.13670
H28 H 0.53490 0.61220 0.27560
C13 C 0.25935(16) 0.23724(13) 0.24607(12)
Fe1 Fe 0.40661(2) 0.16567(2) 0.24192(2)
N1 N 0.57857(13) 0.07760(11) 0.23481(10)
O1 O 0.16238(13) 0.28362(12) 0.2497(1)
P1 P 0.23442(4) -0.06051(3) 0.20533(3)
P2 P 0.62074(4) 0.37101(3) 0.27678(3)
H29 H 0.5658(18) 0.0498(16) 0.1546(15)
#END
