
#######################################################################
#
#                 Cambridge Crystallographic Data Centre
#                                CCDC
#
#######################################################################
#
# If this CIF has been generated from an entry in the Cambridge
# Structural Database, then it will include bibliographic, chemical,
# crystal, experimental, refinement or atomic coordinate data resulting
# from the CCDC's data processing and validation procedures.
#
#######################################################################

data_CSD_CIF_OVAZER
_audit_creation_date 2011-09-07
_audit_creation_method CSD-ConQuest-V1
_database_code_CSD OVAZER
_database_code_depnum_ccdc_archive 'CCDC 800573'
_chemical_formula_sum 'C14 H20 Co1 N10 O8'
_chemical_formula_moiety
;
C14 H20 Co1 N10 O8
;
_journal_coden_Cambridge 1147
_journal_volume 11
_journal_year 2011
_journal_page_first 1623
_journal_name_full 'Cryst.Growth Des. '
loop_
_publ_author_name
"A.K.Mishra"
"J.Kumar"
"S.Khanna"
"S.Verma"
_chemical_name_systematic
;
bis((6-amino-9H-purin-9-yl)acetato)-tetra-aqua-cobalt(ii)
;
_cell_volume    483.366
_exptl_crystal_colour 'pink'
_exptl_crystal_density_diffrn 1.77
_exptl_crystal_description 'cuboids'
_diffrn_ambient_temperature 100
#These two values have been output from a single CSD field.
_refine_ls_R_factor_gt 0.0634
_refine_ls_wR_factor_gt 0.0634
_symmetry_cell_setting triclinic
_symmetry_space_group_name_H-M 'P -1'
_symmetry_Int_Tables_number 2
loop_
_symmetry_equiv_pos_site_id
_symmetry_equiv_pos_as_xyz
1 x,y,z
2 -x,-y,-z
_cell_length_a 7.010(5)
_cell_length_b 7.988(4)
_cell_length_c 9.281(5)
_cell_angle_alpha 86.344(5)
_cell_angle_beta 83.185(5)
_cell_angle_gamma 69.550(3)
_cell_formula_units_Z 1
loop_
_atom_type_symbol
_atom_type_radius_bond
C 0.68
H 0.23
Co 1.26
N 0.68
O 0.68
loop_
_atom_site_label
_atom_site_type_symbol
_atom_site_fract_x
_atom_site_fract_y
_atom_site_fract_z
C1 C 0.3169(8) -0.2626(7) 0.4556(5)
H1 H 0.34890 -0.38530 0.43620
C2 C 0.2195(7) 0.0225(7) 0.3813(5)
C3 C 0.2290(8) 0.0801(7) 0.5173(5)
C4 C 0.2911(8) -0.0552(7) 0.6272(5)
C5 C 0.1297(9) 0.3129(7) 0.3840(6)
H2 H 0.08390 0.43420 0.35110
C6 C 0.1103(8) 0.1831(7) 0.1459(6)
H3 H -0.03920 0.24320 0.14420
H4 H 0.14560 0.06000 0.11180
C7 C 0.2188(8) 0.2809(6) 0.0401(5)
N1 N 0.3308(7) -0.2254(6) 0.5915(5)
N2 N 0.2634(7) -0.1481(6) 0.3435(5)
N3 N 0.3093(7) -0.0187(6) 0.7621(5)
H5 H 0.34700 -0.10590 0.82710
H6 H 0.28350 0.09240 0.78610
N4 N 0.1714(7) 0.2642(6) 0.5179(5)
N5 N 0.1584(7) 0.1730(6) 0.2962(5)
O1 O 0.3675(6) 0.3115(5) 0.0800(4)
O2 O 0.1498(6) 0.3197(5) -0.0823(4)
O3 O 0.2367(6) 0.7079(5) 0.0827(4)
O4 O 0.3838(6) 0.5116(5) -0.1963(4)
Co1 Co 0.50000 0.50000 0.00000
H7 H 0.239(12) 0.76(1) 0.159(5)
H8 H 0.123(8) 0.693(13) 0.106(9)
H9 H 0.289(9) 0.471(9) -0.209(8)
H10 H 0.367(10) 0.592(7) -0.264(5)
C1A C 0.6831(8) 1.2626(7) -0.4556(5)
H1A H 0.65110 1.38530 -0.43620
C2A C 0.7805(7) 0.9775(7) -0.3813(5)
C3A C 0.7710(8) 0.9199(7) -0.5173(5)
C4A C 0.7089(8) 1.0552(7) -0.6272(5)
C5A C 0.8703(9) 0.6871(7) -0.3840(6)
H2A H 0.91610 0.56580 -0.35110
C6A C 0.8897(8) 0.8169(7) -0.1459(6)
H3A H 1.03920 0.75680 -0.14420
H4A H 0.85440 0.94000 -0.11180
C7A C 0.7812(8) 0.7191(6) -0.0401(5)
N1A N 0.6692(7) 1.2254(6) -0.5915(5)
N2A N 0.7366(7) 1.1481(6) -0.3435(5)
N3A N 0.6907(7) 1.0187(6) -0.7621(5)
H5A H 0.65300 1.10590 -0.82710
H6A H 0.71650 0.90760 -0.78610
N4A N 0.8286(7) 0.7358(6) -0.5179(5)
N5A N 0.8416(7) 0.8270(6) -0.2962(5)
O1A O 0.6325(6) 0.6885(5) -0.0800(4)
O2A O 0.8502(6) 0.6803(5) 0.0823(4)
O3A O 0.7633(6) 0.2921(5) -0.0827(4)
O4A O 0.6162(6) 0.4884(5) 0.1963(4)
H7A H 0.761(12) 0.24(1) -0.159(5)
H8A H 0.877(8) 0.307(13) -0.106(9)
H9A H 0.711(9) 0.529(9) 0.209(8)
H10A H 0.633(10) 0.408(7) 0.264(5)
#END
