
#######################################################################
#
#                 Cambridge Crystallographic Data Centre
#                                CCDC
#
#######################################################################
#
# If this CIF has been generated from an entry in the Cambridge
# Structural Database, then it will include bibliographic, chemical,
# crystal, experimental, refinement or atomic coordinate data resulting
# from the CCDC's data processing and validation procedures.
#
#######################################################################

data_CSD_CIF_OXEPOX
_audit_creation_date 2011-11-07
_audit_creation_method CSD-ConQuest-V1
_database_code_CSD OXEPOX
_database_code_depnum_ccdc_archive 'CCDC 791972'
_chemical_formula_sum 'C19 H22 Fe1 O3'
_chemical_formula_moiety
;
C19 H22 Fe1 O3
;
_journal_coden_Cambridge 1290
_journal_year 2011
_journal_page_first 3295
_journal_name_full 'Eur.J.Inorg.Chem. '
loop_
_publ_author_name
"M.Patra"
"G.Gasser"
"M.Wenzel"
"K.Merz"
"J.E.Bandow"
"N.Metzler-Nolte"
_chemical_name_systematic
;
rac-(\h^5^-cyclopentadienyl)-(\h^5^-4-oxo-5-methyl-5-((2-methoxycarbonyl)ethyl
)-4,5,6,7-tetrahydro-1H-indenyl)-iron
;
_cell_volume    832.261
_exptl_crystal_density_diffrn 1.413
_diffrn_ambient_temperature 223
#These two values have been output from a single CSD field.
_refine_ls_R_factor_gt 0.0572
_refine_ls_wR_factor_gt 0.0572
_symmetry_cell_setting triclinic
_symmetry_space_group_name_H-M 'P -1'
_symmetry_Int_Tables_number 2
loop_
_symmetry_equiv_pos_site_id
_symmetry_equiv_pos_as_xyz
1 x,y,z
2 -x,-y,-z
_cell_length_a 6.7528(14)
_cell_length_b 11.632(2)
_cell_length_c 12.018(2)
_cell_angle_alpha 117.25(3)
_cell_angle_beta 96.47(3)
_cell_angle_gamma 90.20(3)
_cell_formula_units_Z 2
loop_
_atom_type_symbol
_atom_type_radius_bond
C 0.68
H 0.23
Fe 1.52
O 0.68
loop_
_atom_site_label
_atom_site_type_symbol
_atom_site_fract_x
_atom_site_fract_y
_atom_site_fract_z
Fe1 Fe 0.19036(8) -0.22894(5) 0.62530(5)
O1 O -0.1646(4) 0.0064(3) 0.8312(3)
O2 O -0.1210(5) 0.4659(3) 0.8277(3)
O3 O -0.4171(5) 0.3961(3) 0.8474(4)
C1 C -0.2175(6) 0.3950(4) 0.8515(4)
C2 C 0.0654(6) 0.2499(4) 0.8467(4)
C3 C 0.4226(7) -0.3474(4) 0.6075(5)
C4 C 0.2879(7) -0.2333(5) 0.7918(4)
C5 C 0.0213(7) -0.2458(5) 0.4649(4)
C6 C 0.1527(7) -0.3429(4) 0.7113(4)
C7 C 0.1510(7) 0.1707(5) 1.0093(4)
C8 C 0.2090(6) -0.0591(4) 0.6120(4)
C9 C 0.0279(6) -0.0696(4) 0.6615(4)
C10 C -0.0131(6) 0.0200(4) 0.7897(4)
C11 C 0.3516(6) 0.1052(5) 0.8283(4)
C12 C 0.2039(7) -0.1686(5) 0.4901(4)
C13 C 0.1406(6) 0.1358(4) 0.8700(4)
C14 C -0.5174(9) 0.4869(6) 0.8137(7)
H1 H -0.65990 0.47730 0.81450
H2 H -0.49200 0.47000 0.72990
H3 H -0.46800 0.57440 0.87400
C15 C 0.3616(7) 0.0519(4) 0.6862(4)
C16 C -0.0856(7) -0.1856(4) 0.5702(4)
C17 C -0.1358(7) 0.2976(5) 0.8912(5)
C18 C 0.4528(7) -0.2356(4) 0.7278(4)
C19 C 0.2372(6) -0.4144(4) 0.5962(5)
H4 H 0.392(7) 0.046(5) 0.844(4)
H5 H 0.486(7) 0.024(5) 0.668(4)
H6 H 0.559(7) -0.182(4) 0.756(4)
H7 H 0.066(6) 0.230(4) 0.771(4)
H8 H -0.014(7) -0.339(5) 0.384(4)
H9 H 0.510(7) -0.373(5) 0.545(5)
H10 H 0.426(7) 0.191(5) 0.876(4)
H11 H 0.170(7) -0.502(5) 0.514(5)
H12 H 0.167(8) 0.323(6) 0.895(5)
H13 H 0.318(7) -0.184(5) 0.434(4)
H14 H 0.248(8) 0.251(6) 1.067(5)
H15 H 0.019(7) 0.174(4) 1.035(4)
H16 H -0.208(8) -0.213(5) 0.582(5)
H17 H 0.343(6) 0.125(4) 0.665(4)
H18 H 0.265(7) -0.182(5) 0.859(5)
H19 H 0.192(7) 0.107(5) 1.021(4)
H20 H 0.033(7) -0.360(4) 0.739(4)
H21 H -0.241(8) 0.235(5) 0.868(5)
H22 H -0.120(8) 0.352(5) 0.996(5)
#END
