
#######################################################################
#
#                 Cambridge Crystallographic Data Centre
#                                CCDC
#
#######################################################################
#
# If this CIF has been generated from an entry in the Cambridge
# Structural Database, then it will include bibliographic, chemical,
# crystal, experimental, refinement or atomic coordinate data resulting
# from the CCDC's data processing and validation procedures.
#
#######################################################################

data_CSD_CIF_OXIXAW
_audit_creation_date 2016-10-18
_audit_creation_method CSD-ConQuest-V1
_database_code_CSD OXIXAW
_database_code_depnum_ccdc_archive 'CCDC 893304'
_chemical_formula_sum 'C42 H60 Co1 N2 O4'
_chemical_formula_moiety
;
C38 H48 Co1 N2 O2,2(C2 H6 O1)
;
_journal_coden_Cambridge 367
_journal_volume 42
_journal_year 2016
_journal_page_first 539
_journal_name_full 'Koord.Khim.(Russ.)(Coord.Chem.) '
loop_
_publ_author_name
"X.D.Jin"
"G.C.Han"
"H.M.Liang"
"L.Kou"
"J.Tong"
"K.J.Ren"
"X.B.Zhao"
_chemical_name_systematic
;
bis(2-(((1-(adamantan-1-yl)ethyl)imino)methyl)phenolato)-cobalt(ii) ethanol 
solvate
;
_cell_volume    952.527
_exptl_crystal_colour 'colorless'
_exptl_crystal_density_diffrn 1.248
_exptl_crystal_description 'block'
_diffrn_ambient_temperature 298
#These two values have been output from a single CSD field.
_refine_ls_R_factor_gt 0.0452
_refine_ls_wR_factor_gt 0.0452
_symmetry_cell_setting triclinic
_symmetry_space_group_name_H-M 'P -1'
_symmetry_Int_Tables_number 2
loop_
_symmetry_equiv_pos_site_id
_symmetry_equiv_pos_as_xyz
1 x,y,z
2 -x,-y,-z
_cell_length_a 8.9917(5)
_cell_length_b 10.5130(7)
_cell_length_c 10.7186(5)
_cell_angle_alpha 79.486(5)
_cell_angle_beta 78.782(4)
_cell_angle_gamma 75.477(5)
_cell_formula_units_Z 1
loop_
_atom_type_symbol
_atom_type_radius_bond
C 0.68
H 0.23
Co 1.26
N 0.68
O 0.68
loop_
_atom_site_label
_atom_site_type_symbol
_atom_site_fract_x
_atom_site_fract_y
_atom_site_fract_z
O1 O 0.2338(4) 0.1513(4) 0.3850(4)
H1 H 0.15340 0.20040 0.41450
C1 C 0.2371(7) 0.1549(8) 0.2546(6)
H2 H 0.23080 0.24520 0.21170
H3 H 0.14830 0.12540 0.24110
C2 C 0.3856(7) 0.0661(7) 0.1982(7)
H4 H 0.47330 0.09780 0.20830
H5 H 0.38520 0.06710 0.10850
H6 H 0.39270 -0.02290 0.24200
Co1 Co 0.00000 0.50000 0.50000
O2 O -0.0329(2) 0.34514(19) 0.4505(2)
N1 N -0.1285(2) 0.6125(2) 0.37029(19)
C3 C -0.1711(3) 0.3357(3) 0.4327(2)
C4 C -0.2131(5) 0.2126(4) 0.4619(3)
H7 H -0.14270 0.13770 0.49270
C5 C -0.3566(5) 0.2010(5) 0.4455(4)
H8 H -0.38250 0.11860 0.46640
C6 C -0.4632(5) 0.3101(5) 0.3983(4)
H9 H -0.56030 0.30140 0.38780
C7 C -0.4244(4) 0.4303(4) 0.3674(3)
H10 H -0.49550 0.50330 0.33440
C8 C -0.2796(3) 0.4467(3) 0.3841(2)
C9 C -0.2433(3) 0.5749(3) 0.3443(2)
H11 H -0.30940 0.63700 0.29460
C10 C -0.0921(3) 0.7405(3) 0.3054(2)
H12 H -0.04530 0.77170 0.36590
C11 C -0.2362(4) 0.8490(3) 0.2784(3)
H13 H -0.30920 0.85760 0.35640
H14 H -0.28360 0.82560 0.21550
H15 H -0.20610 0.93180 0.24650
C12 C 0.0362(3) 0.7165(2) 0.1866(2)
C13 C -0.0206(3) 0.6773(3) 0.0764(2)
H16 H -0.05690 0.59590 0.10590
H17 H -0.10720 0.74630 0.04990
C14 C 0.1095(3) 0.6572(3) -0.0378(3)
H18 H 0.07020 0.63290 -0.10720
C15 C 0.1664(4) 0.7843(3) -0.0851(3)
H19 H 0.08170 0.85490 -0.11260
H20 H 0.24870 0.77150 -0.15810
C16 C 0.2272(4) 0.8227(3) 0.0227(3)
H21 H 0.26310 0.90520 -0.00790
C17 C 0.0961(4) 0.8434(3) 0.1370(3)
H22 H 0.13420 0.86880 0.20540
H23 H 0.01140 0.91480 0.11100
C18 C 0.3625(4) 0.7125(3) 0.0633(3)
H24 H 0.44570 0.69960 -0.00900
H25 H 0.40270 0.73670 0.13120
C19 C 0.2444(3) 0.5461(3) 0.0029(3)
H26 H 0.32690 0.53210 -0.06980
H27 H 0.20930 0.46420 0.03250
C20 C 0.3053(3) 0.5850(3) 0.1108(3)
H28 H 0.39160 0.51390 0.13740
C21 C 0.1749(3) 0.6046(3) 0.2245(2)
H29 H 0.21370 0.62690 0.29420
H30 H 0.14020 0.52250 0.25460
O2A O 0.0329(2) 0.65486(19) 0.5495(2)
N1A N 0.1285(2) 0.3875(2) 0.62971(19)
C3A C 0.1711(3) 0.6643(3) 0.5673(2)
C4A C 0.2131(5) 0.7874(4) 0.5381(3)
H7A H 0.14270 0.86230 0.50730
C5A C 0.3566(5) 0.7990(5) 0.5545(4)
H8A H 0.38250 0.88140 0.53360
C6A C 0.4632(5) 0.6899(5) 0.6017(4)
H9A H 0.56030 0.69860 0.61220
C7A C 0.4244(4) 0.5697(4) 0.6326(3)
H10A H 0.49550 0.49670 0.66560
C8A C 0.2796(3) 0.5533(3) 0.6159(2)
C9A C 0.2433(3) 0.4251(3) 0.6557(2)
H11A H 0.30940 0.36300 0.70540
C10A C 0.0921(3) 0.2595(3) 0.6946(2)
H12A H 0.04530 0.22830 0.63410
C11A C 0.2362(4) 0.1510(3) 0.7216(3)
H13A H 0.30920 0.14240 0.64360
H14A H 0.28360 0.17440 0.78450
H15A H 0.20610 0.06820 0.75350
C12A C -0.0362(3) 0.2835(2) 0.8134(2)
C13A C 0.0206(3) 0.3227(3) 0.9236(2)
H16A H 0.05690 0.40410 0.89410
H17A H 0.10720 0.25370 0.95010
C14A C -0.1095(3) 0.3428(3) 1.0378(3)
H18A H -0.07020 0.36710 1.10720
C15A C -0.1664(4) 0.2157(3) 1.0851(3)
H19A H -0.08170 0.14510 1.11260
H20A H -0.24870 0.22850 1.15810
C16A C -0.2272(4) 0.1773(3) 0.9773(3)
H21A H -0.26310 0.09480 1.00790
C17A C -0.0961(4) 0.1566(3) 0.8630(3)
H22A H -0.13420 0.13120 0.79460
H23A H -0.01140 0.08520 0.88900
C18A C -0.3625(4) 0.2875(3) 0.9367(3)
H24A H -0.44570 0.30040 1.00900
H25A H -0.40270 0.26330 0.86880
C19A C -0.2444(3) 0.4539(3) 0.9971(3)
H26A H -0.32690 0.46790 1.06980
H27A H -0.20930 0.53580 0.96750
C20A C -0.3053(3) 0.4150(3) 0.8892(3)
H28A H -0.39160 0.48610 0.86260
C21A C -0.1749(3) 0.3954(3) 0.7755(2)
H29A H -0.21370 0.37310 0.70580
H30A H -0.14020 0.47750 0.74540
#END
