
#######################################################################
#
#                 Cambridge Crystallographic Data Centre
#                                CCDC
#
#######################################################################
#
# If this CIF has been generated from an entry in the Cambridge
# Structural Database, then it will include bibliographic, chemical,
# crystal, experimental, refinement or atomic coordinate data resulting
# from the CCDC's data processing and validation procedures.
#
#######################################################################

data_CSD_CIF_OXPACO
_audit_creation_date 1979-02-14
_audit_creation_method CSD-ConQuest-V1
_database_code_CSD OXPACO
_database_code_depnum_ccdc_archive 'CCDC 1226481'
_chemical_formula_sum 'C12 H28 Cl1 Co1 N4 O8'
_chemical_formula_moiety
;
C12 H28 Co1 N4 O4 1+,Cl1 O4 1-
;
_journal_coden_Cambridge 155
_journal_volume 30
_journal_year 1978
_journal_page_first 227
_journal_name_full 'Inorg.Chim.Acta '
loop_
_publ_author_name
"R.G.Ball"
"R.T.Thurier"
"N.C.Payne"
_chemical_name_systematic
;
cis-anti-(Oxalato-O,O')-bis(2R,4S-diaminopentane-N,N')-cobalt(iii) perchlorate
;
_cell_volume    929.069
_exptl_crystal_colour 'wine red'
_exptl_crystal_density_diffrn 1.614
_diffrn_ambient_temperature ?
_diffrn_special_details
;
The study was carried out at room temperature,in the range 283-303K

;
_refine_special_details
;
The perchlorate anion is disordered.

;
#These two values have been output from a single CSD field.
_refine_ls_R_factor_gt 0.052
_refine_ls_wR_factor_gt 0.052
_symmetry_cell_setting triclinic
_symmetry_space_group_name_H-M 'P -1'
_symmetry_Int_Tables_number 2
loop_
_symmetry_equiv_pos_site_id
_symmetry_equiv_pos_as_xyz
1 x,y,z
2 -x,-y,-z
_cell_length_a 11.005(3)
_cell_length_b 11.863(3)
_cell_length_c 7.626(2)
_cell_angle_alpha 103.36(1)
_cell_angle_beta 90.09(1)
_cell_angle_gamma 74.0(1)
_cell_formula_units_Z 2
loop_
_atom_type_symbol
_atom_type_radius_bond
C 0.68
H 0.23
Co 1.33
N 0.68
O 0.68
loop_
_atom_site_label
_atom_site_type_symbol
_atom_site_fract_x
_atom_site_fract_y
_atom_site_fract_z
Co1 Co 0.26879 0.17415 0.15672
O1 O 0.40970 0.12820 -0.01660
O2 O 0.16950 0.15960 -0.04910
O3 O 0.45280 0.06880 -0.31420
O4 O 0.19330 0.10800 -0.35100
C1 C 0.37830 0.10580 -0.18170
C2 C 0.23520 0.12630 -0.20110
N1 N 0.29860 0.00210 0.15340
N2 N 0.11880 0.21020 0.32040
C3 C 0.19340 -0.05410 0.10610
C4 C 0.08510 0.00660 0.24650
C5 C 0.02460 0.14040 0.26380
C6 C -0.08830 0.18780 0.40130
C7 C 0.23980 -0.18960 0.08790
N3 N 0.24330 0.34530 0.16060
N4 N 0.37550 0.19370 0.36220
C8 C 0.35640 0.39130 0.15710
C9 C 0.43600 0.37030 0.31560
C10 C 0.48390 0.24270 0.33760
C11 C 0.56670 0.23660 0.49620
C12 C 0.31440 0.52540 0.16260
H1 H 0.36800 -0.04200 0.06820
H2 H 0.32150 -0.00740 0.27040
H3 H 0.16380 -0.03960 -0.01290
H4 H 0.01780 -0.03550 0.21670
H5 H 0.11710 -0.00370 0.36620
H6 H -0.00520 0.15270 0.14390
H7 H 0.14720 0.19580 0.43310
H8 H 0.07550 0.29340 0.33600
H9 H 0.19810 0.36000 0.05810
H10 H 0.19240 0.39150 0.26740
H11 H 0.40920 0.34720 0.04230
H12 H 0.51160 0.39990 0.30360
H13 H 0.38360 0.42010 0.42830
H14 H 0.53590 0.19150 0.22530
H15 H 0.32290 0.24690 0.46330
H16 H 0.40920 0.11670 0.38730
H17 H -0.11950 0.27770 0.42290
H18 H -0.15720 0.15130 0.35370
H19 H -0.06190 0.16510 0.51690
H20 H 0.17440 -0.22780 0.03080
H21 H 0.32080 -0.22350 0.01050
H22 H 0.25430 -0.20570 0.21030
H23 H 0.60220 0.15030 0.50160
H24 H 0.63750 0.27190 0.48030
H25 H 0.51450 0.28350 0.61050
H26 H 0.39060 0.55330 0.14680
H27 H 0.25720 0.53940 0.06300
H28 H 0.26810 0.57080 0.28180
#END
