
#######################################################################
#
#                 Cambridge Crystallographic Data Centre
#                                CCDC
#
#######################################################################
#
# If this CIF has been generated from an entry in the Cambridge
# Structural Database, then it will include bibliographic, chemical,
# crystal, experimental, refinement or atomic coordinate data resulting
# from the CCDC's data processing and validation procedures.
#
#######################################################################

data_CSD_CIF_OXPRCP
_audit_creation_date 1981-12-23
_audit_creation_method CSD-ConQuest-V1
_database_code_CSD OXPRCP
_database_code_depnum_ccdc_archive 'CCDC 1226503'
_chemical_formula_sum 'C16 H20 Cl1 Co1 N4 O8'
_chemical_formula_moiety
;
C16 H20 Co1 N4 O4 1+,Cl1 O4 1-
;
_journal_coeditor_code "IUCr A20190"
_journal_coden_Cambridge 107
_journal_volume 37
_journal_year 1981
_journal_page_first 1405
_journal_name_full 'Acta Crystallogr.,Sect.B:Struct.Crystallogr.Cryst.Chem. '
loop_
_publ_author_name
"M.Ito"
"S.Ohba"
"S.Sato"
"Y.Saito"
_chemical_name_systematic
;
(+)~589~-Oxalato-bis((-)-1(S)-(2-pyridyl)-ethylamine)-cobalt(iii) perchlorate
;
_cell_volume   1013.648
_exptl_crystal_density_diffrn 1.61
_exptl_special_details
;
Absolute configuration

;
_diffrn_ambient_temperature ?
_diffrn_special_details
;
The study was carried out at room temperature,in the range 283-303K

;
#These two values have been output from a single CSD field.
_refine_ls_R_factor_gt 0.036
_refine_ls_wR_factor_gt 0.036
_symmetry_cell_setting monoclinic
_symmetry_space_group_name_H-M 'C 2'
_symmetry_Int_Tables_number 5
loop_
_symmetry_equiv_pos_site_id
_symmetry_equiv_pos_as_xyz
1 x,y,z
2 1/2+x,1/2+y,z
3 -x,y,-z
4 1/2-x,1/2+y,-z
_cell_length_a 16.040(5)
_cell_length_b 7.770(1)
_cell_length_c 10.324(3)
_cell_angle_alpha 90
_cell_angle_beta 128.02(2)
_cell_angle_gamma 90
_cell_formula_units_Z 2
loop_
_atom_type_symbol
_atom_type_radius_bond
C 0.68
H 0.23
Cl 0.99
Co 1.33
N 0.68
O 0.68
loop_
_atom_site_label
_atom_site_type_symbol
_atom_site_fract_x
_atom_site_fract_y
_atom_site_fract_z
Co1 Co 0.50000 0.50000 0.50000
O1 O 0.46490 0.67830 0.34740
O2 O 0.46520 0.96430 0.33860
N1 N 0.45140 0.33290 0.32810
N2 N 0.35530 0.48870 0.42080
C1 C 0.32060 0.54100 0.50430
C2 C 0.21430 0.53070 0.43620
C3 C 0.14610 0.46000 0.28210
C4 C 0.18060 0.40330 0.19750
C5 C 0.28710 0.41900 0.26970
C6 C 0.33690 0.37030 0.19110
C7 C 0.28200 0.22410 0.06820
C8 C 0.48030 0.82990 0.41120
H1 H 0.46800 0.22000 0.37500
H2 H 0.49200 0.33500 0.29900
H3 H 0.36600 0.58000 0.59900
H4 H 0.19000 0.56100 0.49900
H5 H 0.07400 0.45000 0.23900
H6 H 0.13100 0.35000 0.09400
H7 H 0.33900 0.47100 0.13400
H8 H 0.33200 0.15900 0.06400
H9 H 0.21200 0.26300 -0.01500
H10 H 0.27700 0.12500 0.12500
Cl1 Cl 0.50000 0.42890 0.00000
O3 O 0.48120 0.32960 -0.11500
O4 O 0.57630 0.51370 0.02170
O1B O 0.53510 0.67830 0.65260
N1B N 0.54860 0.33290 0.67190
N2B N 0.64470 0.48870 0.57920
C8B C 0.51970 0.82990 0.58880
C6B C 0.66310 0.37030 0.80890
H1B H 0.53200 0.22000 0.62500
H2B H 0.50800 0.33500 0.70100
C1B C 0.67940 0.54100 0.49570
C5B C 0.71290 0.41900 0.73030
O2B O 0.53480 0.96430 0.66140
C7B C 0.71800 0.22410 0.93180
H7B H 0.66100 0.47100 0.86600
C2B C 0.78570 0.53070 0.56380
H3B H 0.63400 0.58000 0.40100
C4B C 0.81940 0.40330 0.80250
H8B H 0.66800 0.15900 0.93600
H9B H 0.78800 0.26300 1.01500
H10B H 0.72300 0.12500 0.87500
C3B C 0.85390 0.46000 0.71790
H4B H 0.81000 0.56100 0.50100
H6B H 0.86900 0.35000 0.90600
H5B H 0.92600 0.45000 0.76100
O3B O 0.51880 0.32960 0.11500
O4B O 0.42370 0.51370 -0.02170
#END
