
#######################################################################
#
#                 Cambridge Crystallographic Data Centre
#                                CCDC
#
#######################################################################
#
# If this CIF has been generated from an entry in the Cambridge
# Structural Database, then it will include bibliographic, chemical,
# crystal, experimental, refinement or atomic coordinate data resulting
# from the CCDC's data processing and validation procedures.
#
#######################################################################

data_CSD_CIF_OZIFEJ
_audit_creation_date 2011-11-21
_audit_creation_method CSD-ConQuest-V1
_database_code_CSD OZIFEJ
_database_code_depnum_ccdc_archive 'CCDC 818928'
_chemical_formula_sum 'C42 H64 Fe1 N2 O4'
_chemical_formula_moiety
;
C42 H64 Fe1 N2 O4
;
_journal_coden_Cambridge 1090
_journal_volume 22
_journal_year 2011
_journal_page_first 970
_journal_name_full 'Tetrahedron:Asymm. '
loop_
_publ_author_name
"I.Philipova"
"G.Stavrakov"
"A.Chimov"
"R.Nikolova"
"B.Shivachev"
"V.Dimitrov"
_chemical_name_systematic
;
2,2'-Dimethyl-N,N'-bis((1S,2R,3S,4R)-3-ethoxy-4,7,7-trimethylbicyclo[2.2.1]hep
tan-2-yl)-N,N'-diethylferrocene-1,1'-dicarboxmide
;
_cell_volume   1950.986
_exptl_crystal_colour 'yellow'
_exptl_crystal_density_diffrn 1.22
_exptl_special_details
;
Absolute configuration

;
_exptl_crystal_description 'prism'
_diffrn_ambient_temperature 290
#These two values have been output from a single CSD field.
_refine_ls_R_factor_gt 0.0465
_refine_ls_wR_factor_gt 0.0465
_symmetry_cell_setting monoclinic
_symmetry_space_group_name_H-M 'C 2'
_symmetry_Int_Tables_number 5
loop_
_symmetry_equiv_pos_site_id
_symmetry_equiv_pos_as_xyz
1 x,y,z
2 -x,y,-z
3 1/2+x,1/2+y,z
4 1/2-x,1/2+y,-z
_cell_length_a 34.9356(9)
_cell_length_b 7.4795(3)
_cell_length_c 7.4756(2)
_cell_angle_alpha 90
_cell_angle_beta 92.837(2)
_cell_angle_gamma 90
_cell_formula_units_Z 2
loop_
_atom_type_symbol
_atom_type_radius_bond
C 0.68
H 0.23
Fe 1.52
N 0.68
O 0.68
loop_
_atom_site_label
_atom_site_type_symbol
_atom_site_fract_x
_atom_site_fract_y
_atom_site_fract_z
Fe1 Fe 0.00000 0.97531(8) 0.00000
O1 O 0.10919(6) 0.6275(4) 0.3088(3)
C1 C 0.03848(10) 0.8198(6) -0.1278(6)
H1 H 0.04350 0.69930 -0.10660
C2 C 0.05726(7) 0.9675(6) -0.0420(4)
N1 N 0.12222(7) 0.8756(4) 0.0494(4)
O2 O 0.08599(6) 1.0138(4) 0.2527(3)
C3 C 0.17927(10) 0.6113(6) 0.3708(5)
C4 C 0.14264(8) 0.7303(5) 0.3479(4)
H2 H 0.13950 0.79780 0.45850
C5 C 0.01241(12) 1.0777(7) -0.2441(6)
H3 H -0.00270 1.15640 -0.31320
C6 C 0.08912(8) 0.9559(5) 0.1018(4)
C7 C 0.21061(10) 0.7393(8) 0.4497(6)
H4 H 0.20110 0.80900 0.54750
H5 H 0.23300 0.67300 0.49330
C8 C 0.15247(8) 0.8628(5) 0.1951(4)
H6 H 0.15610 0.98190 0.24800
C9 C 0.13189(9) 0.8765(5) -0.1381(5)
H7 H 0.10910 0.84710 -0.21180
H8 H 0.15080 0.78410 -0.15630
C10 C 0.04122(11) 1.1271(6) -0.1133(5)
C11 C 0.19222(9) 0.7933(6) 0.1406(5)
H9 H 0.19910 0.82740 0.01980
C12 C 0.19123(10) 0.5915(6) 0.1748(5)
C13 C 0.08370(11) 0.6219(7) 0.4543(5)
H10 H 0.07180 0.73800 0.46910
H11 H 0.09780 0.59130 0.56510
C14 C 0.16250(11) 0.4855(8) 0.0537(5)
H12 H 0.15940 0.36790 0.10230
H13 H 0.17200 0.47640 -0.06430
H14 H 0.13830 0.54610 0.04760
C15 C 0.01047(11) 0.8916(8) -0.2522(6)
H15 H -0.00630 0.82550 -0.32650
C16 C 0.05399(13) 0.4853(11) 0.4113(7)
H16 H 0.03910 0.52070 0.30590
H17 H 0.03750 0.47420 0.50980
H18 H 0.06610 0.37250 0.39040
C17 C 0.14753(15) 1.0542(6) -0.1996(6)
H19 H 0.15150 1.04900 -0.32570
H20 H 0.17140 1.07870 -0.13550
H21 H 0.12950 1.14740 -0.17660
C18 C 0.05345(13) 1.3135(6) -0.0662(8)
H22 H 0.03130 1.38920 -0.06340
H23 H 0.07020 1.35730 -0.15430
H24 H 0.06670 1.31380 0.04940
C19 C 0.22020(11) 0.8603(8) 0.2927(7)
H25 H 0.24660 0.84550 0.26170
H26 H 0.21560 0.98510 0.32000
C20 C 0.23066(12) 0.4992(10) 0.1591(7)
H27 H 0.22840 0.37440 0.18650
H28 H 0.24910 0.55340 0.24180
H29 H 0.23890 0.51280 0.03930
C21 C 0.17404(13) 0.4409(7) 0.4765(6)
H30 H 0.17180 0.46970 0.60070
H31 H 0.19580 0.36430 0.46370
H32 H 0.15120 0.38080 0.43200
O1A O -0.10919(6) 0.6275(4) -0.3088(3)
C1A C -0.03848(10) 0.8198(6) 0.1278(6)
H1A H -0.04350 0.69930 0.10660
C2A C -0.05726(7) 0.9675(6) 0.0420(4)
N1A N -0.12222(7) 0.8756(4) -0.0494(4)
O2A O -0.08599(6) 1.0138(4) -0.2527(3)
C3A C -0.17927(10) 0.6113(6) -0.3708(5)
C4A C -0.14264(8) 0.7303(5) -0.3479(4)
H2A H -0.13950 0.79780 -0.45850
C5A C -0.01241(12) 1.0777(7) 0.2441(6)
H3A H 0.00270 1.15640 0.31320
C6A C -0.08912(8) 0.9559(5) -0.1018(4)
C7A C -0.21061(10) 0.7393(8) -0.4497(6)
H4A H -0.20110 0.80900 -0.54750
H5A H -0.23300 0.67300 -0.49330
C8A C -0.15247(8) 0.8628(5) -0.1951(4)
H6A H -0.15610 0.98190 -0.24800
C9A C -0.13189(9) 0.8765(5) 0.1381(5)
H7A H -0.10910 0.84710 0.21180
H8A H -0.15080 0.78410 0.15630
C10A C -0.04122(11) 1.1271(6) 0.1133(5)
C11A C -0.19222(9) 0.7933(6) -0.1406(5)
H9A H -0.19910 0.82740 -0.01980
C12A C -0.19123(10) 0.5915(6) -0.1748(5)
C13A C -0.08370(11) 0.6219(7) -0.4543(5)
H10A H -0.07180 0.73800 -0.46910
H11A H -0.09780 0.59130 -0.56510
C14A C -0.16250(11) 0.4855(8) -0.0537(5)
H12A H -0.15940 0.36790 -0.10230
H13A H -0.17200 0.47640 0.06430
H14A H -0.13830 0.54610 -0.04760
C15A C -0.01047(11) 0.8916(8) 0.2522(6)
H15A H 0.00630 0.82550 0.32650
C16A C -0.05399(13) 0.4853(11) -0.4113(7)
H16A H -0.03910 0.52070 -0.30590
H17A H -0.03750 0.47420 -0.50980
H18A H -0.06610 0.37250 -0.39040
C17A C -0.14753(15) 1.0542(6) 0.1996(6)
H19A H -0.15150 1.04900 0.32570
H20A H -0.17140 1.07870 0.13550
H21A H -0.12950 1.14740 0.17660
C18A C -0.05345(13) 1.3135(6) 0.0662(8)
H22A H -0.03130 1.38920 0.06340
H23A H -0.07020 1.35730 0.15430
H24A H -0.06670 1.31380 -0.04940
C19A C -0.22020(11) 0.8603(8) -0.2927(7)
H25A H -0.24660 0.84550 -0.26170
H26A H -0.21560 0.98510 -0.32000
C20A C -0.23066(12) 0.4992(10) -0.1591(7)
H27A H -0.22840 0.37440 -0.18650
H28A H -0.24910 0.55340 -0.24180
H29A H -0.23890 0.51280 -0.03930
C21A C -0.17404(13) 0.4409(7) -0.4765(6)
H30A H -0.17180 0.46970 -0.60070
H31A H -0.19580 0.36430 -0.46370
H32A H -0.15120 0.38080 -0.43200
#END
