
#######################################################################
#
#                 Cambridge Crystallographic Data Centre
#                                CCDC
#
#######################################################################
#
# If this CIF has been generated from an entry in the Cambridge
# Structural Database, then it will include bibliographic, chemical,
# crystal, experimental, refinement or atomic coordinate data resulting
# from the CCDC's data processing and validation procedures.
#
#######################################################################

data_CSD_CIF_PABTOC
_audit_creation_date 2002-10-14
_audit_creation_method CSD-ConQuest-V1
_database_code_CSD PABTOC
_database_code_depnum_ccdc_archive 'CCDC 193296'
_chemical_formula_sum 'C16 H30 Cr1 O4 P2'
_chemical_formula_moiety
;
C16 H30 Cr1 O4 P2
;
_journal_coden_Cambridge 579
_journal_volume 21
_journal_year 2002
_journal_page_first 3388
_journal_name_full 'Organometallics '
loop_
_publ_author_name
"J.-J.Brunet"
"O.Diallo"
"B.Donnadieu"
"E.Roblou"
_chemical_name_systematic
;
trans-Tetracarbonyl-bis(triethylphosphine)-chromium
;
_cell_volume    501.419
_exptl_crystal_colour 'yellow'
_exptl_crystal_density_diffrn 1.326
_exptl_crystal_preparation 'tetrahydrofuran/hexane'
_diffrn_ambient_temperature 180
#These two values have been output from a single CSD field.
_refine_ls_R_factor_gt 0.0455
_refine_ls_wR_factor_gt 0.0455
_symmetry_cell_setting triclinic
_symmetry_space_group_name_H-M 'P -1'
_symmetry_Int_Tables_number 2
loop_
_symmetry_equiv_pos_site_id
_symmetry_equiv_pos_as_xyz
1 x,y,z
2 -x,-y,-z
_cell_length_a 7.540(5)
_cell_length_b 7.719(5)
_cell_length_c 9.138(5)
_cell_angle_alpha 108.086(5)
_cell_angle_beta 96.328(5)
_cell_angle_gamma 91.565(5)
_cell_formula_units_Z 1
loop_
_atom_type_symbol
_atom_type_radius_bond
C 0.68
H 0.23
Cr 1.35
O 0.68
P 1.05
loop_
_atom_site_label
_atom_site_type_symbol
_atom_site_fract_x
_atom_site_fract_y
_atom_site_fract_z
Cr1 Cr 0.50000 0.00000 0.00000
P1 P 0.71960(9) 0.10990(9) 0.21246(8)
O1 O 0.7465(3) 0.0730(3) -0.2168(3)
O2 O 0.6336(3) -0.3801(3) -0.0722(3)
C1 C 0.6518(4) 0.0472(4) -0.1326(4)
C2 C 0.5820(4) -0.2347(4) -0.0428(3)
C3 C 0.9234(4) 0.2268(4) 0.1857(4)
H1 H 1.00840 0.25500 0.28190
H2 H 0.98000 0.14200 0.10120
C4 C 0.8945(5) 0.4023(5) 0.1472(4)
H3 H 1.00930 0.45460 0.13400
H4 H 0.84290 0.48960 0.23180
H5 H 0.81260 0.37610 0.05080
C5 C 0.6415(4) 0.2790(4) 0.3804(4)
H6 H 0.60510 0.38530 0.34820
H7 H 0.53310 0.22410 0.40510
C6 C 0.7718(5) 0.3498(5) 0.5296(4)
H8 H 0.71630 0.44260 0.60750
H9 H 0.88110 0.40380 0.50800
H10 H 0.80170 0.24830 0.56900
C7 C 0.8210(4) -0.0563(4) 0.2973(4)
H11 H 0.87600 -0.14790 0.21610
H12 H 0.91800 0.00810 0.38020
C8 C 0.6910(4) -0.1562(5) 0.3654(4)
H13 H 0.75710 -0.23340 0.41660
H14 H 0.60250 -0.23250 0.28210
H15 H 0.62990 -0.06670 0.44130
P1A P 0.28040(9) -0.10990(9) -0.21246(8)
C3A C 0.0766(4) -0.2268(4) -0.1857(4)
H1A H -0.00840 -0.25500 -0.28190
H2A H 0.02000 -0.14200 -0.10120
C4A C 0.1055(5) -0.4023(5) -0.1472(4)
H3A H -0.00930 -0.45460 -0.13400
H4A H 0.15710 -0.48960 -0.23180
H5A H 0.18740 -0.37610 -0.05080
C5A C 0.3585(4) -0.2790(4) -0.3804(4)
H6A H 0.39490 -0.38530 -0.34820
H7A H 0.46690 -0.22410 -0.40510
C6A C 0.2282(5) -0.3498(5) -0.5296(4)
H8A H 0.28370 -0.44260 -0.60750
H9A H 0.11890 -0.40380 -0.50800
H10A H 0.19830 -0.24830 -0.56900
C7A C 0.1790(4) 0.0563(4) -0.2973(4)
H11A H 0.12400 0.14790 -0.21610
H12A H 0.08200 -0.00810 -0.38020
C8A C 0.3090(4) 0.1562(5) -0.3654(4)
H13A H 0.24290 0.23340 -0.41660
H14A H 0.39750 0.23250 -0.28210
H15A H 0.37010 0.06670 -0.44130
C1A C 0.3482(4) -0.0472(4) 0.1326(4)
O1A O 0.2535(3) -0.0730(3) 0.2168(3)
C2A C 0.4180(4) 0.2347(4) 0.0428(3)
O2A O 0.3664(3) 0.3801(3) 0.0722(3)
#END
