
#######################################################################
#
#                 Cambridge Crystallographic Data Centre
#                                CCDC
#
#######################################################################
#
# If this CIF has been generated from an entry in the Cambridge
# Structural Database, then it will include bibliographic, chemical,
# crystal, experimental, refinement or atomic coordinate data resulting
# from the CCDC's data processing and validation procedures.
#
#######################################################################

data_CSD_CIF_PADJAH
_audit_creation_date 2011-02-04
_audit_creation_method CSD-ConQuest-V1
_database_code_CSD PADJAH
_database_code_depnum_ccdc_archive 'CCDC 668049'
_chemical_formula_sum 'C13 H10 Cl2 Fe1 N3 O2'
_chemical_formula_moiety
;
C13 H10 Cl2 Fe1 N3 O2
;
_journal_coden_Cambridge 1003
_journal_volume 40
_journal_year 2010
_journal_page_first 726
_journal_name_full 'J.Chem.Cryst. '
loop_
_publ_author_name
"Jin-Xiu Wang"
"Xiao-Zeng Li"
"Li-Na Zhu"
"Ji-Yao Wang"
"Hao Qu"
_chemical_name_systematic
;
Dichloro-(N-((2-oxidophenyl)methylidene)pyridinium-4-carbohydrazonoato)-iron(i
ii)
;
_chemical_name_common
;
Dichloro-(N-isonicotinamidosalicylaldamine)-iron(iii)
;
_cell_volume    696.375
_exptl_crystal_colour 'red'
_exptl_crystal_density_diffrn 1.75
_exptl_crystal_description 'block'
_diffrn_ambient_temperature 293
#These two values have been output from a single CSD field.
_refine_ls_R_factor_gt 0.0426
_refine_ls_wR_factor_gt 0.0426
_symmetry_cell_setting triclinic
_symmetry_space_group_name_H-M 'P -1'
_symmetry_Int_Tables_number 2
loop_
_symmetry_equiv_pos_site_id
_symmetry_equiv_pos_as_xyz
1 x,y,z
2 -x,-y,-z
_cell_length_a 7.273(6)
_cell_length_b 10.015(8)
_cell_length_c 10.479(8)
_cell_angle_alpha 71.067(10)
_cell_angle_beta 89.964(11)
_cell_angle_gamma 75.528(10)
_cell_formula_units_Z 2
loop_
_atom_type_symbol
_atom_type_radius_bond
C 0.68
H 0.23
Cl 0.99
Fe 1.52
N 0.68
O 0.68
loop_
_atom_site_label
_atom_site_type_symbol
_atom_site_fract_x
_atom_site_fract_y
_atom_site_fract_z
Fe1 Fe 0.34233(9) 0.78857(6) 0.70578(6)
Cl1 Cl 0.58327(18) 0.68643(12) 0.87727(12)
Cl2 Cl 0.12953(18) 0.65487(13) 0.74797(14)
O1 O 0.4822(4) 0.7155(3) 0.5766(3)
O2 O 0.2167(4) 0.9383(3) 0.7909(3)
N1 N 0.2531(4) 0.9837(3) 0.5432(3)
N2 N 0.1535(5) 1.1058(3) 0.5746(3)
N3 N -0.1384(5) 1.3963(4) 0.8573(4)
H1 H -0.19770 1.46260 0.88930
C1 C 0.0550(6) 1.1616(5) 0.8957(4)
H2 H 0.12530 1.07220 0.95560
C2 C -0.0394(7) 1.2700(5) 0.9428(5)
H3 H -0.03380 1.25440 1.03530
C3 C -0.1513(6) 1.4268(5) 0.7232(5)
H4 H -0.22300 1.51760 0.66650
C4 C -0.0572(6) 1.3222(4) 0.6696(4)
H5 H -0.06190 1.34210 0.57640
C5 C 0.0446(5) 1.1869(4) 0.7574(4)
C6 C 0.1445(5) 1.0689(4) 0.7049(4)
C7 C 0.2731(6) 1.0080(4) 0.4154(4)
H6 H 0.22030 1.10220 0.35570
C8 C 0.3710(5) 0.8996(4) 0.3603(4)
C9 C 0.3676(6) 0.9381(5) 0.2184(4)
H7 H 0.30610 1.03320 0.16460
C10 C 0.4524(6) 0.8391(5) 0.1575(4)
H8 H 0.44620 0.86550 0.06360
C11 C 0.5480(6) 0.6981(5) 0.2391(4)
H9 H 0.60640 0.63000 0.19890
C12 C 0.5580(6) 0.6576(5) 0.3772(4)
H10 H 0.62470 0.56300 0.42910
C13 C 0.4691(6) 0.7568(4) 0.4424(4)
#END
