
#######################################################################
#
#                 Cambridge Crystallographic Data Centre
#                                CCDC
#
#######################################################################
#
# If this CIF has been generated from an entry in the Cambridge
# Structural Database, then it will include bibliographic, chemical,
# crystal, experimental, refinement or atomic coordinate data resulting
# from the CCDC's data processing and validation procedures.
#
#######################################################################

data_CSD_CIF_PAGZIJ
_audit_creation_date 2017-02-01
_audit_creation_method CSD-ConQuest-V1
_database_code_CSD PAGZIJ
_database_code_depnum_ccdc_archive 'CCDC 1505792'
_chemical_formula_sum 'C16 H26 Fe1 N2 Si2 Sn1'
_chemical_formula_moiety
;
C16 H26 Fe1 N2 Si2 Sn1
;
_journal_coden_Cambridge 1220
_journal_volume 23
_journal_year 2017
_journal_page_first 1187
_journal_name_full 'Chem.-Eur.J. '
loop_
_publ_author_name
"Jan Oetzel"
"N.Weyer"
"C.Bruhn"
"M.Leibold"
"B.Gerke"
"R.Pottgen"
"M.Maier"
"R.F.Winter"
"M.C.Holthausen"
"Ulrich Siemeling"
_chemical_name_systematic
;
(1,1'-bis((trimethylsilyl)amino)ferrocene)-tin
;
_cell_volume   1971.780
_exptl_crystal_colour 'brown'
_exptl_crystal_density_diffrn 1.607
_exptl_crystal_description 'plate'
_diffrn_ambient_temperature 100
#These two values have been output from a single CSD field.
_refine_ls_R_factor_gt 0.0687
_refine_ls_wR_factor_gt 0.0687
_symmetry_cell_setting monoclinic
_symmetry_space_group_name_H-M 'C 2/c'
_symmetry_Int_Tables_number 15
loop_
_symmetry_equiv_pos_site_id
_symmetry_equiv_pos_as_xyz
1 x,y,z
2 -x,y,1/2-z
3 1/2+x,1/2+y,z
4 1/2-x,1/2+y,1/2-z
5 -x,-y,-z
6 x,-y,-1/2+z
7 -1/2-x,-1/2-y,-z
8 -1/2+x,-1/2-y,-1/2+z
_cell_length_a 19.164(3)
_cell_length_b 9.7616(13)
_cell_length_c 11.1097(14)
_cell_angle_alpha 90
_cell_angle_beta 108.424(10)
_cell_angle_gamma 90
_cell_formula_units_Z 4
loop_
_atom_type_symbol
_atom_type_radius_bond
C 0.68
H 0.23
Fe 1.52
N 0.68
Si 1.20
Sn 1.39
loop_
_atom_site_label
_atom_site_type_symbol
_atom_site_fract_x
_atom_site_fract_y
_atom_site_fract_z
C1 C 0.4203(4) 0.2018(7) 0.2630(7)
C2 C 0.3950(3) 0.1257(7) 0.1483(7)
H1 H 0.37860 0.16300 0.06510
C3 C 0.3985(4) -0.0167(8) 0.1798(8)
H2 H 0.38520 -0.09010 0.12080
C4 C 0.4253(4) -0.0304(8) 0.3156(7)
H3 H 0.43300 -0.11330 0.36270
C5 C 0.4382(3) 0.1064(8) 0.3656(7)
H4 H 0.45580 0.12960 0.45310
C6 C 0.3576(4) 0.5971(8) 0.3435(8)
H5 H 0.36510 0.65160 0.27450
H6 H 0.40140 0.60340 0.41850
H7 H 0.31490 0.63230 0.36410
C7 C 0.2655(4) 0.4082(9) 0.1414(7)
H8 H 0.25950 0.31390 0.10940
H9 H 0.27680 0.46820 0.07940
H10 H 0.21990 0.43880 0.15500
C8 C 0.3139(4) 0.3184(8) 0.4134(7)
H11 H 0.35070 0.33170 0.49680
H12 H 0.31040 0.22070 0.39190
H13 H 0.26600 0.35140 0.41540
N1 N 0.4217(3) 0.3469(6) 0.2754(6)
Fe1 Fe 0.50000 0.07161(15) 0.25000
Sn1 Sn 0.50000 0.47805(8) 0.25000
Si1 Si 0.34141(10) 0.4150(2) 0.29279(19)
C1A C 0.5797(4) 0.2018(7) 0.2370(7)
C2A C 0.6050(3) 0.1257(7) 0.3517(7)
H1A H 0.62140 0.16300 0.43490
C3A C 0.6015(4) -0.0167(8) 0.3202(8)
H2A H 0.61480 -0.09010 0.37920
C4A C 0.5747(4) -0.0304(8) 0.1844(7)
H3A H 0.56700 -0.11330 0.13730
C5A C 0.5618(3) 0.1064(8) 0.1344(7)
H4A H 0.54420 0.12960 0.04690
C6A C 0.6424(4) 0.5971(8) 0.1565(8)
H5A H 0.63490 0.65160 0.22550
H6A H 0.59860 0.60340 0.08150
H7A H 0.68510 0.63230 0.13590
C7A C 0.7345(4) 0.4082(9) 0.3586(7)
H8A H 0.74050 0.31390 0.39060
H9A H 0.72320 0.46820 0.42060
H10A H 0.78010 0.43880 0.34500
C8A C 0.6861(4) 0.3184(8) 0.0866(7)
H11A H 0.64930 0.33170 0.00320
H12A H 0.68960 0.22070 0.10810
H13A H 0.73400 0.35140 0.08460
N1A N 0.5783(3) 0.3469(6) 0.2246(6)
Si1A Si 0.65859(10) 0.4150(2) 0.20721(19)
#END
