
#######################################################################
#
#                 Cambridge Crystallographic Data Centre
#                                CCDC
#
#######################################################################
#
# If this CIF has been generated from an entry in the Cambridge
# Structural Database, then it will include bibliographic, chemical,
# crystal, experimental, refinement or atomic coordinate data resulting
# from the CCDC's data processing and validation procedures.
#
#######################################################################

data_CSD_CIF_PAMSON
_audit_creation_date 2012-02-24
_audit_creation_method CSD-ConQuest-V1
_database_code_CSD PAMSON
_database_code_depnum_ccdc_archive 'CCDC 835126'
_chemical_formula_sum 'C15 H18 Br3 Co1 N3'
_chemical_formula_moiety
;
C9 H7 Br3 Co1 N1 1-,C6 H11 N2 1+
;
_journal_coden_Cambridge 1147
_journal_volume 11
_journal_year 2011
_journal_page_first 5461
_journal_name_full 'Cryst.Growth Des. '
loop_
_publ_author_name
"T.Peppel"
"M.Kockerling"
_chemical_name_systematic
;
3-Ethyl-1-methyl-1H-imidazol-3-ium tribromo-quinoline-cobalt(ii)
;
_chemical_melting_point 410
_cell_volume    918.381
_exptl_crystal_colour 'blue'
_exptl_crystal_density_diffrn 1.949
_exptl_crystal_description 'block'
_diffrn_ambient_temperature 173
#These two values have been output from a single CSD field.
_refine_ls_R_factor_gt 0.0248
_refine_ls_wR_factor_gt 0.0248
_symmetry_cell_setting triclinic
_symmetry_space_group_name_H-M 'P -1'
_symmetry_Int_Tables_number 2
loop_
_symmetry_equiv_pos_site_id
_symmetry_equiv_pos_as_xyz
1 x,y,z
2 -x,-y,-z
_cell_length_a 7.4889(3)
_cell_length_b 8.2056(3)
_cell_length_c 15.2471(6)
_cell_angle_alpha 88.453(2)
_cell_angle_beta 85.457(2)
_cell_angle_gamma 79.531(2)
_cell_formula_units_Z 2
loop_
_atom_type_symbol
_atom_type_radius_bond
C 0.68
H 0.23
Br 1.21
Co 1.26
N 0.68
loop_
_atom_site_label
_atom_site_type_symbol
_atom_site_fract_x
_atom_site_fract_y
_atom_site_fract_z
Co1 Co 0.35162(4) 0.25769(4) 0.75258(2)
Br1 Br 0.08760(3) 0.28112(3) 0.671752(16)
Br2 Br 0.29621(4) 0.41338(3) 0.887267(17)
Br3 Br 0.44685(4) -0.02706(3) 0.794137(17)
N1 N 0.5269(3) 0.3713(3) 0.67177(13)
C1 C 0.5280(4) 0.5293(3) 0.68512(17)
H1 H 0.46210 0.57900 0.73630
C2 C 0.6207(4) 0.6280(3) 0.62817(18)
H2 H 0.61790 0.74090 0.64130
C3 C 0.7149(4) 0.5606(3) 0.55386(18)
H3 H 0.77730 0.62630 0.51420
C4 C 0.7186(3) 0.3915(3) 0.53644(16)
C5 C 0.6222(3) 0.2994(3) 0.59709(15)
C6 C 0.6252(4) 0.1310(3) 0.58074(18)
H4 H 0.56050 0.06770 0.62070
C7 C 0.7211(4) 0.0577(4) 0.50746(19)
H5 H 0.72260 -0.05620 0.49720
C8 C 0.8167(4) 0.1488(4) 0.44755(18)
H6 H 0.88290 0.09620 0.39710
C9 C 0.8152(4) 0.3125(3) 0.46123(17)
H7 H 0.87940 0.37380 0.42000
N2 N 0.8474(3) -0.0487(3) 0.90156(14)
C10 C 0.8702(4) 0.0895(3) 0.85987(17)
H8 H 0.92660 0.09730 0.80220
N3 N 0.8007(3) 0.2168(3) 0.91216(14)
C11 C 0.7313(4) 0.1566(4) 0.98934(18)
H9 H 0.67320 0.21990 1.03820
C12 C 0.7612(4) -0.0106(4) 0.98295(17)
H10 H 0.72850 -0.08690 1.02660
C13 C 0.7972(4) 0.3907(3) 0.8905(2)
H11 H 0.85600 0.40080 0.83130
H12 H 0.86250 0.43940 0.93320
H13 H 0.67060 0.44910 0.89220
C14 C 0.8943(4) -0.2170(3) 0.8666(2)
H14 H 0.78250 -0.26590 0.86830
H15 H 0.97990 -0.28570 0.90480
C15 C 0.9796(5) -0.2225(4) 0.7736(2)
H16 H 1.00730 -0.33760 0.75380
H17 H 1.09220 -0.17720 0.77160
H18 H 0.89470 -0.15650 0.73510
#END
