
#######################################################################
#
#                 Cambridge Crystallographic Data Centre
#                                CCDC
#
#######################################################################
#
# If this CIF has been generated from an entry in the Cambridge
# Structural Database, then it will include bibliographic, chemical,
# crystal, experimental, refinement or atomic coordinate data resulting
# from the CCDC's data processing and validation procedures.
#
#######################################################################

data_CSD_CIF_PAMSUT
_audit_creation_date 2012-02-24
_audit_creation_method CSD-ConQuest-V1
_database_code_CSD PAMSUT
_database_code_depnum_ccdc_archive 'CCDC 835128'
_chemical_formula_sum 'C17 H22 Br3 Co1 N3'
_chemical_formula_moiety
;
C8 H15 N2 1+,C9 H7 Br3 Co1 N1 1-
;
_journal_coden_Cambridge 1147
_journal_volume 11
_journal_year 2011
_journal_page_first 5461
_journal_name_full 'Cryst.Growth Des. '
loop_
_publ_author_name
"T.Peppel"
"M.Kockerling"
_chemical_name_systematic
;
1-n-Butyl-3-methyl-1H-imidazol-3-ium tribromo-quinoline-cobalt(ii)
;
_chemical_melting_point 378
_cell_volume   1025.515
_exptl_crystal_colour 'blue'
_exptl_crystal_density_diffrn 1.836
_exptl_crystal_description 'block'
_diffrn_ambient_temperature 173
#These two values have been output from a single CSD field.
_refine_ls_R_factor_gt 0.028
_refine_ls_wR_factor_gt 0.028
_symmetry_cell_setting triclinic
_symmetry_space_group_name_H-M 'P -1'
_symmetry_Int_Tables_number 2
loop_
_symmetry_equiv_pos_site_id
_symmetry_equiv_pos_as_xyz
1 x,y,z
2 -x,-y,-z
_cell_length_a 8.2915(4)
_cell_length_b 10.2560(4)
_cell_length_c 12.3943(5)
_cell_angle_alpha 91.877(2)
_cell_angle_beta 95.427(2)
_cell_angle_gamma 101.826(2)
_cell_formula_units_Z 2
loop_
_atom_type_symbol
_atom_type_radius_bond
C 0.68
H 0.23
Br 1.21
Co 1.26
N 0.68
loop_
_atom_site_label
_atom_site_type_symbol
_atom_site_fract_x
_atom_site_fract_y
_atom_site_fract_z
Co1 Co 0.21298(3) 0.74198(2) 0.73785(2)
Br1 Br 0.04111(3) 0.58017(2) 0.836429(18)
Br2 Br 0.46157(2) 0.67039(2) 0.704494(17)
Br3 Br 0.27252(3) 0.94894(2) 0.845776(17)
N1 N 0.0813(2) 0.74833(16) 0.58976(14)
C1 C -0.0497(3) 0.6511(2) 0.56154(19)
H1 H -0.07960 0.58540 0.61240
C2 C -0.1467(3) 0.6392(2) 0.4616(2)
H2 H -0.23770 0.56620 0.44460
C3 C -0.1075(3) 0.7351(2) 0.38899(19)
H3 H -0.17220 0.73000 0.32090
C4 C 0.0294(2) 0.8416(2) 0.41557(16)
C5 C 0.1240(2) 0.84494(18) 0.51678(15)
C6 C 0.2637(2) 0.94939(19) 0.54399(16)
H4 H 0.33040 0.95110 0.61090
C7 C 0.3023(3) 1.0481(2) 0.47330(18)
H5 H 0.39600 1.11840 0.49200
C8 C 0.2063(3) 1.0473(2) 0.37393(18)
H6 H 0.23440 1.11750 0.32650
C9 C 0.0731(3) 0.9465(2) 0.34503(17)
H7 H 0.00900 0.94630 0.27730
N2 N 0.2957(2) 1.23504(16) 1.01500(13)
C10 C 0.4525(3) 1.2380(2) 1.00076(16)
H8 H 0.52050 1.18460 1.03580
N3 N 0.4989(2) 1.32865(16) 0.92908(13)
C11 C 0.3663(3) 1.3847(2) 0.89694(17)
H9 H 0.36440 1.45190 0.84620
C12 C 0.2389(3) 1.3260(2) 0.95130(17)
H10 H 0.13080 1.34440 0.94620
C13 C 0.1989(3) 1.1466(2) 1.0864(2)
H11 H 0.26870 1.09150 1.12280
H12 H 0.10420 1.08890 1.04330
H13 H 0.15880 1.20010 1.14080
C14 C 0.6649(3) 1.3608(2) 0.89090(19)
H14 H 0.75010 1.37420 0.95410
H15 H 0.67730 1.44510 0.85290
C15 C 0.6923(3) 1.2498(2) 0.81423(19)
H16 H 0.81060 1.26750 0.80120
H17 H 0.66810 1.16440 0.85040
C16 C 0.5875(3) 1.2344(2) 0.70543(18)
H18 H 0.59820 1.15110 0.66670
H19 H 0.46980 1.22570 0.71820
C17 C 0.6357(3) 1.3503(2) 0.6338(2)
H20 H 0.56400 1.33450 0.56510
H21 H 0.75140 1.35820 0.61940
H22 H 0.62270 1.43290 0.67080
#END
