
#######################################################################
#
#                 Cambridge Crystallographic Data Centre
#                                CCDC
#
#######################################################################
#
# If this CIF has been generated from an entry in the Cambridge
# Structural Database, then it will include bibliographic, chemical,
# crystal, experimental, refinement or atomic coordinate data resulting
# from the CCDC's data processing and validation procedures.
#
#######################################################################

data_CSD_CIF_PANWEI
_audit_creation_date 2012-02-24
_audit_creation_method CSD-ConQuest-V1
_database_code_CSD PANWEI
_database_code_depnum_ccdc_archive 'CCDC 840451'
_chemical_formula_sum 'C16 H32 I10 Mn1 O8'
_chemical_formula_moiety
;
C16 H32 Mn1 O8 2+,2(I5 1-)
;
_journal_coden_Cambridge 1147
_journal_volume 11
_journal_year 2011
_journal_page_first 5159
_journal_name_full 'Cryst.Growth Des. '
loop_
_publ_author_name
"C.Fiolka"
"I.Pantenburg"
"G.Meyer"
_chemical_name_systematic
;
bis(12-Crown-4)-manganese(ii) bis(pentaiodide)
;
_cell_volume   1910.382
_exptl_crystal_density_diffrn 2.914
_diffrn_ambient_temperature 293
#These two values have been output from a single CSD field.
_refine_ls_R_factor_gt 0.0559
_refine_ls_wR_factor_gt 0.0559
_symmetry_cell_setting monoclinic
_symmetry_space_group_name_H-M 'C m'
_symmetry_Int_Tables_number 8
loop_
_symmetry_equiv_pos_site_id
_symmetry_equiv_pos_as_xyz
1 x,y,z
2 x,-y,z
3 1/2+x,1/2+y,z
4 1/2+x,1/2-y,z
_cell_length_a 21.538(3)
_cell_length_b 8.5400(8)
_cell_length_c 10.9891(17)
_cell_angle_alpha 90
_cell_angle_beta 109.067(12)
_cell_angle_gamma 90
_cell_formula_units_Z 2
loop_
_atom_type_symbol
_atom_type_radius_bond
C 0.68
H 0.23
I 1.50
Mn 1.61
O 0.68
loop_
_atom_site_label
_atom_site_type_symbol
_atom_site_fract_x
_atom_site_fract_y
_atom_site_fract_z
I1 I 0.41757(10) 0.50000 0.0815(2)
I2 I 0.38105(9) 0.50000 0.4490(2)
I3 I 0.45777(11) 0.50000 0.7040(3)
I4 I 0.54173(9) 0.50000 0.0377(2)
I5 I 0.29024(10) 0.50000 0.1365(2)
I6 I 0.34263(10) 0.00000 0.0732(2)
I7 I 0.37931(9) 0.00000 -0.2918(2)
I8 I 0.46829(10) 0.00000 0.0172(2)
I9 I 0.21798(9) 0.00000 0.1177(2)
I10 I 0.30264(10) 0.00000 -0.5511(3)
Mn1 Mn 0.6296(2) 0.00000 0.5739(5)
O1 O 0.5398(5) -0.1574(12) 0.4795(9)
O2 O 0.6621(5) -0.2267(12) 0.7019(9)
O3 O 0.5838(8) 0.00000 0.7385(14)
O4 O 0.6545(5) -0.1554(13) 0.4296(9)
O5 O 0.7415(6) 0.00000 0.6682(14)
C1 C 0.4816(10) -0.090(3) 0.436(3)
H1 H 0.45550 -0.12590 0.48800
H2 H 0.45990 -0.12590 0.34870
C2 C 0.6684(18) -0.087(3) 0.331(3)
H3 H 0.63670 -0.12240 0.25130
H4 H 0.71140 -0.12240 0.33240
C3 C 0.5494(19) -0.254(4) 0.389(4)
H5 H 0.53910 -0.35900 0.41080
H6 H 0.51620 -0.22710 0.30830
C4 C 0.6068(13) -0.264(3) 0.366(2)
H7 H 0.59800 -0.25180 0.27390
H8 H 0.62460 -0.36810 0.38910
C5 C 0.7251(11) -0.267(3) 0.735(3)
H9 H 0.73030 -0.34550 0.67550
H10 H 0.73830 -0.31380 0.82030
C6 C 0.769(1) -0.134(3) 0.736(4)
H11 H 0.79050 -0.10430 0.82550
H12 H 0.80290 -0.17120 0.70320
C7 C 0.6280(11) -0.255(4) 0.785(4)
H13 H 0.65970 -0.27560 0.86950
H14 H 0.60260 -0.34950 0.75760
C8 C 0.5843(19) -0.135(3) 0.800(3)
H15 H 0.54000 -0.17680 0.77170
H16 H 0.59550 -0.11180 0.89150
O1A O 0.5398(5) 0.1574(12) 0.4795(9)
O2A O 0.6621(5) 0.2267(12) 0.7019(9)
O4A O 0.6545(5) 0.1554(13) 0.4296(9)
C1A C 0.4816(10) 0.090(3) 0.436(3)
H1A H 0.45550 0.12590 0.48800
H2A H 0.45990 0.12590 0.34870
C2A C 0.6684(18) 0.087(3) 0.331(3)
H3A H 0.63670 0.12240 0.25130
H4A H 0.71140 0.12240 0.33240
C3A C 0.5494(19) 0.254(4) 0.389(4)
H5A H 0.53910 0.35900 0.41080
H6A H 0.51620 0.22710 0.30830
C4A C 0.6068(13) 0.264(3) 0.366(2)
H7A H 0.59800 0.25180 0.27390
H8A H 0.62460 0.36810 0.38910
C5A C 0.7251(11) 0.267(3) 0.735(3)
H9A H 0.73030 0.34550 0.67550
H10A H 0.73830 0.31380 0.82030
C6A C 0.769(1) 0.134(3) 0.736(4)
H11A H 0.79050 0.10430 0.82550
H12A H 0.80290 0.17120 0.70320
C7A C 0.6280(11) 0.255(4) 0.785(4)
H13A H 0.65970 0.27560 0.86950
H14A H 0.60260 0.34950 0.75760
C8A C 0.5843(19) 0.135(3) 0.800(3)
H15A H 0.54000 0.17680 0.77170
H16A H 0.59550 0.11180 0.89150
#END
