
#######################################################################
#
#                 Cambridge Crystallographic Data Centre
#                                CCDC
#
#######################################################################
#
# If this CIF has been generated from an entry in the Cambridge
# Structural Database, then it will include bibliographic, chemical,
# crystal, experimental, refinement or atomic coordinate data resulting
# from the CCDC's data processing and validation procedures.
#
#######################################################################

data_CSD_CIF_PANZIN
_audit_creation_date 1993-05-24
_audit_creation_method CSD-ConQuest-V1
_database_code_CSD PANZIN
_database_code_depnum_ccdc_fiz 'CSD 56169'
_chemical_formula_sum 'C22 H34 Cr1'
_chemical_formula_moiety
;
C22 H34 Cr1
;
_journal_coden_Cambridge 155
_journal_volume 198
_journal_year 1992
_journal_page_first 741
_journal_name_full 'Inorg.Chim.Acta '
loop_
_publ_author_name
"G.Wilke"
"H.Benn"
"R.Goddard"
"C.Kruger"
"B.Pfeil"
_chemical_name_systematic
;
(\h^5^-Pentamethyl-cyclopentadienyl)-(\h^5^-1,2,3,4,5,6-hexamethyl-cyclohexa-1
,3-dienyl)-chromium
;
_cell_volume    996.197
_exptl_crystal_colour 'red'
_exptl_crystal_density_diffrn 1.17
_diffrn_ambient_temperature ?
_diffrn_special_details
;
The study was carried out at room temperature,in the range 283-303K

;
#These two values have been output from a single CSD field.
_refine_ls_R_factor_gt 0.038
_refine_ls_wR_factor_gt 0.038
_symmetry_cell_setting triclinic
_symmetry_space_group_name_H-M 'P -1'
_symmetry_Int_Tables_number 2
loop_
_symmetry_equiv_pos_site_id
_symmetry_equiv_pos_as_xyz
1 x,y,z
2 -x,-y,-z
_cell_length_a 8.801(1)
_cell_length_b 8.846(1)
_cell_length_c 13.532(1)
_cell_angle_alpha 78.91(1)
_cell_angle_beta 85.66(1)
_cell_angle_gamma 74.56(1)
_cell_formula_units_Z 2
loop_
_atom_type_symbol
_atom_type_radius_bond
C 0.68
H 0.23
Cr 1.35
loop_
_atom_site_label
_atom_site_type_symbol
_atom_site_fract_x
_atom_site_fract_y
_atom_site_fract_z
Cr1 Cr 0.1911(1) 0.2804(1) 0.2561(1)
C1 C 0.0487(2) 0.3942(2) 0.3769(1)
C2 C 0.2067(2) 0.3460(2) 0.4061(1)
C3 C 0.2945(2) 0.4281(2) 0.3338(1)
C4 C 0.1894(2) 0.5279(2) 0.2586(1)
C5 C 0.0375(2) 0.5067(2) 0.2857(1)
C6 C 0.2677(4) 0.2304(4) 0.5007(2)
C7 C 0.4674(3) 0.4185(4) 0.3396(3)
C8 C 0.2273(4) 0.6455(3) 0.1701(2)
C9 C -0.1136(3) 0.6000(3) 0.2341(2)
C10 C -0.0868(3) 0.3426(3) 0.4364(2)
C11 C 0.2665(2) 0.0223(2) 0.2667(1)
C12 C 0.3802(2) 0.0953(2) 0.2116(1)
C13 C 0.3300(2) 0.2212(2) 0.1280(1)
C14 C 0.1846(2) 0.2177(2) 0.0749(1)
C15 C 0.0602(2) 0.2077(2) 0.1578(1)
C16 C 0.1043(2) 0.0810(2) 0.2422(1)
C17 C 0.3153(3) -0.1089(2) 0.3571(2)
C18 C 0.5504(2) 0.0443(3) 0.2433(2)
C19 C 0.4440(3) 0.3021(3) 0.0640(2)
C20 C 0.2141(3) 0.0856(3) 0.0115(2)
C21 C -0.1094(2) 0.2721(3) 0.1267(2)
C22 C -0.0193(3) 0.0129(3) 0.3061(2)
H1 H 0.179(2) 0.319(2) 0.032(1)
H2 H 0.397(4) 0.209(4) 0.488(3)
H3 H 0.244(5) 0.144(5) 0.511(3)
H4 H 0.293(4) 0.282(4) 0.555(2)
H5 H 0.526(3) 0.312(3) 0.366(2)
H6 H 0.501(3) 0.460(3) 0.266(2)
H7 H 0.476(3) 0.495(3) 0.381(2)
H8 H 0.207(3) 0.742(3) 0.182(2)
H9 H 0.175(3) 0.636(3) 0.108(2)
H10 H 0.333(3) 0.615(3) 0.154(2)
H11 H -0.151(3) 0.706(3) 0.259(2)
H12 H -0.192(3) 0.536(4) 0.236(2)
H13 H -0.080(3) 0.628(3) 0.160(2)
H14 H -0.059(3) 0.225(4) 0.458(2)
H15 H -0.122(3) 0.405(3) 0.484(2)
H16 H -0.174(2) 0.360(4) 0.384(2)
H17 H 0.414(3) -0.149(3) 0.361(2)
H18 H 0.262(3) -0.183(3) 0.358(2)
H19 H 0.293(3) -0.073(3) 0.421(2)
H20 H 0.613(3) 0.111(3) 0.209(2)
H21 H 0.602(3) -0.048(4) 0.221(2)
H22 H 0.558(3) 0.035(3) 0.309(2)
H23 H 0.386(2) 0.403(3) 0.024(2)
H24 H 0.501(3) 0.330(3) 0.105(2)
H25 H 0.502(3) 0.243(3) 0.025(2)
H26 H 0.127(3) 0.100(3) -0.029(2)
H27 H 0.256(2) -0.013(2) 0.051(1)
H28 H 0.287(3) 0.097(3) -0.037(2)
H29 H -0.117(2) 0.369(3) 0.080(1)
H30 H -0.135(2) 0.204(2) 0.090(1)
H31 H -0.183(2) 0.298(2) 0.184(2)
H32 H -0.001(3) -0.009(3) 0.379(2)
H33 H -0.123(3) 0.081(3) 0.300(2)
H34 H -0.029(3) -0.083(3) 0.288(2)
#END
