
#######################################################################
#
#                 Cambridge Crystallographic Data Centre
#                                CCDC
#
#######################################################################
#
# If this CIF has been generated from an entry in the Cambridge
# Structural Database, then it will include bibliographic, chemical,
# crystal, experimental, refinement or atomic coordinate data resulting
# from the CCDC's data processing and validation procedures.
#
#######################################################################

data_CSD_CIF_PAQRIK
_audit_creation_date 2012-02-24
_audit_creation_method CSD-ConQuest-V1
_database_code_CSD PAQRIK
_database_code_depnum_ccdc_archive 'CCDC 769042'
_chemical_formula_sum 'C24 H38 Co1 N8 O16'
_chemical_formula_moiety
;
C12 H8 Co1 N4 O10 2-,2(C6 H9 N2 1+),6(H2 O1)
;
_journal_coden_Cambridge 1094
_journal_volume 22
_journal_year 2011
_journal_page_first 1365
_journal_name_full 'Struct.Chem. '
loop_
_publ_author_name
"M.Mirzaei"
"H.Eshtiagh-Hosseini"
"N.Alfi"
"H.Aghabozorg"
"J.A.Gharamaleki"
"S.A.Beyramabadi"
"H.R.Khavasi"
"A.R.Salimi"
"A.Shokrollahi"
"R.Aghaei"
"E.Karami"
_chemical_name_systematic
;
bis(4-methyl-2-aminopyridinium) 
diaqua-bis(pyrazine-2,3-dicarboxylato)-cobalt(ii) hexahydrate
;
_cell_volume    825.366
_exptl_crystal_colour 'orange'
_exptl_crystal_density_diffrn 1.515
_exptl_crystal_description 'block'
_diffrn_ambient_temperature 298
#These two values have been output from a single CSD field.
_refine_ls_R_factor_gt 0.0405
_refine_ls_wR_factor_gt 0.0405
_symmetry_cell_setting triclinic
_symmetry_space_group_name_H-M 'P -1'
_symmetry_Int_Tables_number 2
loop_
_symmetry_equiv_pos_site_id
_symmetry_equiv_pos_as_xyz
1 x,y,z
2 -x,-y,-z
_cell_length_a 6.9452(15)
_cell_length_b 8.5012(18)
_cell_length_c 14.349(3)
_cell_angle_alpha 80.001(18)
_cell_angle_beta 82.384(18)
_cell_angle_gamma 85.191(17)
_cell_formula_units_Z 1
loop_
_atom_type_symbol
_atom_type_radius_bond
C 0.68
H 0.23
Co 1.26
N 0.68
O 0.68
loop_
_atom_site_label
_atom_site_type_symbol
_atom_site_fract_x
_atom_site_fract_y
_atom_site_fract_z
Co1 Co 0.50000 0.50000 0.50000
O1 O 0.6232(2) 0.36827(15) 0.6134(1)
O2 O 0.6001(2) 0.14376(16) 0.72099(10)
O3 O 0.3851(2) -0.16545(15) 0.72645(10)
O4 O 0.2036(2) -0.01177(17) 0.81998(10)
O5 O 0.6718(3) 0.35578(19) 0.40898(12)
H1 H 0.64350 0.29190 0.38370
N1 N 0.3037(2) 0.31939(16) 0.54368(10)
N2 N 0.0767(2) 0.06583(18) 0.62099(12)
C1 C 0.5430(2) 0.24154(18) 0.65419(12)
C2 C 0.3567(2) 0.21079(18) 0.61749(11)
C3 C 0.1392(3) 0.3029(2) 0.50919(13)
H2 H 0.09930 0.37750 0.45890
C4 C 0.0274(3) 0.1748(2) 0.54809(14)
H3 H -0.08610 0.16440 0.52240
C5 C 0.2425(2) 0.08418(18) 0.65580(11)
C6 C 0.2826(2) -0.03971(19) 0.74202(12)
N3 N 0.6730(3) 0.41490(18) 0.12613(11)
H4 H 0.65070 0.32130 0.17510
N4 N 0.7959(3) 0.2609(2) 0.01304(13)
C7 C 0.7437(3) 0.4059(2) 0.03603(13)
C8 C 0.7608(3) 0.5505(2) -0.03003(14)
H5 H 0.81060 0.54750 -0.09320
C9 C 0.7038(3) 0.6959(2) -0.00081(15)
C10 C 0.6306(3) 0.6979(2) 0.09464(16)
H6 H 0.59290 0.79440 0.11590
C11 C 0.6149(3) 0.5571(2) 0.15600(14)
H7 H 0.56390 0.55780 0.21920
C12 C 0.7214(4) 0.8506(3) -0.0705(2)
H8 H 0.60410 0.87530 -0.10020
H9 H 0.82980 0.83930 -0.11840
H10 H 0.74140 0.93540 -0.03720
O6 O -0.0287(3) 0.4709(3) 0.28944(18)
O7 O 0.1015(2) 0.76643(18) 0.18728(11)
O8 O 0.1981(3) 0.1912(2) 0.3112(2)
H11 H 0.748(6) 0.396(5) 0.378(3)
H12 H 0.029(6) 0.400(5) 0.300(3)
H13 H -0.011(7) 0.547(6) 0.281(4)
H14 H 0.183(4) 0.796(3) 0.218(2)
H15 H 0.015(4) 0.840(3) 0.1828(19)
H16 H 0.780(4) 0.172(4) 0.063(2)
H17 H 0.308(7) 0.169(5) 0.286(3)
H18 H 0.11600 0.11210 0.32470
H19 H 0.845(5) 0.252(4) -0.055(2)
O1A O 0.3768(2) 0.63173(15) 0.3866(1)
O2A O 0.3999(2) 0.85624(16) 0.27901(10)
O3A O 0.6149(2) 1.16545(15) 0.27355(10)
O4A O 0.7964(2) 1.01177(17) 0.18002(10)
O5A O 0.3282(3) 0.64422(19) 0.59102(12)
H1A H 0.35650 0.70810 0.61630
N1A N 0.6963(2) 0.68061(16) 0.45632(10)
N2A N 0.9233(2) 0.93417(18) 0.37901(12)
C1A C 0.4570(2) 0.75846(18) 0.34581(12)
C2A C 0.6433(2) 0.78921(18) 0.38251(11)
C3A C 0.8608(3) 0.6971(2) 0.49081(13)
H2A H 0.90070 0.62250 0.54110
C4A C 0.9726(3) 0.8252(2) 0.45191(14)
H3A H 1.08610 0.83560 0.47760
C5A C 0.7575(2) 0.91582(18) 0.34420(11)
C6A C 0.7174(2) 1.03971(19) 0.25798(12)
H11A H 0.252(6) 0.604(5) 0.622(3)
#END
