
#######################################################################
#
#                 Cambridge Crystallographic Data Centre
#                                CCDC
#
#######################################################################
#
# If this CIF has been generated from an entry in the Cambridge
# Structural Database, then it will include bibliographic, chemical,
# crystal, experimental, refinement or atomic coordinate data resulting
# from the CCDC's data processing and validation procedures.
#
#######################################################################

data_CSD_CIF_PARCRT10
_audit_creation_date 1981-02-05
_audit_creation_method CSD-ConQuest-V1
_database_code_CSD PARCRT10
_chemical_formula_sum 'C18 H20 Cr1 I3'
_chemical_formula_moiety
;
C18 H20 Cr1 1+,I3 1-
;
_journal_coeditor_code "IUCr A19069"
_journal_coden_Cambridge 107
_journal_volume 36
_journal_year 1980
_journal_page_first 2054
_journal_name_full 'Acta Crystallogr.,Sect.B:Struct.Crystallogr.Cryst.Chem. '
loop_
_publ_author_name
"N.E.Blank"
"M.W.Haenel"
"A.R.Koray"
"K.Weidenhammer"
"M.L.Ziegler"
_chemical_name_systematic
;
(\h^6^,\h^6^-(3.3)Paracyclophane)-chromium(i) tri-iodide
;
_cell_volume    930.819
_diffrn_ambient_temperature ?
_diffrn_special_details
;
The study was carried out at room temperature,in the range 283-303K

;
#These two values have been output from a single CSD field.
_refine_ls_R_factor_gt 0.057
_refine_ls_wR_factor_gt 0.057
_symmetry_cell_setting monoclinic
_symmetry_space_group_name_H-M 'P 21/c'
_symmetry_Int_Tables_number 14
loop_
_symmetry_equiv_pos_site_id
_symmetry_equiv_pos_as_xyz
1 x,y,z
2 -x,1/2+y,1/2-z
3 -x,-y,-z
4 x,-1/2-y,-1/2+z
_cell_length_a 7.482(2)
_cell_length_b 7.642(2)
_cell_length_c 16.701(3)
_cell_angle_alpha 90
_cell_angle_beta 102.90(2)
_cell_angle_gamma 90
_cell_formula_units_Z 2
loop_
_atom_type_symbol
_atom_type_radius_bond
C 0.68
H 0.23
Cr 1.35
I 1.40
loop_
_atom_site_label
_atom_site_type_symbol
_atom_site_fract_x
_atom_site_fract_y
_atom_site_fract_z
I1 I 0.00377 0.91350 0.83049
I2 I 0.00000 1.00000 1.00000
Cr1 Cr 0.50000 0.00000 0.50000
C1 C 0.40830 0.22500 0.42880
C2 C 0.26370 0.09750 0.41480
C3 C 0.21190 0.01600 0.48130
C4 C 0.29110 0.05290 0.56150
C5 C 0.41980 0.19200 0.57700
C6 C 0.47350 0.27530 0.51160
C7 C 0.49000 0.29340 0.36090
C8 C 0.57630 0.15130 0.31600
C9 C 0.25490 -0.05910 0.63110
H1 H 0.19700 0.05600 0.35400
H2 H 0.16700 -0.06800 0.47600
H3 H 0.47900 0.21500 0.62200
H4 H 0.62600 0.36100 0.51900
H5 H 0.38800 0.34200 0.32100
H6 H 0.62000 0.38400 0.37600
H7 H 0.63200 0.18300 0.27500
H8 H 0.47700 0.06600 0.28900
H9 H 0.22000 -0.00800 0.66800
H10 H 0.20200 -0.10300 0.61000
I1B I -0.00377 1.08650 1.16951
C1B C 0.59170 -0.22500 0.57120
C2B C 0.73630 -0.09750 0.58520
C3B C 0.78810 -0.01600 0.51870
C4B C 0.70890 -0.05290 0.43850
C5B C 0.58020 -0.19200 0.42300
C6B C 0.52650 -0.27530 0.48840
C9B C 0.74510 0.05910 0.36890
C8B C 0.42370 -0.15130 0.68400
C7B C 0.51000 -0.29340 0.63910
H1B H 0.80300 -0.05600 0.64600
H2B H 0.83300 0.06800 0.52400
H3B H 0.52100 -0.21500 0.37800
H4B H 0.37400 -0.36100 0.48100
H9B H 0.78000 0.00800 0.33200
H10B H 0.79800 0.10300 0.39000
H7B H 0.36800 -0.18300 0.72500
H8B H 0.52300 -0.06600 0.71100
H5B H 0.61200 -0.34200 0.67900
H6B H 0.38000 -0.38400 0.62400
#END
