
#######################################################################
#
#                 Cambridge Crystallographic Data Centre
#                                CCDC
#
#######################################################################
#
# If this CIF has been generated from an entry in the Cambridge
# Structural Database, then it will include bibliographic, chemical,
# crystal, experimental, refinement or atomic coordinate data resulting
# from the CCDC's data processing and validation procedures.
#
#######################################################################

data_CSD_CIF_PARTEI
_audit_creation_date 2005-10-19
_audit_creation_method CSD-ConQuest-V1
_database_code_CSD PARTEI
_database_code_depnum_ccdc_archive 'CCDC 259502'
_chemical_formula_sum 'C24 H28 Mn1 N8 O4'
_chemical_formula_moiety
;
(C24 H28 Mn1 N8 O4)n
;
_journal_coden_Cambridge 155
_journal_volume 358
_journal_year 2005
_journal_page_first 3341
_journal_name_full 'Inorg.Chim.Acta '
loop_
_publ_author_name
"Chang Seop Hong"
"Jung Hee Yoon"
"Young Sin You"
_chemical_name_systematic
;
catena-[(\m~2~-Terephthalato)-tetrakis(4-methylpyrazole)-manganese(ii)]
;
_cell_volume    686.126
_exptl_crystal_colour 'white'
_exptl_crystal_density_diffrn 1.325
_exptl_crystal_description 'block'
_diffrn_ambient_temperature 293
#These two values have been output from a single CSD field.
_refine_ls_R_factor_gt 0.0359
_refine_ls_wR_factor_gt 0.0359
_symmetry_cell_setting triclinic
_symmetry_space_group_name_H-M 'P -1'
_symmetry_Int_Tables_number 2
loop_
_symmetry_equiv_pos_site_id
_symmetry_equiv_pos_as_xyz
1 x,y,z
2 -x,-y,-z
_cell_length_a 8.753(2)
_cell_length_b 9.2809(12)
_cell_length_c 9.8593(13)
_cell_angle_alpha 71.162(11)
_cell_angle_beta 65.136(17)
_cell_angle_gamma 78.756(15)
_cell_formula_units_Z 1
loop_
_atom_type_symbol
_atom_type_radius_bond
C 0.68
H 0.23
Mn 1.35
N 0.68
O 0.68
loop_
_atom_site_label
_atom_site_type_symbol
_atom_site_fract_x
_atom_site_fract_y
_atom_site_fract_z
Mn1 Mn 1.00000 0.00000 1.00000
N1 N 0.7733(2) -0.1110(2) 1.2027(2)
N2 N 0.6193(2) -0.1173(2) 1.2089(2)
H1 H 0.600(3) -0.075(3) 1.132(3)
C1 C 0.7677(3) -0.1880(3) 1.3435(3)
H2 H 0.85850 -0.20290 1.37340
C2 C 0.6109(3) -0.2438(3) 1.4411(3)
C3 C 0.5199(3) -0.1950(4) 1.3493(3)
H3 H 0.40780 -0.21290 1.37940
C4 C 0.5551(5) -0.3379(6) 1.6086(4)
H4 H 0.64600 -0.35300 1.64300
H5 H 0.52380 -0.43500 1.61740
H6 H 0.45980 -0.28530 1.67180
N3 N 0.9718(2) -0.1183(2) 0.8431(2)
N4 N 0.8625(2) -0.0666(2) 0.7727(2)
H7 H 0.782(3) 0.004(3) 0.802(3)
C5 C 1.0610(3) -0.2341(3) 0.7866(3)
H8 H 1.14760 -0.29250 0.81470
C6 C 1.0088(3) -0.2572(3) 0.6801(3)
C7 C 0.8813(3) -0.1481(3) 0.6759(3)
H9 H 0.81790 -0.13270 0.61620
C8 C 1.0744(4) -0.3793(4) 0.5953(4)
H10 H 1.16620 -0.43930 0.62050
H11 H 1.11340 -0.33250 0.48540
H12 H 0.98560 -0.44370 0.62580
O1 O 1.15779(17) -0.20015(16) 1.06476(19)
O2 O 1.3757(2) -0.12732(17) 1.0817(2)
C9 C 1.3050(2) -0.2212(2) 1.0630(2)
C10 C 1.4055(2) -0.3665(2) 1.0322(2)
C11 C 1.3294(2) -0.4826(2) 1.0272(2)
H13 H 1.21500 -0.47120 1.04560
C12 C 1.5771(2) -0.3857(2) 1.0050(2)
H14 H 1.62880 -0.30930 1.00850
Mn1* Mn 2.00000 -1.00000 1.00000
N1A N 1.2267(2) 0.1110(2) 0.7973(2)
N2A N 1.3807(2) 0.1173(2) 0.7911(2)
H1A H 1.400(3) 0.075(3) 0.868(3)
C1A C 1.2323(3) 0.1880(3) 0.6565(3)
H2A H 1.14150 0.20290 0.62660
C2A C 1.3891(3) 0.2438(3) 0.5589(3)
C3A C 1.4801(3) 0.1950(4) 0.6507(3)
H3A H 1.59220 0.21290 0.62060
C4A C 1.4449(5) 0.3379(6) 0.3914(4)
H4A H 1.35400 0.35300 0.35700
H5A H 1.47620 0.43500 0.38260
H6A H 1.54020 0.28530 0.32820
N3A N 1.0282(2) 0.1183(2) 1.1569(2)
N4A N 1.1375(2) 0.0666(2) 1.2273(2)
H7A H 1.218(3) -0.004(3) 1.198(3)
C5A C 0.9390(3) 0.2341(3) 1.2134(3)
H8A H 0.85240 0.29250 1.18530
C6A C 0.9912(3) 0.2572(3) 1.3199(3)
C7A C 1.1187(3) 0.1481(3) 1.3241(3)
H9A H 1.18210 0.13270 1.38380
C8A C 0.9256(4) 0.3793(4) 1.4047(4)
H10A H 0.83380 0.43930 1.37950
H11A H 0.88660 0.33250 1.51460
H12A H 1.01440 0.44370 1.37420
O1A O 1.84221(17) -0.79985(16) 0.93524(19)
O1A* O 0.84221(17) 0.20015(16) 0.93524(19)
O2A O 1.6243(2) -0.87268(17) 0.9183(2)
C9A C 1.6950(2) -0.7788(2) 0.9370(2)
C10A C 1.5945(2) -0.6335(2) 0.9678(2)
C11A C 1.6706(2) -0.5174(2) 0.9728(2)
H13A H 1.78500 -0.52880 0.95440
C12A C 1.4229(2) -0.6143(2) 0.9950(2)
H14A H 1.37120 -0.69070 0.99150
#END
