
#######################################################################
#
#                 Cambridge Crystallographic Data Centre
#                                CCDC
#
#######################################################################
#
# If this CIF has been generated from an entry in the Cambridge
# Structural Database, then it will include bibliographic, chemical,
# crystal, experimental, refinement or atomic coordinate data resulting
# from the CCDC's data processing and validation procedures.
#
#######################################################################

data_CSD_CIF_PASSOR
_audit_creation_date 1993-08-17
_audit_creation_method CSD-ConQuest-V1
_database_code_CSD PASSOR
_chemical_formula_sum 'C18 H12 Cr1 O3'
_chemical_formula_moiety
;
C18 H12 Cr1 O3
;
_journal_coden_Cambridge 579
_journal_volume 11
_journal_year 1992
_journal_page_first 4109
_journal_name_full 'Organometallics '
loop_
_publ_author_name
"J.W.Merkert"
"W.E.Geiger"
"M.N.Paddon-Row"
"A.O.Oliver"
"A.L.Rheingold"
_chemical_name_systematic
;
(Tricarbonyl)-(\h^6^-dibenzobicyclo(2.2.1)heptadienyl)-chromium
;
_cell_volume    717.704
_exptl_crystal_colour 'yellow'
_exptl_crystal_density_diffrn 1.519
_diffrn_ambient_temperature ?
_diffrn_special_details
;
The study was carried out at room temperature,in the range 283-303K

;
#These two values have been output from a single CSD field.
_refine_ls_R_factor_gt 0.034
_refine_ls_wR_factor_gt 0.034
_symmetry_cell_setting triclinic
_symmetry_space_group_name_H-M 'P -1'
_symmetry_Int_Tables_number 2
loop_
_symmetry_equiv_pos_site_id
_symmetry_equiv_pos_as_xyz
1 x,y,z
2 -x,-y,-z
_cell_length_a 8.148(3)
_cell_length_b 8.356(4)
_cell_length_c 11.116(6)
_cell_angle_alpha 75.76(4)
_cell_angle_beta 78.06(3)
_cell_angle_gamma 87.06(3)
_cell_formula_units_Z 2
loop_
_atom_type_symbol
_atom_type_radius_bond
C 0.68
H 0.23
Cr 1.35
O 0.68
loop_
_atom_site_label
_atom_site_type_symbol
_atom_site_fract_x
_atom_site_fract_y
_atom_site_fract_z
Cr1 Cr 0.28850(7) 0.32140(6) 0.32689(5)
O1 O -0.0751(4) 0.3500(5) 0.4383(4)
O2 O 0.3366(4) 0.6802(3) 0.3079(3)
O3 O 0.1723(4) 0.4230(4) 0.0819(3)
C1 C 0.0655(5) 0.3398(5) 0.3971(4)
C2 C 0.3172(4) 0.5405(4) 0.3166(4)
C3 C 0.2211(4) 0.3830(4) 0.1742(4)
C4 C 0.5544(4) 0.2255(4) 0.2808(3)
C5 C 0.5335(5) 0.2765(4) 0.3933(4)
C6 C 0.4005(5) 0.2116(5) 0.4935(4)
C7 C 0.2900(5) 0.0977(4) 0.4793(3)
C8 C 0.3090(4) 0.0452(4) 0.3661(3)
C9 C 0.4410(4) 0.1131(4) 0.2663(3)
C10 C 0.5061(4) 0.0751(4) 0.1380(3)
C11 C 0.6672(4) -0.0230(4) 0.1532(3)
C12 C 0.7122(5) -0.1831(4) 0.1515(3)
C13 C 0.8730(5) -0.2330(5) 0.1668(4)
C14 C 0.9839(5) -0.1265(5) 0.1849(4)
C15 C 0.9401(4) 0.0361(5) 0.1851(4)
C16 C 0.7814(4) 0.0876(4) 0.1686(3)
C17 C 0.6917(4) 0.2533(4) 0.1615(3)
C18 C 0.5871(4) 0.2455(4) 0.0631(3)
H1 H 0.60890 0.35550 0.40220
H2 H 0.38540 0.24460 0.57190
H3 H 0.19950 0.05440 0.54840
H4 H 0.23390 -0.03410 0.35720
H5 H 0.42580 0.02640 0.10560
H6 H 0.63470 -0.25790 0.13970
H7 H 0.90740 -0.34410 0.16480
H8 H 1.09350 -0.16550 0.19740
H9 H 1.01810 0.11050 0.19670
H10 H 0.76210 0.34720 0.14850
H11 H 0.50650 0.33310 0.05240
H12 H 0.65450 0.24190 -0.01800
#END
