
#######################################################################
#
#                 Cambridge Crystallographic Data Centre
#                                CCDC
#
#######################################################################
#
# If this CIF has been generated from an entry in the Cambridge
# Structural Database, then it will include bibliographic, chemical,
# crystal, experimental, refinement or atomic coordinate data resulting
# from the CCDC's data processing and validation procedures.
#
#######################################################################

data_CSD_CIF_PAYPUA
_audit_creation_date 1998-11-04
_audit_creation_method CSD-ConQuest-V1
_database_code_CSD PAYPUA
_chemical_formula_sum 'C19 H13 Mn1 O3 S1'
_chemical_formula_moiety
;
C19 H13 Mn1 O3 S1
;
_journal_coden_Cambridge 579
_journal_volume 16
_journal_year 1997
_journal_page_first 5688
_journal_name_full 'Organometallics '
loop_
_publ_author_name
"C.A.Dullaghan"
"G.B.Carpenter"
"D.A.Sweigart"
"Dai-Seung Choi"
"Su Seong Lee"
"Y.K.Chung"
_chemical_name_systematic
;
Tricarbonyl-(\h^4^-1,3-diphenylthiophene)-manganese
;
_cell_volume    842.809
_exptl_crystal_density_diffrn 1.483
_diffrn_ambient_temperature ?
_diffrn_special_details
;
The study was carried out at room temperature,in the range 283-303K

;
#These two values have been output from a single CSD field.
_refine_ls_R_factor_gt 0.0566
_refine_ls_wR_factor_gt 0.0566
_symmetry_cell_setting triclinic
_symmetry_space_group_name_H-M 'P -1'
_symmetry_Int_Tables_number 2
loop_
_symmetry_equiv_pos_site_id
_symmetry_equiv_pos_as_xyz
1 x,y,z
2 -x,-y,-z
_cell_length_a 8.6656(6)
_cell_length_b 10.4706(9)
_cell_length_c 10.9134(8)
_cell_angle_alpha 115.652(6)
_cell_angle_beta 95.117(6)
_cell_angle_gamma 104.313(6)
_cell_formula_units_Z 2
loop_
_atom_type_symbol
_atom_type_radius_bond
C 0.68
H 0.23
Mn 1.35
O 0.68
S 1.02
loop_
_atom_site_label
_atom_site_type_symbol
_atom_site_fract_x
_atom_site_fract_y
_atom_site_fract_z
Mn1 Mn 0.2167(1) 0.6606(1) 0.7505(1)
S1 S 0.3365(1) 0.7904(1) 0.5897(1)
C1 C 0.4205(4) 0.8267(3) 0.7585(3)
C2 C 0.4687(4) 0.7026(3) 0.7541(3)
C3 C 0.3769(4) 0.5722(3) 0.6324(3)
C4 C 0.2662(4) 0.6017(4) 0.5507(4)
C5 C 0.4997(4) 0.8182(3) 0.5027(3)
C6 C 0.4585(5) 0.8051(4) 0.3720(4)
C7 C 0.5805(6) 0.8249(5) 0.3022(4)
C8 C 0.7402(5) 0.8595(5) 0.3644(4)
C9 C 0.7814(5) 0.8728(5) 0.4946(4)
C10 C 0.6608(5) 0.8520(4) 0.5656(4)
C11 C 0.5982(4) 0.7127(4) 0.8590(3)
C12 C 0.7226(4) 0.8435(4) 0.9423(3)
C13 C 0.8513(5) 0.8471(6) 1.0320(4)
C14 C 0.8547(5) 0.7210(6) 1.0373(5)
C15 C 0.7295(7) 0.5918(6) 0.9594(6)
C16 C 0.6018(6) 0.5871(5) 0.8704(5)
C17 C 0.0546(5) 0.7320(4) 0.7305(4)
C18 C 0.0831(5) 0.4829(5) 0.7193(4)
C19 C 0.2468(4) 0.7326(4) 0.9360(4)
O1 O -0.0502(4) 0.7756(4) 0.7114(3)
O2 O -0.0030(4) 0.3703(4) 0.7003(4)
O3 O 0.2696(4) 0.7806(4) 1.0542(3)
H1 H 0.4323(4) 0.9139(3) 0.8395(3)
H2 H 0.3868(4) 0.4782(3) 0.6078(3)
H3 H 0.1710(4) 0.5314(4) 0.4864(4)
H4 H 0.3501(5) 0.7834(4) 0.3312(4)
H5 H 0.5543(6) 0.8146(5) 0.2132(4)
H6 H 0.8219(5) 0.8743(5) 0.3176(4)
H7 H 0.8902(5) 0.8957(5) 0.5352(4)
H8 H 0.6875(5) 0.8606(4) 0.6539(4)
H9 H 0.7214(4) 0.9306(4) 0.9390(3)
H10 H 0.9348(5) 0.9365(6) 1.0883(4)
H11 H 0.9427(5) 0.7229(6) 1.0942(5)
H12 H 0.7297(7) 0.5062(6) 0.9659(6)
H13 H 0.5169(6) 0.4979(5) 0.8174(5)
#END
