
#######################################################################
#
#                 Cambridge Crystallographic Data Centre
#                                CCDC
#
#######################################################################
#
# If this CIF has been generated from an entry in the Cambridge
# Structural Database, then it will include bibliographic, chemical,
# crystal, experimental, refinement or atomic coordinate data resulting
# from the CCDC's data processing and validation procedures.
#
#######################################################################

data_CSD_CIF_PAYPOU
_audit_creation_date 1998-11-04
_audit_creation_method CSD-ConQuest-V1
_database_code_CSD PAYPOU
_chemical_formula_sum 'C14 H11 Mn1 O3 S1'
_chemical_formula_moiety
;
C14 H11 Mn1 O3 S1
;
_journal_coden_Cambridge 579
_journal_volume 16
_journal_year 1997
_journal_page_first 5688
_journal_name_full 'Organometallics '
loop_
_publ_author_name
"C.A.Dullaghan"
"G.B.Carpenter"
"D.A.Sweigart"
"Dai-Seung Choi"
"Su Seong Lee"
"Y.K.Chung"
_chemical_name_systematic
;
Tricarbonyl-(\h^4^-3-methyl-1-phenylthiophene)-manganese
;
_cell_volume    694.761
_exptl_crystal_density_diffrn 1.502
_diffrn_ambient_temperature ?
_diffrn_special_details
;
The study was carried out at room temperature,in the range 283-303K

;
#These two values have been output from a single CSD field.
_refine_ls_R_factor_gt 0.0548
_refine_ls_wR_factor_gt 0.0548
_symmetry_cell_setting triclinic
_symmetry_space_group_name_H-M 'P -1'
_symmetry_Int_Tables_number 2
loop_
_symmetry_equiv_pos_site_id
_symmetry_equiv_pos_as_xyz
1 x,y,z
2 -x,-y,-z
_cell_length_a 8.2710(14)
_cell_length_b 8.7630(6)
_cell_length_c 9.7890(6)
_cell_angle_alpha 100.510(4)
_cell_angle_beta 92.419(13)
_cell_angle_gamma 94.040(6)
_cell_formula_units_Z 2
loop_
_atom_type_symbol
_atom_type_radius_bond
C 0.68
H 0.23
Mn 1.34
O 0.68
S 1.02
loop_
_atom_site_label
_atom_site_type_symbol
_atom_site_fract_x
_atom_site_fract_y
_atom_site_fract_z
Mn1 Mn 0.2734(1) 0.6412(1) 0.2676(1)
S1 S 0.4952(1) 0.8071(1) 0.1366(1)
C1 C 0.3068(5) 0.8562(4) 0.1980(4)
C2 C 0.3110(5) 0.8818(4) 0.3474(4)
C3 C 0.4372(4) 0.8027(4) 0.3957(4)
C4 C 0.5201(5) 0.7208(4) 0.2836(4)
C5 C 0.1992(5) 0.9819(5) 0.4362(5)
C6 C 0.6289(5) 0.9850(4) 0.1626(4)
C7 C 0.5730(6) 1.1299(5) 0.2058(5)
C8 C 0.6813(8) 1.2604(6) 0.2246(6)
C9 C 0.8414(7) 1.2452(6) 0.2013(6)
C10 C 0.8967(6) 1.1025(6) 0.1589(6)
C11 C 0.7914(6) 0.9704(5) 0.1380(5)
C12 C 0.2975(6) 0.4894(6) 0.3651(6)
C13 C 0.0613(6) 0.6461(5) 0.3015(5)
C14 C 0.2447(6) 0.5125(6) 0.1011(6)
O1 O 0.3170(6) 0.3916(5) 0.4267(6)
O2 O -0.0724(4) 0.6512(5) 0.3268(5)
O3 O 0.2239(6) 0.4306(5) -0.0050(5)
H1 H 0.2159(5) 0.8646(4) 0.1414(4)
H2 H 0.4634(4) 0.8036(4) 0.4892(4)
H3 H 0.5785(5) 0.6347(4) 0.2877(4)
H4 H 0.0924(5) 0.9686(5) 0.3913(5)
H5 H 0.2396(5) 1.0892(5) 0.4483(5)
H6 H 0.1946(5) 0.9515(5) 0.5254(5)
H7 H 0.4639(6) 1.1394(5) 0.2221(5)
H8 H 0.6450(8) 1.3587(6) 0.2530(6)
H9 H 0.9137(7) 1.3336(6) 0.2146(6)
H10 H 1.0063(6) 1.0941(6) 0.1440(6)
H11 H 0.8287(6) 0.8729(5) 0.1079(5)
#END
