
#######################################################################
#
#                 Cambridge Crystallographic Data Centre
#                                CCDC
#
#######################################################################
#
# If this CIF has been generated from an entry in the Cambridge
# Structural Database, then it will include bibliographic, chemical,
# crystal, experimental, refinement or atomic coordinate data resulting
# from the CCDC's data processing and validation procedures.
#
#######################################################################

data_CSD_CIF_PECLUG
_audit_creation_date 2012-11-07
_audit_creation_method CSD-ConQuest-V1
_database_code_CSD PECLUG
_database_code_depnum_ccdc_archive 'CCDC 887246'
_database_code_depnum_ccdc_journal 1267/3677
_chemical_formula_sum 'C10 H14 Co1 N4 O12'
_chemical_formula_moiety
;
C10 H10 Co1 N4 O10,2(H2 O1)
;
_journal_coden_Cambridge 1267
_journal_volume 227
_journal_year 2012
_journal_page_first 161
_journal_name_full 'Z.Kristallogr.-New Cryst.Struct. '
loop_
_publ_author_name
"Bo Xiao"
_chemical_name_systematic
;
Diaqua-(bis(2-oxo-4-(oxo)-1,2,3,4-tetrahydropyrimidine-5-carboxylato))-cobalt(
ii) dihydrate
;
_cell_volume    373.053
_exptl_crystal_colour 'pink'
_exptl_crystal_density_diffrn 1.964
_exptl_crystal_description 'block'
_diffrn_ambient_temperature 296
#These two values have been output from a single CSD field.
_refine_ls_R_factor_gt 0.0588
_refine_ls_wR_factor_gt 0.0588
_symmetry_cell_setting triclinic
_symmetry_space_group_name_H-M 'P -1'
_symmetry_Int_Tables_number 2
loop_
_symmetry_equiv_pos_site_id
_symmetry_equiv_pos_as_xyz
1 x,y,z
2 -x,-y,-z
_cell_length_a 5.0091(12)
_cell_length_b 8.1296(18)
_cell_length_c 9.550(2)
_cell_angle_alpha 74.444(18)
_cell_angle_beta 84.718(18)
_cell_angle_gamma 88.887(19)
_cell_formula_units_Z 1
loop_
_atom_type_symbol
_atom_type_radius_bond
C 0.68
H 0.23
Co 1.26
N 0.68
O 0.68
loop_
_atom_site_label
_atom_site_type_symbol
_atom_site_fract_x
_atom_site_fract_y
_atom_site_fract_z
Co1 Co 0.00000 0.00000 1.00000
O1 O -0.3510(7) 0.1602(5) 0.3437(4)
O2 O -0.1667(6) 0.0117(5) 0.8110(3)
O3 O 0.2553(7) 0.1916(5) 0.8884(4)
O4 O 0.4551(8) 0.3909(5) 0.7050(4)
O5 O 0.2874(7) -0.1848(5) 0.9637(4)
H1 H 0.42760 -0.17610 1.00510
H2 H 0.29740 -0.20000 0.87870
N1 N -0.2470(7) 0.0941(5) 0.5783(4)
H3 H -0.37430 0.01960 0.60080
N2 N -0.0016(8) 0.2972(5) 0.4030(4)
H4 H 0.03560 0.35480 0.31380
C1 C -0.2079(9) 0.1845(6) 0.4356(5)
C2 C -0.1031(9) 0.1100(6) 0.6903(5)
C3 C 0.1069(9) 0.2373(6) 0.6490(5)
C4 C 0.1481(9) 0.3220(6) 0.5068(5)
H5 H 0.28670 0.40180 0.47840
C5 C 0.2849(9) 0.2778(6) 0.7537(5)
O6 O 0.1967(16) 0.4535(8) 0.1296(7)
H6 H 0.34210 0.39750 0.13360
H7 H 0.22610 0.55760 0.08430
O1A O 0.3510(7) -0.1602(5) 1.6563(4)
O2A O 0.1667(6) -0.0117(5) 1.1890(3)
O3A O -0.2553(7) -0.1916(5) 1.1116(4)
O4A O -0.4551(8) -0.3909(5) 1.2950(4)
O5A O -0.2874(7) 0.1848(5) 1.0363(4)
H1A H -0.42760 0.17610 0.99490
H2A H -0.29740 0.20000 1.12130
N1A N 0.2470(7) -0.0941(5) 1.4217(4)
H3A H 0.37430 -0.01960 1.39920
N2A N 0.0016(8) -0.2972(5) 1.5970(4)
H4A H -0.03560 -0.35480 1.68620
C1A C 0.2079(9) -0.1845(6) 1.5644(5)
C2A C 0.1031(9) -0.1100(6) 1.3097(5)
C3A C -0.1069(9) -0.2373(6) 1.3510(5)
C4A C -0.1481(9) -0.3220(6) 1.4932(5)
H5A H -0.28670 -0.40180 1.52160
C5A C -0.2849(9) -0.2778(6) 1.2463(5)
#END
