
#######################################################################
#
#                 Cambridge Crystallographic Data Centre
#                                CCDC
#
#######################################################################
#
# If this CIF has been generated from an entry in the Cambridge
# Structural Database, then it will include bibliographic, chemical,
# crystal, experimental, refinement or atomic coordinate data resulting
# from the CCDC's data processing and validation procedures.
#
#######################################################################

data_CSD_CIF_PEHCEM
_audit_creation_date 2013-04-04
_audit_creation_method CSD-ConQuest-V1
_database_code_CSD PEHCEM
_database_code_depnum_ccdc_archive 'CCDC 891005'
_chemical_formula_sum 'C9 H10 Mn1 N1 O6'
_chemical_formula_moiety
;
C9 H4 Mn1 O5 1-,H4 N1 1+,H2 O1
;
_journal_coden_Cambridge 119
_journal_volume 1033
_journal_year 2013
_journal_page_first 187
_journal_name_full 'J.Mol.Struct. '
loop_
_publ_author_name
"A.B.Ilyukhin"
"P.S.Koroteev"
"M.A.Kiskin"
"Z.V.Dobrokhotova"
"V.M.Novotortsev"
_chemical_name_systematic
;
Ammonium (\h^5^-cyclopentadienecarboxylate)-tricarbonyl-manganese monohydrate
;
_cell_volume    574.761
_exptl_crystal_colour 'light yellow'
_exptl_crystal_density_diffrn 1.636
_exptl_crystal_description 'block'
_diffrn_ambient_temperature 173
#These two values have been output from a single CSD field.
_refine_ls_R_factor_gt 0.0253
_refine_ls_wR_factor_gt 0.0253
_symmetry_cell_setting triclinic
_symmetry_space_group_name_H-M 'P -1'
_symmetry_Int_Tables_number 2
loop_
_symmetry_equiv_pos_site_id
_symmetry_equiv_pos_as_xyz
1 x,y,z
2 -x,-y,-z
_cell_length_a 6.2742(5)
_cell_length_b 6.3649(5)
_cell_length_c 14.7595(11)
_cell_angle_alpha 95.403(1)
_cell_angle_beta 95.186(1)
_cell_angle_gamma 99.833(1)
_cell_formula_units_Z 2
loop_
_atom_type_symbol
_atom_type_radius_bond
C 0.68
H 0.23
Mn 1.46
N 0.68
O 0.68
loop_
_atom_site_label
_atom_site_type_symbol
_atom_site_fract_x
_atom_site_fract_y
_atom_site_fract_z
Mn1 Mn 0.20306(3) 0.13735(3) 0.171554(12)
O1 O 0.26603(17) 0.51493(17) 0.39616(7)
O2 O -0.07898(17) 0.48494(19) 0.33491(7)
O3 O 0.3266(3) -0.1685(2) 0.03289(10)
O4 O -0.2203(3) -0.1351(3) 0.18054(19)
O5 O 0.3987(4) -0.0323(3) 0.33066(13)
O6 O 0.1805(2) 0.8116(2) 0.53449(10)
N1 N 0.7023(2) 0.7381(2) 0.44978(10)
C1 C 0.1191(2) 0.4851(2) 0.32898(10)
C2 C 0.1883(2) 0.4481(2) 0.23562(9)
C3 C 0.4040(2) 0.4451(2) 0.21227(10)
C4 C 0.3927(3) 0.3988(2) 0.11632(10)
C5 C 0.1714(3) 0.3721(3) 0.07908(10)
C6 C 0.0457(2) 0.4038(2) 0.15239(10)
C7 C 0.2781(3) -0.0522(2) 0.08867(12)
C8 C -0.0548(3) -0.0301(3) 0.17726(15)
C9 C 0.3230(3) 0.0307(3) 0.26742(12)
H1 H 0.791(3) 0.679(3) 0.4123(13)
H2 H 0.570(4) 0.699(4) 0.4243(16)
H3 H 0.737(3) 0.883(4) 0.4532(13)
H4 H 0.707(3) 0.690(3) 0.4981(15)
H5 H 0.171(4) 0.730(4) 0.5783(17)
H6 H 0.198(4) 0.737(4) 0.4931(18)
H7 H 0.531(3) 0.470(3) 0.2514(13)
H8 H 0.509(3) 0.386(3) 0.0761(13)
H9 H 0.108(3) 0.339(3) 0.0116(13)
H10 H -0.106(3) 0.396(3) 0.1489(13)
#END
