
#######################################################################
#
#                 Cambridge Crystallographic Data Centre
#                                CCDC
#
#######################################################################
#
# If this CIF has been generated from an entry in the Cambridge
# Structural Database, then it will include bibliographic, chemical,
# crystal, experimental, refinement or atomic coordinate data resulting
# from the CCDC's data processing and validation procedures.
#
#######################################################################

data_CSD_CIF_PEHCIQ
_audit_creation_date 2013-04-04
_audit_creation_method CSD-ConQuest-V1
_database_code_CSD PEHCIQ
_database_code_depnum_ccdc_archive 'CCDC 891006'
_chemical_formula_sum 'C10 H10 Mn1 N3 O5'
_chemical_formula_moiety
;
C1 H6 N3 1+,C9 H4 Mn1 O5 1-
;
_journal_coden_Cambridge 119
_journal_volume 1033
_journal_year 2013
_journal_page_first 187
_journal_name_full 'J.Mol.Struct. '
loop_
_publ_author_name
"A.B.Ilyukhin"
"P.S.Koroteev"
"M.A.Kiskin"
"Z.V.Dobrokhotova"
"V.M.Novotortsev"
_chemical_name_systematic
;
guanidinium (\h^5^-cyclopentadienecarboxylate)-tricarbonyl-manganese
;
_cell_volume    645.256
_exptl_crystal_colour 'light yellow'
_exptl_crystal_density_diffrn 1.581
_exptl_crystal_description 'irregular block'
_diffrn_ambient_temperature 296
#These two values have been output from a single CSD field.
_refine_ls_R_factor_gt 0.041
_refine_ls_wR_factor_gt 0.041
_symmetry_cell_setting monoclinic
_symmetry_space_group_name_H-M 'P n'
_symmetry_Int_Tables_number 7
loop_
_symmetry_equiv_pos_site_id
_symmetry_equiv_pos_as_xyz
1 x,y,z
2 1/2+x,-y,1/2+z
_cell_length_a 7.6465(9)
_cell_length_b 7.6944(8)
_cell_length_c 10.9724(14)
_cell_angle_alpha 90
_cell_angle_beta 91.769(4)
_cell_angle_gamma 90
_cell_formula_units_Z 2
loop_
_atom_type_symbol
_atom_type_radius_bond
C 0.68
H 0.23
Mn 1.46
N 0.68
O 0.68
loop_
_atom_site_label
_atom_site_type_symbol
_atom_site_fract_x
_atom_site_fract_y
_atom_site_fract_z
Mn1 Mn 0.0000(1) 0.52226(10) 0.00000(9)
O1 O 0.2040(6) 0.0780(5) 0.1394(5)
O2 O -0.0795(5) 0.0966(5) 0.1678(4)
O3 O 0.0694(9) 0.2694(8) -0.1934(7)
O4 O 0.0516(7) 0.8266(7) -0.1528(5)
O5 O -0.3790(7) 0.523(1) -0.0440(5)
N1 N 0.5696(8) 0.0888(11) 0.0861(7)
H1 H 0.676(9) 0.090(8) 0.150(7)
H2 H 0.495(10) 0.105(10) 0.124(7)
N2 N 0.4103(8) 0.0267(9) -0.0867(7)
H3 H 0.326(9) 0.041(9) -0.055(7)
H4 H 0.411(9) -0.019(9) -0.157(7)
N3 N 0.7080(7) 0.0350(9) -0.0881(6)
H5 H 0.801(9) 0.058(9) -0.053(7)
H6 H 0.714(10) 0.022(9) -0.170(7)
C1 C 0.0658(8) 0.1635(7) 0.1503(6)
C2 C 0.0817(9) 0.3554(8) 0.1469(6)
C3 C 0.2228(11) 0.4558(10) 0.1119(9)
H7 H 0.297(11) 0.406(10) 0.096(9)
C4 C 0.1873(16) 0.6278(11) 0.128(1)
H8 H 0.256(9) 0.712(10) 0.097(8)
C5 C 0.0203(18) 0.6443(10) 0.1721(9)
H9 H -0.030(12) 0.739(13) 0.205(9)
C6 C -0.0467(10) 0.4742(10) 0.1875(6)
H10 H -0.156(8) 0.436(9) 0.216(7)
C7 C 0.0399(10) 0.3711(10) -0.1190(7)
C8 C 0.0304(8) 0.7047(9) -0.0955(7)
C9 C -0.2312(10) 0.5214(10) -0.0293(6)
C10 C 0.5627(8) 0.0477(8) -0.0278(6)
#END
