
#######################################################################
#
#                 Cambridge Crystallographic Data Centre
#                                CCDC
#
#######################################################################
#
# If this CIF has been generated from an entry in the Cambridge
# Structural Database, then it will include bibliographic, chemical,
# crystal, experimental, refinement or atomic coordinate data resulting
# from the CCDC's data processing and validation procedures.
#
#######################################################################

data_CSD_CIF_PEHDEN
_audit_creation_date 2013-04-04
_audit_creation_method CSD-ConQuest-V1
_database_code_CSD PEHDEN
_database_code_depnum_ccdc_archive 'CCDC 891010'
_chemical_formula_sum 'C13 H16 Mn1 N1 O8'
_chemical_formula_moiety
;
C4 H12 N1 O3 1+,C9 H4 Mn1 O5 1-
;
_journal_coden_Cambridge 119
_journal_volume 1033
_journal_year 2013
_journal_page_first 187
_journal_name_full 'J.Mol.Struct. '
loop_
_publ_author_name
"A.B.Ilyukhin"
"P.S.Koroteev"
"M.A.Kiskin"
"Z.V.Dobrokhotova"
"V.M.Novotortsev"
_chemical_name_systematic
;
1,3-Dihydroxy-2-(hydroxymethyl)propan-2-aminium 
tricarbonyl-(\h^5^-cyclopentadienecarboxylate)-manganese
;
_cell_volume    804.723
_exptl_crystal_colour 'yellow'
_exptl_crystal_density_diffrn 1.524
_exptl_crystal_description 'plate'
_diffrn_ambient_temperature 296
#These two values have been output from a single CSD field.
_refine_ls_R_factor_gt 0.0401
_refine_ls_wR_factor_gt 0.0401
_symmetry_cell_setting triclinic
_symmetry_space_group_name_H-M 'P -1'
_symmetry_Int_Tables_number 2
loop_
_symmetry_equiv_pos_site_id
_symmetry_equiv_pos_as_xyz
1 x,y,z
2 -x,-y,-z
_cell_length_a 7.3593(4)
_cell_length_b 7.4615(4)
_cell_length_c 16.2421(8)
_cell_angle_alpha 84.956(2)
_cell_angle_beta 89.179(2)
_cell_angle_gamma 64.969(2)
_cell_formula_units_Z 2
loop_
_atom_type_symbol
_atom_type_radius_bond
C 0.68
H 0.23
Mn 1.46
N 0.68
O 0.68
loop_
_atom_site_label
_atom_site_type_symbol
_atom_site_fract_x
_atom_site_fract_y
_atom_site_fract_z
Mn1 Mn 0.29011(6) 0.64721(6) 0.14016(3)
O1 O 0.0984(3) 0.4332(3) 0.32991(12)
O2 O -0.1664(4) 0.7124(4) 0.28898(15)
O3 O 0.7228(4) 0.3950(5) 0.15688(19)
O4 O 0.2827(4) 0.8707(4) 0.28189(17)
O5 O 0.3300(6) 0.9521(5) 0.0254(2)
O6 O 0.6507(3) -0.1290(2) 0.41938(12)
O7 O 0.3568(3) 0.4912(3) 0.42776(12)
O8 O 0.9946(3) 0.1883(3) 0.42912(12)
N1 N 0.6755(4) 0.1637(3) 0.50367(13)
C1 C -0.0076(4) 0.5710(4) 0.27698(17)
C2 C 0.0660(4) 0.5580(4) 0.19065(17)
C3 C -0.0190(5) 0.7072(6) 0.1231(2)
C4 C 0.0850(6) 0.6324(7) 0.0521(2)
C5 C 0.2337(7) 0.4433(7) 0.0732(2)
C6 C 0.2229(5) 0.3942(5) 0.1589(2)
C7 C 0.5540(5) 0.4981(5) 0.1508(2)
C8 C 0.2853(5) 0.7829(5) 0.2271(2)
C9 C 0.3189(6) 0.8312(6) 0.0718(3)
C10 C 0.6647(4) 0.1930(3) 0.41138(15)
C11 C 0.5653(4) 0.0676(4) 0.38014(17)
C12 C 0.5414(4) 0.4128(4) 0.38558(17)
C13 C 0.8794(4) 0.1227(4) 0.38052(17)
H1 H 0.769(4) 0.046(4) 0.5234(18)
H2 H 0.567(5) 0.172(4) 0.5214(18)
H3 H 0.705(5) 0.253(5) 0.527(2)
H4 H 0.723(6) -0.196(6) 0.380(2)
H5 H 0.276(5) 0.480(5) 0.404(2)
H6 H 1.019(5) 0.265(5) 0.405(2)
H7 H -0.122(6) 0.830(6) 0.127(2)
H8 H 0.068(6) 0.698(6) 0.002(3)
H9 H 0.308(7) 0.372(7) 0.038(3)
H10 H 0.305(5) 0.269(5) 0.191(2)
H11 H 0.575(4) 0.068(4) 0.3198(17)
H12 H 0.425(4) 0.124(4) 0.3909(16)
H13 H 0.512(4) 0.436(3) 0.3229(16)
H14 H 0.618(4) 0.480(4) 0.3985(16)
H15 H 0.872(4) 0.174(4) 0.324(2)
H16 H 0.941(4) -0.021(4) 0.3865(15)
#END
