
#######################################################################
#
#                 Cambridge Crystallographic Data Centre
#                                CCDC
#
#######################################################################
#
# If this CIF has been generated from an entry in the Cambridge
# Structural Database, then it will include bibliographic, chemical,
# crystal, experimental, refinement or atomic coordinate data resulting
# from the CCDC's data processing and validation procedures.
#
#######################################################################

data_CSD_CIF_PEHJOB
_audit_creation_date 1994-01-24
_audit_creation_method CSD-ConQuest-V1
_database_code_CSD PEHJOB
_database_code_depnum_ccdc_archive 'CCDC 1230277'
_chemical_formula_sum 'C16 H23 Fe1 N3'
_chemical_formula_moiety
;
C16 H23 Fe1 N3
;
_journal_coden_Cambridge 182
_journal_year 1993
_journal_page_first 1046
_journal_name_full 'Chem.Commun. '
loop_
_publ_author_name
"P.D.Beer"
"Zheng Chen"
"M.G.B.Drew"
"J.Kingston"
"M.Ogden"
"P.Spencer"
_chemical_name_systematic
;
1,1'-(2,5,8-Triazanona-1,9-diyl)ferrocene
;
_cell_volume    710.105
_exptl_crystal_density_diffrn 1.46
_diffrn_ambient_temperature ?
_diffrn_special_details
;
The study was carried out at room temperature,in the range 283-303K

;
#These two values have been output from a single CSD field.
_refine_ls_R_factor_gt 0.086
_refine_ls_wR_factor_gt 0.086
_symmetry_cell_setting triclinic
_symmetry_space_group_name_H-M 'P -1'
_symmetry_Int_Tables_number 2
loop_
_symmetry_equiv_pos_site_id
_symmetry_equiv_pos_as_xyz
1 x,y,z
2 -x,-y,-z
_cell_length_a 6.392(7)
_cell_length_b 9.208(9)
_cell_length_c 12.389(13)
_cell_angle_alpha 102.1(1)
_cell_angle_beta 86.2(1)
_cell_angle_gamma 87.4(1)
_cell_formula_units_Z 2
loop_
_atom_type_symbol
_atom_type_radius_bond
C 0.68
H 0.23
Fe 1.34
N 0.68
loop_
_atom_site_label
_atom_site_type_symbol
_atom_site_fract_x
_atom_site_fract_y
_atom_site_fract_z
Fe1 Fe 0.2920(2) 0.1215(2) 0.3359(1)
C1 C 0.2688(18) -0.0996(13) 0.2855(11)
C2 C 0.2674(16) 0.0630(12) 0.1667(9)
C3 C 0.1380(18) -0.0225(13) 0.226(1)
C4 C 0.4784(19) 0.0355(13) 0.1923(10)
C5 C 0.4762(20) -0.0634(13) 0.2656(11)
C6 C 0.1933(23) 0.1674(16) 0.5003(10)
C7 C 0.0672(17) 0.2537(13) 0.4399(10)
C8 C 0.2061(16) 0.3458(12) 0.3910(9)
C9 C 0.4171(16) 0.3071(14) 0.4195(9)
C10 C 0.4059(17) 0.2006(15) 0.4841(10)
C11 C 0.2036(17) 0.1521(14) 0.0868(9)
N1 N -0.0236(14) 0.1998(11) 0.0973(8)
C12 C -0.0703(16) 0.2932(14) 0.0194(9)
C13 C -0.2985(18) 0.3473(15) 0.0312(10)
N2 N -0.3931(14) 0.4138(11) 0.1422(9)
C14 C -0.3319(18) 0.5563(14) 0.1943(11)
C15 C -0.1144(17) 0.5707(13) 0.2335(11)
N3 N -0.0673(15) 0.4690(11) 0.3072(8)
C16 C 0.1491(17) 0.4609(12) 0.3293(10)
H1 H 0.2235(18) -0.1649(13) 0.3313(11)
H2 H -0.0102(18) -0.0259(13) 0.2255(10)
H3 H 0.5994(19) 0.0764(13) 0.1647(10)
H4 H 0.5957(20) -0.0991(13) 0.2961(11)
H5 H 0.1416(23) 0.1006(16) 0.5432(10)
H6 H -0.0798(17) 0.2501(13) 0.4333(10)
H7 H 0.5423(16) 0.3482(14) 0.3972(9)
H8 H 0.5218(17) 0.1571(15) 0.5127(10)
H9 H 0.2820(17) 0.2384(14) 0.0966(9)
H10 H 0.2364(17) 0.0938(14) 0.0142(9)
H11 H -0.03660 0.26810 0.16120
H12 H 0.0138(16) 0.3767(14) 0.0321(9)
H13 H -0.0368(16) 0.2367(14) -0.0537(9)
H14 H -0.3770(18) 0.2650(15) 0.0018(10)
H15 H -0.3120(18) 0.4208(15) -0.0119(10)
H16 H -0.3445(18) 0.6185(14) 0.1425(11)
H17 H -0.4291(18) 0.5921(14) 0.2567(11)
H18 H -0.1034(17) 0.6699(13) 0.2731(11)
H19 H -0.0143(17) 0.5495(13) 0.1712(11)
H20 H -0.13180 0.52570 0.37210
H21 H 0.2310(17) 0.4397(12) 0.2603(10)
H22 H 0.1817(17) 0.5548(12) 0.371(1)
H23? H -0.33670 0.26810 0.18080
#END
