
#######################################################################
#
#                 Cambridge Crystallographic Data Centre
#                                CCDC
#
#######################################################################
#
# If this CIF has been generated from an entry in the Cambridge
# Structural Database, then it will include bibliographic, chemical,
# crystal, experimental, refinement or atomic coordinate data resulting
# from the CCDC's data processing and validation procedures.
#
#######################################################################

data_CSD_CIF_PEKBIQ
_audit_creation_date 1998-11-04
_audit_creation_method CSD-ConQuest-V1
_database_code_CSD PEKBIQ
_database_code_depnum_ccdc_archive 'CCDC 132333'
_chemical_formula_sum 'C14 H10 Cl2 Cr1 O3'
_chemical_formula_moiety
;
C14 H10 Cl2 Cr1 O3
;
_journal_coden_Cambridge 95
_journal_year 1998
_journal_page_first 720
_journal_name_full 'Izv.Akad.Nauk SSSR,Ser.Khim.(Russ.)(Russ.Chem.Bull.) '
loop_
_publ_author_name
"A.V.Vorogushin"
"M.D.Reshetova"
"N.G.Akhmedov"
"Yu.A.Ustynyuk"
"I.L.Eremenko"
"S.E.Nefedov"
"A.I.Zinin"
_chemical_name_systematic
;
Tricarbonyl-7,7-dichloro-3,4-benzobicyclo(4.1.0)heptane-chromium
;
_chemical_melting_point 433.05
_cell_volume    701.911
_exptl_crystal_density_diffrn 1.652
_exptl_special_details
;
Melts with decomposition.

;
_diffrn_ambient_temperature ?
_diffrn_special_details
;
The study was carried out at room temperature,in the range 283-303K

;
#These two values have been output from a single CSD field.
_refine_ls_R_factor_gt 0.096
_refine_ls_wR_factor_gt 0.096
_symmetry_cell_setting triclinic
_symmetry_space_group_name_H-M 'P -1'
_symmetry_Int_Tables_number 2
loop_
_symmetry_equiv_pos_site_id
_symmetry_equiv_pos_as_xyz
1 x,y,z
2 -x,-y,-z
_cell_length_a 6.381(1)
_cell_length_b 7.377(1)
_cell_length_c 15.642(3)
_cell_angle_alpha 94.34(3)
_cell_angle_beta 97.63(3)
_cell_angle_gamma 104.52(3)
_cell_formula_units_Z 2
loop_
_atom_type_symbol
_atom_type_radius_bond
C 0.68
H 0.23
Cl 0.99
Cr 1.35
O 0.68
loop_
_atom_site_label
_atom_site_type_symbol
_atom_site_fract_x
_atom_site_fract_y
_atom_site_fract_z
Cr1 Cr 0.47818(47) 0.27701(37) 0.33651(17)
Cl1 Cl -0.0177(12) 0.65987(91) 0.10491(47)
Cl2 Cl 0.3692(17) 0.79563(90) 0.02711(39)
O1 O 0.8539(25) 0.6216(23) 0.3672(11)
O2 O 0.6694(26) 0.1339(26) 0.1897(10)
O3 O 0.7205(27) 0.0768(29) 0.4591(11)
C1 C 0.7111(31) 0.4844(28) 0.3561(12)
C2 C 0.5940(32) 0.1878(26) 0.2495(12)
C3 C 0.6290(34) 0.1612(30) 0.4108(15)
C4 C 0.2201(30) 0.2575(31) 0.4192(12)
H1 H 0.2528(30) 0.2426(31) 0.4796(12)
C5 C 0.2675(31) 0.4376(28) 0.3906(12)
H2 H 0.3351(31) 0.5459(28) 0.4322(12)
C6 C 0.2616(32) 0.4631(27) 0.3024(10)
C7 C 0.1965(28) 0.2982(22) 0.2414(11)
C8 C 0.1477(29) 0.1247(24) 0.2697(12)
H3 H 0.1335(29) 0.0171(24) 0.2287(12)
C9 C 0.1582(28) 0.1008(24) 0.3583(12)
H4 H 0.1490(28) -0.0218(24) 0.3766(12)
C10 C 0.1778(37) 0.3185(22) 0.1460(11)
H5 H 0.0293(37) 0.3163(22) 0.1239(11)
H6 H 0.2096(37) 0.2115(22) 0.1170(11)
C11 C 0.3270(34) 0.4926(28) 0.1228(13)
H7 H 0.4384(34) 0.4705(28) 0.0909(13)
C12 C 0.4060(34) 0.6679(24) 0.1910(11)
H8 H 0.5561(34) 0.7379(24) 0.1940(11)
C13 C 0.3109(39) 0.6564(26) 0.2706(12)
H9 H 0.4180(39) 0.7406(26) 0.3144(12)
H10 H 0.1802(39) 0.6995(26) 0.2651(12)
C14 C 0.2526(38) 0.6561(20) 0.1035(11)
#END
