
#######################################################################
#
#                 Cambridge Crystallographic Data Centre
#                                CCDC
#
#######################################################################
#
# If this CIF has been generated from an entry in the Cambridge
# Structural Database, then it will include bibliographic, chemical,
# crystal, experimental, refinement or atomic coordinate data resulting
# from the CCDC's data processing and validation procedures.
#
#######################################################################

data_CSD_CIF_PEKRAY
_audit_creation_date 1994-02-02
_audit_creation_method CSD-ConQuest-V1
_database_code_CSD PEKRAY
_chemical_formula_sum 'C4 H12 Cl2 Mn1 N8 O2 S2'
_chemical_formula_moiety
;
C4 H12 Cl2 Mn1 N8 O2 S2
;
_journal_coden_Cambridge 582
_journal_volume 23
_journal_year 1993
_journal_page_first 313
_journal_name_full 'J.Crystallogr.Spectrosc.Res. '
loop_
_publ_author_name
"A.C.Fabretti"
"W.Malavasi"
"M.C.Rossi"
_chemical_name_systematic
;
Diaqua-bis(2,5-diamino-1,3,4-thiadiazole)-dichloro-manganese(ii)
;
_cell_volume   1390.708
_exptl_crystal_colour 'yellow'
_exptl_crystal_density_diffrn 1.88
_diffrn_ambient_temperature ?
_diffrn_special_details
;
The study was carried out at room temperature,in the range 283-303K

;
#These two values have been output from a single CSD field.
_refine_ls_R_factor_gt 0.02
_refine_ls_wR_factor_gt 0.02
_symmetry_cell_setting monoclinic
_symmetry_space_group_name_H-M 'C 2/c'
_symmetry_Int_Tables_number 15
loop_
_symmetry_equiv_pos_site_id
_symmetry_equiv_pos_as_xyz
1 x,y,z
2 1/2+x,1/2+y,z
3 -x,y,1/2-z
4 1/2-x,1/2+y,1/2-z
5 -x,-y,-z
6 -1/2-x,-1/2-y,-z
7 x,-y,-1/2+z
8 -1/2+x,-1/2-y,-1/2+z
_cell_length_a 12.403(4)
_cell_length_b 10.742(2)
_cell_length_c 10.449(5)
_cell_angle_alpha 90
_cell_angle_beta 92.61(3)
_cell_angle_gamma 90
_cell_formula_units_Z 4
loop_
_atom_type_symbol
_atom_type_radius_bond
C 0.68
H 0.23
Cl 0.99
Mn 1.35
N 0.68
O 0.68
S 1.02
loop_
_atom_site_label
_atom_site_type_symbol
_atom_site_fract_x
_atom_site_fract_y
_atom_site_fract_z
Mn1 Mn 0.00000 0.12101(3) 0.25000
N1 N 0.17141(9) 0.1215(1) 0.3381(1)
N2 N 0.19639(9) 0.0339(1) 0.4345(1)
C1 C 0.2538(1) 0.1923(1) 0.3147(1)
S1 S 0.37060(3) 0.15698(3) 0.40583(4)
C2 C 0.2960(1) 0.0404(1) 0.4763(1)
N3 N 0.2533(1) 0.2815(1) 0.2233(1)
N4 N 0.3438(1) -0.0407(2) 0.5612(2)
Cl1 Cl 0.00000 -0.11391(4) 0.25000
Cl2 Cl 0.00000 0.36061(5) 0.25000
O1 O 0.06498(9) 0.1307(1) 0.0598(1)
H1 H 0.30900 0.33500 0.21700
H2 H 0.18700 0.30600 0.19400
H3 H 0.39900 -0.01000 0.61100
H4 H 0.30200 -0.10500 0.58800
H5 H 0.09800 0.07200 0.01600
H6 H 0.02700 0.15800 -0.00600
N1B N -0.17141(9) 0.1215(1) 0.1619(1)
O1B O -0.06498(9) 0.1307(1) 0.4402(1)
N2B N -0.19639(9) 0.0339(1) 0.0655(1)
C1B C -0.2538(1) 0.1923(1) 0.1853(1)
H5B H -0.09800 0.07200 0.48400
H6B H -0.02700 0.15800 0.50600
C2B C -0.2960(1) 0.0404(1) 0.0237(1)
S1B S -0.37060(3) 0.15698(3) 0.09417(4)
N3B N -0.2533(1) 0.2815(1) 0.2767(1)
N4B N -0.3438(1) -0.0407(2) -0.0612(2)
H1B H -0.30900 0.33500 0.28300
H2B H -0.18700 0.30600 0.30600
H3B H -0.39900 -0.01000 -0.11100
H4B H -0.30200 -0.10500 -0.08800
#END
