
#######################################################################
#
#                 Cambridge Crystallographic Data Centre
#                                CCDC
#
#######################################################################
#
# If this CIF has been generated from an entry in the Cambridge
# Structural Database, then it will include bibliographic, chemical,
# crystal, experimental, refinement or atomic coordinate data resulting
# from the CCDC's data processing and validation procedures.
#
#######################################################################

data_CSD_CIF_PELLEX
_audit_creation_date 1998-11-04
_audit_creation_method CSD-ConQuest-V1
_database_code_CSD PELLEX
_database_code_depnum_ccdc_archive 'CCDC 130435'
_chemical_formula_sum 'C26 H24 Co1 N6 O12'
_chemical_formula_moiety
;
C26 H24 Co1 N6 O12
;
_journal_coeditor_code "IUCr OS1013"
_journal_coden_Cambridge 591
_journal_volume 54
_journal_year 1998
_journal_page_first 1242
_journal_name_full 'Acta Crystallogr.,Sect.C:Cryst.Struct.Commun. '
loop_
_publ_author_name
"T.Hokelek"
"H.Necefoglu"
_chemical_name_systematic
;
trans-Diaqua-bis(nicotinamide-N^1^)-bis(4-nitrobenzoato-O)-cobalt(ii)
;
_cell_volume    719.663
_exptl_crystal_colour 'pink'
_exptl_crystal_density_diffrn 1.549
_exptl_crystal_description 'rod shaped'
_exptl_crystal_preparation 'sodium p-nitrobenzoate'
_diffrn_ambient_temperature ?
_diffrn_special_details
;
The study was carried out at room temperature,in the range 283-303K

;
#These two values have been output from a single CSD field.
_refine_ls_R_factor_gt 0.037
_refine_ls_wR_factor_gt 0.037
_symmetry_cell_setting triclinic
_symmetry_space_group_name_H-M 'P -1'
_symmetry_Int_Tables_number 2
loop_
_symmetry_equiv_pos_site_id
_symmetry_equiv_pos_as_xyz
1 x,y,z
2 -x,-y,-z
_cell_length_a 7.5815(8)
_cell_length_b 9.9861(9)
_cell_length_c 10.2413(12)
_cell_angle_alpha 78.417(9)
_cell_angle_beta 88.559(9)
_cell_angle_gamma 71.491(8)
_cell_formula_units_Z 1
loop_
_atom_type_symbol
_atom_type_radius_bond
C 0.68
H 0.23
Co 1.33
N 0.68
O 0.68
loop_
_atom_site_label
_atom_site_type_symbol
_atom_site_fract_x
_atom_site_fract_y
_atom_site_fract_z
Co1 Co 1.00000 0.00000 1.00000
O1 O 0.7288(2) 0.0757(2) 1.0753(2)
O2 O 1.4269(2) 0.3421(2) 0.9991(2)
O3 O 1.1303(2) 0.0174(1) 1.1705(1)
O4 O 0.8851(2) 0.1432(2) 1.2686(2)
O5 O 1.6505(3) 0.2823(3) 1.5357(2)
O6 O 1.4598(3) 0.2835(3) 1.6884(2)
N1 N 1.3191(3) 0.5607(2) 0.8665(2)
N2 N 0.9951(2) 0.2121(2) 0.9057(2)
N3 N 1.5101(3) 0.2650(2) 1.5797(2)
C1 C 1.3087(3) 0.4310(2) 0.9176(2)
C2 C 1.1440(3) 0.3942(2) 0.8766(2)
C3 C 1.1362(3) 0.2578(2) 0.9307(2)
C4 C 0.8558(3) 0.3031(2) 0.8231(2)
C5 C 0.8534(3) 0.4398(2) 0.7642(3)
C6 C 0.9992(3) 0.4866(2) 0.7915(3)
C7 C 1.0562(3) 0.0898(2) 1.2557(2)
C8 C 1.1831(3) 0.1233(2) 1.3470(2)
C9 C 1.1160(3) 0.1669(3) 1.4644(2)
C10 C 1.2242(3) 0.2097(3) 1.5429(2)
C11 C 1.3975(3) 0.2118(2) 1.4997(2)
C12 C 1.4695(3) 0.1672(2) 1.3859(2)
C13 C 1.3610(3) 0.1208(2) 1.3096(2)
H1 H 1.22600 0.62600 0.80400
H2 H 1.42000 0.58800 0.89200
H3 H 1.23600 0.19300 0.98900
H4 H 0.75400 0.27200 0.80500
H5 H 0.75300 0.50100 0.70500
H6 H 0.99900 0.58100 0.75200
H7 H 0.99500 0.16600 1.49100
H8 H 1.18100 0.23800 1.62400
H9 H 1.59000 0.16900 1.36000
H10 H 1.40900 0.08700 1.23200
H11 H 0.63800 0.07800 1.01200
H12 H 0.70700 0.17000 1.09100
O1A O 1.2712(2) -0.0757(2) 0.9247(2)
H11A H 1.36200 -0.07800 0.98800
H12A H 1.29300 -0.17000 0.90900
O3A O 0.8697(2) -0.0174(1) 0.8295(1)
C7A C 0.9438(3) -0.0898(2) 0.7443(2)
O4A O 1.1149(2) -0.1432(2) 0.7314(2)
C8A C 0.8169(3) -0.1233(2) 0.6530(2)
C9A C 0.8840(3) -0.1669(3) 0.5356(2)
C10A C 0.7758(3) -0.2097(3) 0.4571(2)
C11A C 0.6025(3) -0.2118(2) 0.5003(2)
N3A N 0.4899(3) -0.2650(2) 0.4203(2)
O5A O 0.3495(3) -0.2823(3) 0.4643(2)
O6A O 0.5402(3) -0.2835(3) 0.3116(2)
C12A C 0.5305(3) -0.1672(2) 0.6141(2)
C13A C 0.6390(3) -0.1208(2) 0.6904(2)
H10A H 0.59100 -0.08700 0.76800
H9A H 0.41000 -0.16900 0.64000
H8A H 0.81900 -0.23800 0.37600
H7A H 1.00500 -0.16600 0.50900
N2A N 1.0049(2) -0.2121(2) 1.0943(2)
C3A C 0.8638(3) -0.2578(2) 1.0693(2)
C2A C 0.8560(3) -0.3942(2) 1.1234(2)
C1A C 0.6913(3) -0.4310(2) 1.0824(2)
O2A O 0.5731(2) -0.3421(2) 1.0009(2)
N1A N 0.6809(3) -0.5607(2) 1.1335(2)
H1A H 0.77400 -0.62600 1.19600
H2A H 0.58000 -0.58800 1.10800
C6A C 1.0008(3) -0.4866(2) 1.2085(3)
C5A C 1.1466(3) -0.4398(2) 1.2358(3)
C4A C 1.1442(3) -0.3031(2) 1.1769(2)
H4A H 1.24600 -0.27200 1.19500
H5A H 1.24700 -0.50100 1.29500
H6A H 1.00100 -0.58100 1.24800
H3A H 0.76400 -0.19300 1.01100
#END
