
#######################################################################
#
#                 Cambridge Crystallographic Data Centre
#                                CCDC
#
#######################################################################
#
# If this CIF has been generated from an entry in the Cambridge
# Structural Database, then it will include bibliographic, chemical,
# crystal, experimental, refinement or atomic coordinate data resulting
# from the CCDC's data processing and validation procedures.
#
#######################################################################

data_CSD_CIF_PEMKID
_audit_creation_date 2013-03-18
_audit_creation_method CSD-ConQuest-V1
_database_code_CSD PEMKID
_database_code_depnum_ccdc_archive 'CCDC 892241'
_chemical_formula_sum 'C12 H28 Cl2 Cr1 N4'
_chemical_formula_moiety
;
C12 H28 Cl1 Cr1 N4 1+,Cl1 1-
;
_journal_coden_Cambridge 4
_journal_volume 134
_journal_year 2012
_journal_page_first 15269
_journal_name_full 'J.Am.Chem.Soc. '
loop_
_publ_author_name
"A.Yokoyama"
"Jung Eun Han"
"Jaeheung Cho"
"M.Kubo"
"T.Ogura"
"M.A.Siegler"
"K.D.Karlin"
"Woonwoo Nam"
_chemical_name_systematic
;
Chloro-(1,4,7,10-tetramethyl-1,4,7,10-tetraazacyclododecane)-chromium(ii) 
chloride
;
_cell_volume   1701.274
_exptl_crystal_colour 'blue'
_exptl_crystal_density_diffrn 1.371
_exptl_crystal_description 'block'
_diffrn_ambient_temperature 170
#These two values have been output from a single CSD field.
_refine_ls_R_factor_gt 0.0195
_refine_ls_wR_factor_gt 0.0195
_symmetry_cell_setting monoclinic
_symmetry_space_group_name_H-M 'C 2/c'
_symmetry_Int_Tables_number 15
loop_
_symmetry_equiv_pos_site_id
_symmetry_equiv_pos_as_xyz
1 x,y,z
2 -x,y,1/2-z
3 1/2+x,1/2+y,z
4 1/2-x,1/2+y,1/2-z
5 -x,-y,-z
6 x,-y,-1/2+z
7 -1/2-x,-1/2-y,-z
8 -1/2+x,-1/2-y,-1/2+z
_cell_length_a 8.4888(3)
_cell_length_b 23.1287(8)
_cell_length_c 8.6817(3)
_cell_angle_alpha 90
_cell_angle_beta 93.537(2)
_cell_angle_gamma 90
_cell_formula_units_Z 4
loop_
_atom_type_symbol
_atom_type_radius_bond
C 0.68
H 0.23
Cl 0.99
Cr 1.39
N 0.68
loop_
_atom_site_label
_atom_site_type_symbol
_atom_site_fract_x
_atom_site_fract_y
_atom_site_fract_z
Cr1 Cr 1.00000 0.103435(11) 0.25000
Cl1 Cl 1.00000 -0.000863(18) 0.25000
Cl2 Cl 0.00000 0.30481(2) 0.25000
N1 N 0.84196(12) 0.13067(5) 0.41649(12)
N2 N 0.81844(12) 0.13178(4) 0.08652(12)
C1 C 0.75736(15) 0.17900(6) 0.33299(15)
H1 H 0.83080 0.21180 0.32150
H2 H 0.66950 0.19260 0.39360
C2 C 0.69275(15) 0.15903(6) 0.17446(15)
H3 H 0.60670 0.13080 0.18650
H4 H 0.64810 0.19260 0.11590
C3 C 0.90237(15) 0.17654(6) -0.00165(15)
H5 H 0.92210 0.21120 0.06380
H6 H 0.83550 0.18820 -0.09380
C4 C 1.05852(16) 0.15273(6) -0.05134(15)
H7 H 1.03780 0.12100 -0.12630
H8 H 1.11620 0.18360 -0.10320
C5 C 0.74690(16) 0.08718(6) -0.01971(16)
H9 H 0.69510 0.05760 0.04030
H10 H 0.82960 0.06910 -0.07730
H11 H 0.66880 0.10540 -0.09210
C6 C 0.72865(16) 0.08752(6) 0.47139(16)
H12 H 0.78670 0.05650 0.52700
H13 H 0.66680 0.07120 0.38280
H14 H 0.65760 0.10640 0.54070
N1A N 1.15804(12) 0.13067(5) 0.08351(12)
N2A N 1.18156(12) 0.13178(4) 0.41348(12)
C1A C 1.24264(15) 0.17900(6) 0.16701(15)
H1A H 1.16920 0.21180 0.17850
H2A H 1.33050 0.19260 0.10640
C2A C 1.30725(15) 0.15903(6) 0.32554(15)
H3A H 1.39330 0.13080 0.31350
H4A H 1.35190 0.19260 0.38410
C3A C 1.09763(15) 0.17654(6) 0.50165(15)
H5A H 1.07790 0.21120 0.43620
H6A H 1.16450 0.18820 0.59380
C4A C 0.94148(16) 0.15273(6) 0.55134(15)
H7A H 0.96220 0.12100 0.62630
H8A H 0.88380 0.18360 0.60320
C5A C 1.25310(16) 0.08718(6) 0.51971(16)
H9A H 1.30490 0.05760 0.45970
H10A H 1.17040 0.06910 0.57730
H11A H 1.33120 0.10540 0.59210
C6A C 1.27135(16) 0.08752(6) 0.02861(16)
H12A H 1.21330 0.05650 -0.02700
H13A H 1.33320 0.07120 0.11720
H14A H 1.34240 0.10640 -0.04070
#END
