
#######################################################################
#
#                 Cambridge Crystallographic Data Centre
#                                CCDC
#
#######################################################################
#
# If this CIF has been generated from an entry in the Cambridge
# Structural Database, then it will include bibliographic, chemical,
# crystal, experimental, refinement or atomic coordinate data resulting
# from the CCDC's data processing and validation procedures.
#
#######################################################################

data_CSD_CIF_PEQMAC
_audit_creation_date 2018-03-07
_audit_creation_method CSD-ConQuest-V1
_database_code_CSD PEQMAC
_database_code_depnum_ccdc_archive 'CCDC 1826459'
_chemical_formula_sum 'C11 H12 Cl1 Mn1 N5 O4'
_chemical_formula_moiety
;
C11 H12 Cl1 Mn1 N5 O4
;
_journal_coeditor_code "eb2005"
_journal_coden_Cambridge 1828
_journal_volume 74
_journal_year 2018
_journal_page_first 450
_journal_name_full 'Acta Crystallogr.,Sect.E:Cryst.Commun. '
loop_
_publ_author_name
"M.Sarr"
"M.Diop"
"E.I.Thiam"
"A.H.Barry"
"M.Gaye"
"P.Retailleau"
_chemical_name_systematic
;
aqua-chloro-nitrato-(1-(pyridin-2-yl)-2-(pyridin-2-ylmethylidene)hydrazine)-ma
nganese(ii)
;
_chemical_name_common
;
aqua-chloro-(nitrato)-(2-{2-[(pyridin-2-yl)methylidene]hydrazinyl}pyridine)-ma
nganese
;
_cell_volume    738.211
_exptl_crystal_colour 'yellow'
_exptl_crystal_density_diffrn 1.658
_exptl_crystal_description 'prismatic'
_diffrn_ambient_temperature 293
_refine_special_details
;
C6,N3 and C6A,N3A disordered over two sites with occupancies 0.53:0.47.

;
#These two values have been output from a single CSD field.
_refine_ls_R_factor_gt 0.0337
_refine_ls_wR_factor_gt 0.0337
_symmetry_cell_setting triclinic
_symmetry_space_group_name_H-M 'P -1'
_symmetry_Int_Tables_number 2
loop_
_symmetry_equiv_pos_site_id
_symmetry_equiv_pos_as_xyz
1 x,y,z
2 -x,-y,-z
_cell_length_a 6.9698(1)
_cell_length_b 10.6055(2)
_cell_length_c 10.8476(2)
_cell_angle_alpha 98.784(2)
_cell_angle_beta 97.636(2)
_cell_angle_gamma 108.308(2)
_cell_formula_units_Z 2
loop_
_atom_type_symbol
_atom_type_radius_bond
C 0.68
H 0.23
Cl 0.99
Mn 1.61
N 0.68
O 0.68
loop_
_atom_site_label
_atom_site_type_symbol
_atom_site_fract_x
_atom_site_fract_y
_atom_site_fract_z
Mn1 Mn 0.71914(4) 0.39182(3) 0.74637(2)
Cl1 Cl 0.33417(8) 0.30415(5) 0.69679(5)
O1 O 1.0615(2) 0.46771(14) 0.79278(13)
H1 H 1.14089 0.41676 0.77440
H2 H 1.11814 0.51675 0.86913
O2 O 0.7483(2) 0.38248(13) 0.96166(13)
O3 O 0.7175(3) 0.19991(15) 0.83256(13)
O4 O 0.7546(3) 0.20477(18) 1.03568(15)
N1 N 0.7321(3) 0.61349(16) 0.81806(18)
N2 N 0.7448(2) 0.50621(19) 0.58471(17)
N3 N 0.7437(8) 0.4569(8) 0.4755(5)
H3 H 0.74271 0.49963 0.41430
N4 N 0.7511(3) 0.25742(19) 0.56463(15)
N5 N 0.7400(3) 0.25956(16) 0.94508(15)
C1 C 0.7239(4) 0.6682(2) 0.9358(2)
H4 H 0.70642 0.61302 0.99528
C2 C 0.7400(4) 0.8019(2) 0.9744(3)
H5 H 0.73513 0.83589 1.05777
C3 C 0.7630(5) 0.8828(3) 0.8875(4)
H6 H 0.77346 0.97322 0.91076
C4 C 0.7707(4) 0.8300(3) 0.7648(4)
H7 H 0.78702 0.88411 0.70433
C5 C 0.7536(3) 0.6938(2) 0.7329(3)
C6 C 0.757(2) 0.6350(13) 0.6090(13)
H8 H 0.76670 0.68499 0.54531
C7 C 0.7444(3) 0.3077(3) 0.45798(19)
C8 C 0.7378(4) 0.2313(4) 0.3399(2)
H9 H 0.73228 0.26798 0.26744
C9 C 0.7394(5) 0.1032(4) 0.3320(3)
H10 H 0.73256 0.05026 0.25373
C10 C 0.7511(5) 0.0521(3) 0.4395(3)
H11 H 0.75475 -0.03528 0.43572
C11 C 0.7575(4) 0.1323(3) 0.5545(2)
H12 H 0.76678 0.09723 0.62772
C12? C 0.7462(14) 0.4203(12) 0.4658(9)
H13? H 0.74869 0.45623 0.39274
N6? N 0.755(2) 0.6312(11) 0.6045(10)
H14? H 0.76151 0.67556 0.54419
#END
