
#######################################################################
#
#                 Cambridge Crystallographic Data Centre
#                                CCDC
#
#######################################################################
#
# If this CIF has been generated from an entry in the Cambridge
# Structural Database, then it will include bibliographic, chemical,
# crystal, experimental, refinement or atomic coordinate data resulting
# from the CCDC's data processing and validation procedures.
#
#######################################################################

data_CSD_CIF_PERPIM
_audit_creation_date 2007-01-23
_audit_creation_method CSD-ConQuest-V1
_database_code_CSD PERPIM
_database_code_depnum_ccdc_archive 'CCDC 626734'
_chemical_formula_sum 'C16 H20 Br1 Fe1 N1 O3'
_chemical_formula_moiety
;
C16 H20 Br1 Fe1 N1 O3
;
_journal_coden_Cambridge 1336
_journal_volume 8
_journal_year 2006
_journal_page_first 4389
_journal_name_full 'Org.Lett. '
loop_
_publ_author_name
"I.Williams"
"B.M.Kariuki"
"K.Reeves"
"L.R.Cox"
_chemical_name_systematic
;
tricarbonyl-(\h^4^-(Z)-1-(1-(3-bromo-2-methylprop-2-enyl)pyrrolidin-2-yl)penta
-1,3-diene)-iron
;
_cell_volume    894.110
_exptl_crystal_colour 'colorless'
_exptl_crystal_density_diffrn 1.523
_exptl_crystal_description 'block'
_diffrn_ambient_temperature 296
#These two values have been output from a single CSD field.
_refine_ls_R_factor_gt 0.0608
_refine_ls_wR_factor_gt 0.0608
_symmetry_cell_setting triclinic
_symmetry_space_group_name_H-M 'P -1'
_symmetry_Int_Tables_number 2
loop_
_symmetry_equiv_pos_site_id
_symmetry_equiv_pos_as_xyz
1 x,y,z
2 -x,-y,-z
_cell_length_a 7.3427(2)
_cell_length_b 10.3573(2)
_cell_length_c 12.6116(3)
_cell_angle_alpha 69.111(1)
_cell_angle_beta 86.301(1)
_cell_angle_gamma 87.873(1)
_cell_formula_units_Z 2
loop_
_atom_type_symbol
_atom_type_radius_bond
C 0.68
H 0.23
Br 1.21
Fe 1.34
N 0.68
O 0.68
loop_
_atom_site_label
_atom_site_type_symbol
_atom_site_fract_x
_atom_site_fract_y
_atom_site_fract_z
C1 C 0.1295(11) 0.7416(9) 0.3490(6)
H1 H 0.04870 0.68460 0.32860
H2 H 0.23300 0.76470 0.29550
H3 H 0.06620 0.82470 0.34810
C2 C 0.1937(7) 0.6638(6) 0.4672(5)
H4 H 0.30390 0.61490 0.47570
C3 C 0.0877(7) 0.6648(6) 0.5646(5)
H5 H -0.03070 0.70080 0.55870
C4 C 0.1667(7) 0.6098(6) 0.6707(5)
H6 H 0.10050 0.60670 0.73690
C5 C 0.3497(6) 0.5591(5) 0.6745(4)
H7 H 0.41070 0.55400 0.60910
C6 C 0.4449(6) 0.5134(6) 0.7850(4)
H8 H 0.38970 0.56170 0.83350
C7 C 0.6525(8) 0.5380(8) 0.7696(5)
H9 H 0.70330 0.52410 0.70150
H10 H 0.67960 0.63080 0.76510
C8 C 0.7277(8) 0.4293(9) 0.8769(6)
H11 H 0.82730 0.37670 0.85680
H12 H 0.77170 0.47330 0.92640
C9 C 0.5682(8) 0.3361(7) 0.9350(5)
H13 H 0.60670 0.23970 0.96170
H14 H 0.51600 0.35850 0.99910
C10 C 0.2524(7) 0.3169(6) 0.8920(5)
H15 H 0.16870 0.35030 0.83130
H16 H 0.21430 0.35650 0.94910
C11 C 0.2411(8) 0.1637(6) 0.9437(5)
C12 C 0.1648(10) 0.0977(8) 1.0438(5)
H17 H 0.16420 0.00180 1.06740
C13 C 0.3190(12) 0.0847(9) 0.8715(7)
H18 H 0.44880 0.09640 0.86090
H19 H 0.26550 0.11880 0.79900
H20 H 0.29240 -0.01160 0.90850
C14 C 0.2421(8) 0.9354(7) 0.4809(5)
C15 C 0.5357(7) 0.7557(7) 0.4878(5)
C16 C 0.3896(8) 0.8328(7) 0.6676(5)
N1 N 0.4360(5) 0.3639(5) 0.8465(3)
O1 O 0.1903(7) 1.0423(6) 0.4313(5)
O2 O 0.6677(6) 0.7444(6) 0.4400(4)
O3 O 0.4342(7) 0.8773(6) 0.7324(5)
Fe1 Fe 0.32530(9) 0.76457(8) 0.56363(6)
Br1 Br 0.05542(15) 0.17855(12) 1.14536(7)
#END
