
#######################################################################
#
#                 Cambridge Crystallographic Data Centre
#                                CCDC
#
#######################################################################
#
# If this CIF has been generated from an entry in the Cambridge
# Structural Database, then it will include bibliographic, chemical,
# crystal, experimental, refinement or atomic coordinate data resulting
# from the CCDC's data processing and validation procedures.
#
#######################################################################

data_CSD_CIF_PESJEC
_audit_creation_date 1994-05-10
_audit_creation_method CSD-ConQuest-V1
_database_code_CSD PESJEC
_chemical_formula_sum 'C33 H39 Fe1 Na1 O6 Se3'
_chemical_formula_moiety
;
C33 H39 Fe1 Na1 O6 Se3
;
_journal_coden_Cambridge 186
_journal_year 1993
_journal_page_first 2421
_journal_name_full 'J.Chem.Soc.,Dalton Trans. '
loop_
_publ_author_name
"Wen-Feng Liaw"
"Chia-Huei Lai"
"Chen-Kang Lee"
"Gene-Hsiang Lee"
"Shie-Ming Peng"
_chemical_name_systematic
;
tris(Tetrahydrofuran)-sodium-tris(\m~2~-phenylselenido)-tricarbonyl-iron
;
_cell_volume   2750.658
_exptl_crystal_colour 'dark brown-red'
_exptl_crystal_density_diffrn 1.535
_exptl_special_details
;
Air-sensitive

;
_diffrn_ambient_temperature ?
_diffrn_special_details
;
The study was carried out at room temperature,in the range 283-303K

;
_refine_special_details
;
C11 of a THF is disordered over two positions.

;
#These two values have been output from a single CSD field.
_refine_ls_R_factor_gt 0.027
_refine_ls_wR_factor_gt 0.027
_symmetry_cell_setting rhombohedral
_symmetry_space_group_name_H-M 'R 3'
_symmetry_Int_Tables_number 146
loop_
_symmetry_equiv_pos_site_id
_symmetry_equiv_pos_as_xyz
1 x,y,z
2 1/3+x,2/3+y,2/3+z
3 2/3+x,1/3+y,1/3+z
4 -y,x-y,z
5 -x+y,-x,z
6 1/3-y,2/3+x-y,2/3+z
7 1/3-x+y,2/3-x,2/3+z
8 2/3-y,1/3+x-y,1/3+z
9 2/3-x+y,1/3-x,1/3+z
_cell_length_a 14.402(3)
_cell_length_b 14.402(3)
_cell_length_c 15.313(3)
_cell_angle_alpha 90
_cell_angle_beta 90
_cell_angle_gamma 120
_cell_formula_units_Z 3
loop_
_atom_type_symbol
_atom_type_radius_bond
C 0.68
H 0.23
Fe 1.34
Na 1.57
O 0.68
Se 1.22
loop_
_atom_site_label
_atom_site_type_symbol
_atom_site_fract_x
_atom_site_fract_y
_atom_site_fract_z
Fe1 Fe 0.00000 0.00000 0.04627(14)
Se1 Se -0.11595(8) -0.14583(8) -0.05300
C1 C 0.1001(8) 0.1108(8) 0.1035(6)
C2 C -0.2556(7) -0.2125(7) -0.0052(6)
C3 C -0.2837(9) -0.2747(9) 0.0699(7)
C4 C -0.3854(9) -0.3252(8) 0.1034(7)
C5 C -0.4639(9) -0.3186(8) 0.0638(8)
C6 C -0.4389(9) -0.2561(10) -0.0093(7)
C7 C -0.3356(8) -0.2067(8) -0.0412(5)
O1 O 0.1657(6) 0.1819(6) 0.1427(5)
Na1 Na 0.00000 0.00000 -0.2181(4)
O2 O -0.1298(6) 0.0073(7) -0.2974(5)
C8 C -0.2092(14) 0.0107(17) -0.2715(11)
C9 C -0.2620(15) 0.0359(16) -0.3389(13)
C10 C -0.2250(16) 0.0104(17) -0.4136(10)
C11 C -0.176(3) -0.048(3) -0.3768(18)
C12? C -0.1054(22) 0.078(3) -0.3761(19)
H1 H -0.22800 -0.28200 0.09800
H2 H -0.39800 -0.36900 0.15300
H3 H -0.53500 -0.35500 0.08500
H4 H -0.48600 -0.24000 -0.04200
H5 H -0.32000 -0.16000 -0.08900
H6 H -0.26600 -0.06100 -0.25200
H7 H -0.19700 0.05500 -0.22200
H8 H -0.23800 0.11300 -0.33600
H9 H -0.33700 0.00600 -0.33400
H10 H -0.25000 0.01400 -0.47100
H11 H -0.16000 0.07700 -0.41600
H12? H -0.24200 -0.06000 -0.40100
H13 H -0.23500 -0.12100 -0.37000
H14 H -0.13000 -0.04800 -0.41900
H15? H -0.05900 0.07800 -0.42100
H16? H -0.08400 0.15300 -0.37100
Se1C Se 0.14583(8) 0.02988(8) -0.05300
Se1D Se -0.02988(8) 0.11595(8) -0.05300
C1C C -0.1108(8) -0.0107(8) 0.1035(6)
C1D C 0.0107(8) -0.1001(8) 0.1035(6)
O2C O -0.0073(6) -0.1371(7) -0.2974(5)
O2D O 0.1371(6) 0.1298(7) -0.2974(5)
C2C C 0.2125(7) -0.0431(7) -0.0052(6)
C2D C 0.0431(7) 0.2556(7) -0.0052(6)
O1C O -0.1819(6) -0.0162(6) 0.1427(5)
O1D O 0.0162(6) -0.1657(6) 0.1427(5)
C8C C -0.0107(14) -0.2199(17) -0.2715(11)
C11C C 0.048(3) -0.128(3) -0.3768(18)
C8D C 0.2199(14) 0.2092(17) -0.2715(11)
C11D C 0.128(3) 0.176(3) -0.3768(18)
C3C C 0.2747(9) -0.0090(9) 0.0699(7)
C7C C 0.2067(8) -0.1289(8) -0.0412(5)
C3D C 0.0090(9) 0.2837(9) 0.0699(7)
C7D C 0.1289(8) 0.3356(8) -0.0412(5)
C9C C -0.0359(15) -0.2979(16) -0.3389(13)
H6C H 0.06100 -0.20500 -0.25200
H7C H -0.05500 -0.25200 -0.22200
C10C C -0.0104(16) -0.2354(17) -0.4136(10)
H13C H 0.12100 -0.11400 -0.37000
H14C H 0.04800 -0.08200 -0.41900
C9D C 0.2979(15) 0.2620(16) -0.3389(13)
H6D H 0.20500 0.26600 -0.25200
H7D H 0.25200 0.19700 -0.22200
C10D C 0.2354(16) 0.2250(17) -0.4136(10)
H13D H 0.11400 0.23500 -0.37000
H14D H 0.08200 0.13000 -0.41900
C4C C 0.3252(9) -0.0602(8) 0.1034(7)
H1C H 0.28200 0.05400 0.09800
C6C C 0.2561(9) -0.1828(10) -0.0093(7)
H5C H 0.16000 -0.16000 -0.08900
C4D C 0.0602(9) 0.3854(8) 0.1034(7)
H1D H -0.05400 0.22800 0.09800
C6D C 0.1828(9) 0.4389(10) -0.0093(7)
H5D H 0.16000 0.32000 -0.08900
H8C H -0.11300 -0.35100 -0.33600
H9C H -0.00600 -0.34300 -0.33400
H10C H -0.01400 -0.26400 -0.47100
H11C H -0.07700 -0.23700 -0.41600
H8D H 0.35100 0.23800 -0.33600
H9D H 0.34300 0.33700 -0.33400
H10D H 0.26400 0.25000 -0.47100
H11D H 0.23700 0.16000 -0.41600
C5C C 0.3186(9) -0.1453(8) 0.0638(8)
H2C H 0.36900 -0.02900 0.15300
H4C H 0.24000 -0.24600 -0.04200
C5D C 0.1453(9) 0.4639(8) 0.0638(8)
H2D H 0.02900 0.39800 0.15300
H4D H 0.24600 0.48600 -0.04200
H3C H 0.35500 -0.18000 0.08500
H3D H 0.18000 0.53500 0.08500
#END
