
#######################################################################
#
#                 Cambridge Crystallographic Data Centre
#                                CCDC
#
#######################################################################
#
# If this CIF has been generated from an entry in the Cambridge
# Structural Database, then it will include bibliographic, chemical,
# crystal, experimental, refinement or atomic coordinate data resulting
# from the CCDC's data processing and validation procedures.
#
#######################################################################

data_CSD_CIF_PETLUY
_audit_creation_date 2018-03-08
_audit_creation_method CSD-ConQuest-V1
_database_code_CSD PETLUY
_database_code_depnum_ccdc_archive 'CCDC 899313'
_chemical_formula_sum 'C32 H22 Co1 N4 O10 S2'
_chemical_formula_moiety
;
C22 H16 Co1 N4 O4 2+,C10 H6 O6 S2 2-
;
_journal_coden_Cambridge 908
_journal_volume 12
_journal_year 2015
_journal_page_first 1227
_journal_name_full 'J.Iran.Chem.Soc. '
loop_
_publ_author_name
"Cao Li"
"Hui-Chao Zhao"
"Yu-Lan Zhu"
"Yu-He Kan"
"Kui-Rong Ma"
"Xiu-Mei Pan"
_chemical_name_systematic
;
diaqua-bis(5H-pyrido[3',2':4,5]cyclopenta[1,2-b]pyridin-5-one)-cobalt(ii) 
naphthalene-1,5-disulfonate
;
_cell_volume    746.579
_exptl_crystal_colour 'orange'
_exptl_crystal_density_diffrn 1.658
_exptl_crystal_description 'block'
_diffrn_ambient_temperature 296
#These two values have been output from a single CSD field.
_refine_ls_R_factor_gt 0.036
_refine_ls_wR_factor_gt 0.036
_symmetry_cell_setting triclinic
_symmetry_space_group_name_H-M 'P -1'
_symmetry_Int_Tables_number 2
loop_
_symmetry_equiv_pos_site_id
_symmetry_equiv_pos_as_xyz
1 x,y,z
2 -x,-y,-z
_cell_length_a 8.1218(16)
_cell_length_b 8.3747(16)
_cell_length_c 12.926(3)
_cell_angle_alpha 71.586(2)
_cell_angle_beta 78.013(2)
_cell_angle_gamma 63.884(2)
_cell_formula_units_Z 1
loop_
_atom_type_symbol
_atom_type_radius_bond
C 0.68
H 0.23
Co 1.26
N 0.68
O 0.68
S 1.02
loop_
_atom_site_label
_atom_site_type_symbol
_atom_site_fract_x
_atom_site_fract_y
_atom_site_fract_z
Co1 Co 0.50000 0.50000 0.00000
O1 O 0.3161(4) 0.8314(4) 0.3968(2)
O2 O 0.7583(3) 0.4857(3) -0.00005(18)
H1 H 0.79930 0.46090 0.06150
H2 H 0.82890 0.44090 -0.05200
N1 N 0.3745(4) 0.7720(4) 0.0358(2)
N2 N 0.4853(4) 0.4062(4) 0.1811(2)
C1 C 0.3053(5) 0.9528(5) -0.0173(3)
H3 H 0.30020 0.98500 -0.09270
C2 C 0.2420(6) 1.0914(5) 0.0354(3)
H4 H 0.19520 1.21340 -0.00510
C3 C 0.2467(5) 1.0528(5) 0.1467(3)
H5 H 0.20640 1.14570 0.18250
C4 C 0.3143(5) 0.8691(5) 0.2028(3)
C5 C 0.3372(5) 0.7675(5) 0.3210(3)
C6 C 0.4063(4) 0.5669(5) 0.3231(3)
C7 C 0.4418(5) 0.4062(5) 0.4043(3)
H6 H 0.42710 0.40520 0.47780
C8 C 0.5008(5) 0.2455(5) 0.3716(3)
H7 H 0.52690 0.13380 0.42420
C9 C 0.5215(5) 0.2491(5) 0.2616(3)
H8 H 0.56200 0.13870 0.24260
C10 C 0.4287(4) 0.5560(4) 0.2160(3)
C11 C 0.3726(4) 0.7398(4) 0.1432(3)
S1 S 0.89342(11) 0.57165(11) 0.23922(6)
O3 O 0.7180(3) 0.7199(4) 0.2499(2)
O4 O 0.8863(4) 0.4347(4) 0.1953(2)
O5 O 1.0337(3) 0.6376(4) 0.17894(19)
C12 C 0.9662(4) 0.4540(4) 0.3743(2)
C13 C 1.0206(5) 0.2677(5) 0.4065(3)
H9 H 1.01720 0.20620 0.35890
C14 C 1.0816(5) 0.1682(5) 0.5112(3)
H10 H 1.12020 0.04110 0.53170
C15 C 1.0851(5) 0.2555(4) 0.5831(3)
H11 H 1.12360 0.18760 0.65260
C16 C 0.9693(4) 0.5517(4) 0.4469(2)
O1A O 0.6839(4) 0.1686(4) -0.3968(2)
O2A O 0.2417(3) 0.5143(3) 0.00005(18)
H1A H 0.20070 0.53910 -0.06150
H2A H 0.17110 0.55910 0.05200
N1A N 0.6255(4) 0.2280(4) -0.0358(2)
N2A N 0.5147(4) 0.5938(4) -0.1811(2)
C1A C 0.6947(5) 0.0472(5) 0.0173(3)
H3A H 0.69980 0.01500 0.09270
C2A C 0.7580(6) -0.0914(5) -0.0354(3)
H4A H 0.80480 -0.21340 0.00510
C3A C 0.7533(5) -0.0528(5) -0.1467(3)
H5A H 0.79360 -0.14570 -0.18250
C4A C 0.6857(5) 0.1309(5) -0.2028(3)
C5A C 0.6628(5) 0.2325(5) -0.3210(3)
C6A C 0.5937(4) 0.4331(5) -0.3231(3)
C7A C 0.5582(5) 0.5938(5) -0.4043(3)
H6A H 0.57290 0.59480 -0.47780
C8A C 0.4992(5) 0.7545(5) -0.3716(3)
H7A H 0.47310 0.86620 -0.42420
C9A C 0.4785(5) 0.7509(5) -0.2616(3)
H8A H 0.43800 0.86130 -0.24260
C10A C 0.5713(4) 0.4440(4) -0.2160(3)
C11A C 0.6274(4) 0.2602(4) -0.1432(3)
S1A S 1.10658(11) 0.42835(11) 0.76078(6)
O3A O 1.2820(3) 0.2801(4) 0.7501(2)
O4A O 1.1137(4) 0.5653(4) 0.8047(2)
O5A O 0.9663(3) 0.3624(4) 0.82106(19)
C12A C 1.0338(4) 0.5460(4) 0.6257(2)
C13A C 0.9794(5) 0.7323(5) 0.5935(3)
H9A H 0.98280 0.79380 0.64110
C14A C 0.9184(5) 0.8318(5) 0.4888(3)
H10A H 0.87980 0.95890 0.46830
C15A C 0.9149(5) 0.7445(4) 0.4169(3)
H11A H 0.87640 0.81240 0.34740
C16A C 1.0307(4) 0.4483(4) 0.5531(2)
#END
