
#######################################################################
#
#                 Cambridge Crystallographic Data Centre
#                                CCDC
#
#######################################################################
#
# If this CIF has been generated from an entry in the Cambridge
# Structural Database, then it will include bibliographic, chemical,
# crystal, experimental, refinement or atomic coordinate data resulting
# from the CCDC's data processing and validation procedures.
#
#######################################################################

data_CSD_CIF_PEVXAP
_audit_creation_date 1994-04-11
_audit_creation_method CSD-ConQuest-V1
_database_code_CSD PEVXAP
_database_code_depnum_ccdc_fiz 'CSD 55699'
_chemical_formula_sum 'C12 H61 Co2 N12 O17 V3'
_chemical_formula_moiety
;
2(C6 H24 Co1 N6 3+),O7 V2 4-,H1 O4 V1 2-,6(H2 O1)
;
_journal_coden_Cambridge 287
_journal_volume 28
_journal_year 1993
_journal_page_first 575
_journal_name_full 'Mater.Res.Bull. '
loop_
_publ_author_name
"S.Aschwanden"
"H.W.Schmalle"
"A.Reller"
"H.R.Oswald"
_chemical_name_systematic
;
bis(tris(Ethylenediamine-N,N')-cobalt) divanadate(v) hydrogen-vanadate(v) 
hexahydrate
;
_cell_volume    850.112
_exptl_crystal_density_diffrn 1.79
_diffrn_ambient_temperature ?
_diffrn_special_details
;
The study was carried out at room temperature,in the range 283-303K

;
#These two values have been output from a single CSD field.
_refine_ls_R_factor_gt 0.0344
_refine_ls_wR_factor_gt 0.0344
_symmetry_cell_setting triclinic
_symmetry_space_group_name_H-M 'P 1'
_symmetry_Int_Tables_number 1
loop_
_symmetry_equiv_pos_site_id
_symmetry_equiv_pos_as_xyz
1 x,y,z
_cell_length_a 8.782(3)
_cell_length_b 8.967(3)
_cell_length_c 12.562(2)
_cell_angle_alpha 89.89(2)
_cell_angle_beta 105.30(2)
_cell_angle_gamma 116.01(3)
_cell_formula_units_Z 1
loop_
_atom_type_symbol
_atom_type_radius_bond
C 0.68
H 0.23
Co 1.20
N 0.68
O 0.68
V 1.30
loop_
_atom_site_label
_atom_site_type_symbol
_atom_site_fract_x
_atom_site_fract_y
_atom_site_fract_z
Co1 Co 0.00000 0.00000 0.00000
N1 N -0.0457(5) 0.1698(4) 0.0657(3)
C1 C 0.0921(6) 0.3388(5) 0.0596(4)
C2 C 0.1277(6) 0.3313(5) -0.0507(5)
N2 N 0.1619(5) 0.1854(5) -0.0613(3)
N3 N -0.1815(5) -0.1785(4) 0.0539(3)
C3 C -0.3590(6) -0.2192(5) -0.0205(4)
C4 C -0.3458(6) -0.2093(5) -0.1383(4)
N4 N -0.1948(5) -0.0459(4) -0.1358(3)
N5 N 0.1939(5) 0.0343(5) 0.1352(3)
C5 C 0.2928(8) -0.0564(8) 0.1138(5)
C6 C 0.1712(9) -0.2068(7) 0.0371(5)
N6 N 0.0618(5) -0.1617(4) -0.0595(3)
Co2 Co 0.75696(8) 0.40303(7) 0.54321(5)
N7 N 0.5557(5) 0.2409(5) 0.4211(3)
C7 C 0.5251(7) 0.0696(6) 0.4440(4)
C8 C 0.5441(6) 0.0668(5) 0.5657(4)
N8 N 0.7155(5) 0.2099(5) 0.6274(3)
N9 N 0.9654(5) 0.5468(4) 0.6661(3)
C9 C 1.1137(6) 0.5093(5) 0.6654(3)
C10 C 1.1099(6) 0.4958(6) 0.5455(4)
N10 N 0.9258(5) 0.3719(5) 0.4809(3)
N11 N 0.7790(5) 0.5936(4) 0.4591(2)
C11 C 0.6318(6) 0.6332(5) 0.4604(4)
C12 C 0.6162(6) 0.6245(5) 0.5762(4)
N12 N 0.6060(5) 0.4626(4) 0.6071(3)
V1 V 0.0638(1) 0.04918(9) 0.59567(6)
O1 O -0.0357(4) 0.0618(4) 0.4646(2)
O2 O 0.0860(5) -0.1267(4) 0.6006(3)
O3 O -0.0462(5) 0.0606(4) 0.6832(3)
O4 O 0.2811(4) 0.2296(4) 0.6356(2)
V2 V 0.7008(1) 0.3989(1) 0.17101(6)
V3 V 0.6672(1) 0.36197(9) -0.10144(6)
O5 O 0.8073(5) 0.5034(4) -0.1639(2)
O6 O 0.4679(4) 0.3493(4) -0.1522(3)
O7 O 0.6604(5) 0.1754(4) -0.1252(4)
O8 O 0.5015(7) 0.3780(6) 0.1624(5)
O9 O 0.8605(11) 0.5590(8) 0.2660(5)
O10 O 0.7132(9) 0.2388(9) 0.2192(7)
O11 O 0.7556(5) 0.4468(5) 0.0444(2)
O12 O 0.2098(6) 0.2632(5) 0.3468(4)
O13 O -0.2475(5) -0.0319(5) 0.2444(3)
O14 O 0.0800(7) 0.8721(6) 0.3225(4)
O15 O 0.3178(5) 0.9137(5) 0.8143(3)
O16 O 0.4476(4) 0.6610(4) 0.1887(3)
O17 O 0.2203(7) 0.5713(6) 0.3208(4)
H1 H -0.04190 0.17040 0.13940
H2 H -0.15480 0.15930 0.03260
H3 H 0.17900 0.37390 0.12690
H4 H 0.05380 0.40610 0.07000
H5 H -0.18830 -0.15790 0.12080
H6 H -0.13940 -0.27000 0.05540
H7 H -0.42280 -0.32490 -0.00050
H8 H -0.40620 -0.15430 -0.00040
H9 H 0.15100 0.00390 0.19540
H10 H 0.28400 0.15690 0.15170
H11 H 0.41790 0.02840 0.10040
H12 H 0.31630 -0.11440 0.17860
H13 H 0.27050 0.22330 -0.00260
H14 H 0.17600 0.17260 -0.14650
H15 H 0.21870 0.44160 -0.05890
H16 H 0.02520 0.32170 -0.11760
H17 H -0.24640 0.04020 -0.13810
H18 H -0.15660 -0.03360 -0.20260
H19 H -0.31030 -0.28910 -0.16210
H20 H -0.45190 -0.21150 -0.17800
H21 H -0.00820 -0.23820 -0.10740
H22 H 0.13440 -0.12110 -0.10440
H23 H 0.22120 -0.27540 -0.01630
H24 H 0.15010 -0.26160 0.11310
H25 H 0.57040 0.23670 0.35610
H26 H 0.44400 0.23140 0.41240
H27 H 0.59140 0.04520 0.41920
H28 H 0.40920 -0.00620 0.39620
H29 H 0.96430 0.55620 0.73740
H30 H 0.95850 0.64910 0.64920
H31 H 1.20680 0.59580 0.70790
H32 H 1.08560 0.40260 0.69590
H33 H 0.77880 0.60860 0.36570
H34 H 0.83040 0.62580 0.52990
H35 H 0.54860 0.56550 0.40140
H36 H 0.65910 0.72180 0.45060
H37 H 0.80380 0.15900 0.63070
H38 H 0.70560 0.23540 0.70340
H39 H 0.54040 -0.04640 0.57530
H40 H 0.47000 0.06160 0.59280
H41 H 0.93740 0.27130 0.48250
H42 H 0.89810 0.37950 0.40010
H43 H 1.19550 0.47290 0.53900
H44 H 1.14380 0.59460 0.51600
H45 H 0.65790 0.47900 0.68500
H46 H 0.48860 0.38390 0.59430
H47 H 0.70870 0.71400 0.62410
H48 H 0.52200 0.64070 0.58650
H49 H 0.32520 0.27450 0.70660
H50 H 0.21060 0.37060 0.33490
H51 H 0.11540 0.20540 0.38320
H52 H -0.17650 -0.00130 0.31570
H53 H -0.22810 0.07880 0.24190
H54 H 0.01450 0.76120 0.30600
H55 H 0.09400 0.95900 0.37880
H56 H 0.40810 0.98770 0.83830
H57 H 0.26150 0.91330 0.75430
H58 H 0.54560 0.75280 0.20740
H59 H 0.49610 0.59790 0.18900
H60 H 0.26200 0.60650 0.27520
H61 H 0.16200 0.64170 0.33240
#END
