
#######################################################################
#
#                 Cambridge Crystallographic Data Centre
#                                CCDC
#
#######################################################################
#
# If this CIF has been generated from an entry in the Cambridge
# Structural Database, then it will include bibliographic, chemical,
# crystal, experimental, refinement or atomic coordinate data resulting
# from the CCDC's data processing and validation procedures.
#
#######################################################################

data_CSD_CIF_PEYKUA
_audit_creation_date 2007-04-17
_audit_creation_method CSD-ConQuest-V1
_database_code_CSD PEYKUA
_database_code_depnum_ccdc_archive 'CCDC 602561'
_chemical_formula_sum 'C16 H20 Mn1 N2 O18'
_chemical_formula_moiety
;
C16 H16 Mn1 N2 O16,2(H2 O1)
;
_journal_coeditor_code "IUCr AV3055"
_journal_coden_Cambridge 591
_journal_volume 63
_journal_year 2007
_journal_page_first m117
_journal_name_full 'Acta Crystallogr.,Sect.C:Cryst.Struct.Commun. '
loop_
_publ_author_name
"Li-Qin Xiong"
"Chuan-Min Qi"
"Hui Yu"
"Sheng-Wen Liang"
_chemical_name_systematic
;
Tetra-aqua-bis(5-carboxy-2-nitrobenzoato-O)-manganese(ii) dihydrate
;
_cell_volume    557.356
_exptl_crystal_colour 'colorless'
_exptl_crystal_density_diffrn 1.738
_exptl_crystal_description 'block'
_diffrn_ambient_temperature 273
#These two values have been output from a single CSD field.
_refine_ls_R_factor_gt 0.0296
_refine_ls_wR_factor_gt 0.0296
_symmetry_cell_setting triclinic
_symmetry_space_group_name_H-M 'P -1'
_symmetry_Int_Tables_number 2
loop_
_symmetry_equiv_pos_site_id
_symmetry_equiv_pos_as_xyz
1 x,y,z
2 -x,-y,-z
_cell_length_a 7.355(4)
_cell_length_b 7.965(4)
_cell_length_c 11.056(6)
_cell_angle_alpha 73.827(8)
_cell_angle_beta 83.588(7)
_cell_angle_gamma 63.647(7)
_cell_formula_units_Z 1
loop_
_atom_type_symbol
_atom_type_radius_bond
C 0.68
H 0.23
Mn 1.35
N 0.68
O 0.68
loop_
_atom_site_label
_atom_site_type_symbol
_atom_site_fract_x
_atom_site_fract_y
_atom_site_fract_z
Mn1 Mn 0.00000 1.00000 0.50000
O1 O -0.0201(2) 0.9464(2) 0.32299(13)
O2 O 0.1911(3) 0.6336(2) 0.37183(15)
O3 O 0.4305(2) 0.7371(2) -0.11896(14)
H1 H 0.49980 0.73140 -0.18250
O4 O 0.2952(2) 0.5942(2) -0.20296(13)
O5 O -0.5054(2) 0.8809(3) 0.20446(17)
O6 O -0.2785(3) 0.7428(3) 0.35109(14)
O7 O 0.3273(2) 0.9039(2) 0.48277(15)
H2 H 0.40600 0.85760 0.54700
H3 H 0.37940 0.85590 0.42020
O8 O -0.0371(2) 1.2945(2) 0.39871(13)
H4 H -0.11950 1.33940 0.33670
H5 H -0.08330 1.34700 0.46000
N1 N -0.3294(3) 0.8061(2) 0.24005(17)
C1 C 0.0658(3) 0.7828(3) 0.30173(18)
C2 C 0.0175(3) 0.7680(3) 0.17634(17)
C3 C 0.1659(3) 0.7385(3) 0.08529(17)
H6 H 0.29170 0.72890 0.10200
C4 C 0.1289(3) 0.7232(3) -0.03059(17)
C5 C -0.0604(3) 0.7434(3) -0.05823(18)
H7 H -0.08490 0.73420 -0.13630
C6 C -0.2121(3) 0.7772(3) 0.02976(19)
H8 H -0.34040 0.79390 0.01140
C7 C -0.1693(3) 0.7855(3) 0.14552(18)
C8 C 0.2910(3) 0.6791(3) -0.12654(17)
O9 O 0.6331(2) 0.7165(2) 0.67225(14)
H9 H 0.70130 0.78250 0.64460
H10 H 0.69330 0.59800 0.66960
O1A O 0.0201(2) 1.0536(2) 0.67701(13)
O2A O -0.1911(3) 1.3664(2) 0.62817(15)
O3A O -0.4305(2) 1.2629(2) 1.11896(14)
H1A H -0.49980 1.26860 1.18250
O4A O -0.2952(2) 1.4058(2) 1.20296(13)
O5A O 0.5054(2) 1.1191(3) 0.79554(17)
O6A O 0.2785(3) 1.2572(3) 0.64891(14)
O7A O -0.3273(2) 1.0961(2) 0.51723(15)
H2A H -0.40600 1.14240 0.45300
H3A H -0.37940 1.14410 0.57980
O8A O 0.0371(2) 0.7055(2) 0.60129(13)
H4A H 0.11950 0.66060 0.66330
H5A H 0.08330 0.65300 0.54000
N1A N 0.3294(3) 1.1939(2) 0.75995(17)
C1A C -0.0658(3) 1.2172(3) 0.69827(18)
C2A C -0.0175(3) 1.2320(3) 0.82366(17)
C3A C -0.1659(3) 1.2615(3) 0.91471(17)
H6A H -0.29170 1.27110 0.89800
C4A C -0.1289(3) 1.2768(3) 1.03059(17)
C5A C 0.0604(3) 1.2566(3) 1.05823(18)
H7A H 0.08490 1.26580 1.13630
C6A C 0.2121(3) 1.2228(3) 0.97024(19)
H8A H 0.34040 1.20610 0.98860
C7A C 0.1693(3) 1.2145(3) 0.85448(18)
C8A C -0.2910(3) 1.3209(3) 1.12654(17)
#END
