
#######################################################################
#
#                 Cambridge Crystallographic Data Centre
#                                CCDC
#
#######################################################################
#
# If this CIF has been generated from an entry in the Cambridge
# Structural Database, then it will include bibliographic, chemical,
# crystal, experimental, refinement or atomic coordinate data resulting
# from the CCDC's data processing and validation procedures.
#
#######################################################################

data_CSD_CIF_PEYRUH
_audit_creation_date 2007-04-17
_audit_creation_method CSD-ConQuest-V1
_database_code_CSD PEYRUH
_database_code_depnum_ccdc_archive 'CCDC 267115'
_chemical_formula_sum 'C22 H30 Co1 N4 O14'
_chemical_formula_moiety
;
C22 H26 Co1 N4 O12,2(H2 O1)
;
_journal_coden_Cambridge 1287
_journal_volume 18
_journal_year 2006
_journal_page_first 1746
_journal_name_full 'Asian J.Chem. '
loop_
_publ_author_name
"Shu-Sheng Zhang"
"Cai-Feng Ding"
"Bing-Qing Tian"
"Xue-Mei Li"
"Hong Xu"
"Ping-Kai Ouyang"
_chemical_name_systematic
;
Tetra-aqua-bis(N'-acetoxybenzimidazole-N-acetato-O)-cobalt(ii) dihydrate
;
_cell_volume    638.658
_exptl_crystal_colour 'pink'
_exptl_crystal_density_diffrn 1.647
_exptl_crystal_description 'column'
_diffrn_ambient_temperature 293
#These two values have been output from a single CSD field.
_refine_ls_R_factor_gt 0.05
_refine_ls_wR_factor_gt 0.05
_symmetry_cell_setting triclinic
_symmetry_space_group_name_H-M 'P -1'
_symmetry_Int_Tables_number 2
loop_
_symmetry_equiv_pos_site_id
_symmetry_equiv_pos_as_xyz
1 x,y,z
2 -x,-y,-z
_cell_length_a 7.4306(11)
_cell_length_b 9.4379(14)
_cell_length_c 9.6537(14)
_cell_angle_alpha 81.449(2)
_cell_angle_beta 76.030(2)
_cell_angle_gamma 77.766(2)
_cell_formula_units_Z 1
loop_
_atom_type_symbol
_atom_type_radius_bond
C 0.68
H 0.23
Co 1.33
N 0.68
O 0.68
loop_
_atom_site_label
_atom_site_type_symbol
_atom_site_fract_x
_atom_site_fract_y
_atom_site_fract_z
Co1 Co 0.00000 0.50000 0.00000
O1 O 0.0595(3) 0.2950(2) -0.0782(3)
O2 O -0.2827(3) 0.4689(3) 0.0722(3)
O3 O 0.5869(3) -0.1465(3) 0.1233(3)
O4 O 0.4568(3) -0.2840(2) 0.0213(3)
O5 O 0.0988(4) 0.5795(2) 0.3071(3)
O6 O 0.0647(3) 0.4015(2) 0.1929(2)
N1 N 0.2515(3) -0.0091(2) 0.2655(2)
N2 N 0.2621(3) 0.1893(2) 0.3521(2)
C1 C 0.4491(4) -0.1868(3) 0.0986(3)
C2 C 0.2530(4) -0.1074(4) 0.1624(4)
C3 C 0.2451(4) -0.0466(3) 0.4112(3)
C4 C 0.2333(4) -0.1776(3) 0.4973(4)
C5 C 0.2346(5) -0.1759(4) 0.6399(4)
C6 C 0.2481(5) -0.0514(4) 0.6941(4)
C7 C 0.2586(4) 0.0796(4) 0.6094(3)
C8 C 0.2541(3) 0.0790(3) 0.4667(3)
C9 C 0.2633(4) 0.1311(3) 0.2346(3)
C10 C 0.2605(6) 0.3432(3) 0.3626(4)
C11 C 0.1281(4) 0.4510(3) 0.2811(3)
H1 H 0.231(5) -0.252(4) 0.458(3)
H2 H 0.210(5) -0.053(4) 0.094(4)
H3 H 0.256(5) 0.177(4) 0.145(4)
H4 H -0.346(6) 0.522(4) 0.052(4)
H5 H -0.322(6) 0.396(5) 0.050(4)
H6 H 0.185(7) 0.234(5) -0.080(5)
H7 H 0.177(4) -0.172(3) 0.212(3)
H8 H 0.227(6) -0.264(5) 0.706(5)
H9 H 0.065(8) 0.304(6) -0.141(5)
H10 H 0.397(6) 0.361(4) 0.307(4)
H11 H 0.210(8) 0.339(6) 0.451(6)
H12 H 0.284(5) 0.160(4) 0.644(4)
H13 H 0.248(5) -0.057(4) 0.793(4)
O7 O 0.3964(19) 0.4349(12) -0.3758(12)
H14 H 0.31170 0.48200 -0.31460
H15 H 0.47100 0.37580 -0.33060
O1A O -0.0595(3) 0.7050(2) 0.0782(3)
O2A O 0.2827(3) 0.5311(3) -0.0722(3)
O3A O -0.5869(3) 1.1465(3) -0.1233(3)
O4A O -0.4568(3) 1.2840(2) -0.0213(3)
O5A O -0.0988(4) 0.4205(2) -0.3071(3)
O6A O -0.0647(3) 0.5985(2) -0.1929(2)
N1A N -0.2515(3) 1.0091(2) -0.2655(2)
N2A N -0.2621(3) 0.8107(2) -0.3521(2)
C1A C -0.4491(4) 1.1868(3) -0.0986(3)
C2A C -0.2530(4) 1.1074(4) -0.1624(4)
C3A C -0.2451(4) 1.0466(3) -0.4112(3)
C4A C -0.2333(4) 1.1776(3) -0.4973(4)
C5A C -0.2346(5) 1.1759(4) -0.6399(4)
C6A C -0.2481(5) 1.0514(4) -0.6941(4)
C7A C -0.2586(4) 0.9204(4) -0.6094(3)
C8A C -0.2541(3) 0.9210(3) -0.4667(3)
C9A C -0.2633(4) 0.8689(3) -0.2346(3)
C10A C -0.2605(6) 0.6568(3) -0.3626(4)
C11A C -0.1281(4) 0.5490(3) -0.2811(3)
H1A H -0.231(5) 1.252(4) -0.458(3)
H2A H -0.210(5) 1.053(4) -0.094(4)
H3A H -0.256(5) 0.823(4) -0.145(4)
H4A H 0.346(6) 0.478(4) -0.052(4)
H5A H 0.322(6) 0.604(5) -0.050(4)
H6A H -0.185(7) 0.766(5) 0.080(5)
H7A H -0.177(4) 1.172(3) -0.212(3)
H8A H -0.227(6) 1.264(5) -0.706(5)
H9A H -0.065(8) 0.696(6) 0.141(5)
H10A H -0.397(6) 0.639(4) -0.307(4)
H11A H -0.210(8) 0.661(6) -0.451(6)
H12A H -0.284(5) 0.840(4) -0.644(4)
H13A H -0.248(5) 1.057(4) -0.793(4)
#END
