
#######################################################################
#
#                 Cambridge Crystallographic Data Centre
#                                CCDC
#
#######################################################################
#
# If this CIF has been generated from an entry in the Cambridge
# Structural Database, then it will include bibliographic, chemical,
# crystal, experimental, refinement or atomic coordinate data resulting
# from the CCDC's data processing and validation procedures.
#
#######################################################################

data_CSD_CIF_PICYCR
_audit_creation_date 1978-07-28
_audit_creation_method CSD-ConQuest-V1
_database_code_CSD PICYCR
_database_code_depnum_ccdc_archive 'CCDC 1233051'
_chemical_formula_sum 'C42 H30 Cr1 N6'
_chemical_formula_moiety
;
C42 H30 Cr1 N6
;
_journal_coden_Cambridge 3
_journal_volume 32
_journal_year 1978
_journal_page_first 47
_journal_name_full 'Acta Chem.Scand. '
loop_
_publ_author_name
"E.Ljungstrom"
_chemical_name_systematic
;
hexakis(Phenyl-isocyanide)-chromium(0)
;
_cell_volume    838.459
_exptl_crystal_density_diffrn 1.328
_diffrn_ambient_temperature 168.15
#These two values have been output from a single CSD field.
_refine_ls_R_factor_gt 0.044
_refine_ls_wR_factor_gt 0.044
_symmetry_cell_setting rhombohedral
_symmetry_space_group_name_H-M 'R -3'
_symmetry_Int_Tables_number 148
loop_
_symmetry_equiv_pos_site_id
_symmetry_equiv_pos_as_xyz
1 x,y,z
2 z,x,y
3 y,z,x
4 -x,-y,-z
5 -z,-x,-y
6 -y,-z,-x
_cell_length_a 10.574(7)
_cell_length_b 10.574(7)
_cell_length_c 10.574(7)
_cell_angle_alpha 111.41(5)
_cell_angle_beta 111.41(5)
_cell_angle_gamma 111.41(5)
_cell_formula_units_Z 1
loop_
_atom_type_symbol
_atom_type_radius_bond
C 0.68
H 0.23
Cr 1.35
N 0.68
loop_
_atom_site_label
_atom_site_type_symbol
_atom_site_fract_x
_atom_site_fract_y
_atom_site_fract_z
Cr1 Cr 0.00000 0.00000 0.00000
C1 C 0.07970 0.22630 0.07090
N1 N 0.14000 0.36830 0.12770
C2 C 0.19130 0.53040 0.18410
C3 C 0.18920 0.58090 0.07860
C4 C 0.23280 0.74010 0.13130
C5 C 0.27870 0.84940 0.28800
C6 C 0.28280 0.79970 0.39370
C7 C 0.23820 0.64020 0.34210
H1 H 0.16100 0.50500 -0.03100
H2 H 0.22700 0.77300 0.06100
H3 H 0.30800 0.95500 0.32100
H4 H 0.31200 0.87700 0.49800
H5 H 0.24600 0.61500 0.41800
C1C C -0.07970 -0.22630 -0.07090
C1A C 0.07090 0.07970 0.22630
C1D C -0.07090 -0.07970 -0.22630
C1B C 0.22630 0.07090 0.07970
C1E C -0.22630 -0.07090 -0.07970
N1C N -0.14000 -0.36830 -0.12770
N1A N 0.12770 0.14000 0.36830
N1D N -0.12770 -0.14000 -0.36830
N1B N 0.36830 0.12770 0.14000
N1E N -0.36830 -0.12770 -0.14000
C2C C -0.19130 -0.53040 -0.18410
C2A C 0.18410 0.19130 0.53040
C2D C -0.18410 -0.19130 -0.53040
C2B C 0.53040 0.18410 0.19130
C2E C -0.53040 -0.18410 -0.19130
C3C C -0.18920 -0.58090 -0.07860
C7C C -0.23820 -0.64020 -0.34210
C3A C 0.07860 0.18920 0.58090
C7A C 0.34210 0.23820 0.64020
C3D C -0.07860 -0.18920 -0.58090
C7D C -0.34210 -0.23820 -0.64020
C3B C 0.58090 0.07860 0.18920
C7B C 0.64020 0.34210 0.23820
C3E C -0.58090 -0.07860 -0.18920
C7E C -0.64020 -0.34210 -0.23820
C4C C -0.23280 -0.74010 -0.13130
H1C H -0.16100 -0.50500 0.03100
C6C C -0.28280 -0.79970 -0.39370
H5C H -0.24600 -0.61500 -0.41800
C4A C 0.13130 0.23280 0.74010
H1A H -0.03100 0.16100 0.50500
C6A C 0.39370 0.28280 0.79970
H5A H 0.41800 0.24600 0.61500
C4D C -0.13130 -0.23280 -0.74010
H1D H 0.03100 -0.16100 -0.50500
C6D C -0.39370 -0.28280 -0.79970
H5D H -0.41800 -0.24600 -0.61500
C4B C 0.74010 0.13130 0.23280
H1B H 0.50500 -0.03100 0.16100
C6B C 0.79970 0.39370 0.28280
H5B H 0.61500 0.41800 0.24600
C4E C -0.74010 -0.13130 -0.23280
H1E H -0.50500 0.03100 -0.16100
C6E C -0.79970 -0.39370 -0.28280
H5E H -0.61500 -0.41800 -0.24600
C5C C -0.27870 -0.84940 -0.28800
H2C H -0.22700 -0.77300 -0.06100
H4C H -0.31200 -0.87700 -0.49800
C5A C 0.28800 0.27870 0.84940
H2A H 0.06100 0.22700 0.77300
H4A H 0.49800 0.31200 0.87700
C5D C -0.28800 -0.27870 -0.84940
H2D H -0.06100 -0.22700 -0.77300
H4D H -0.49800 -0.31200 -0.87700
C5B C 0.84940 0.28800 0.27870
H2B H 0.77300 0.06100 0.22700
H4B H 0.87700 0.49800 0.31200
C5E C -0.84940 -0.28800 -0.27870
H2E H -0.77300 -0.06100 -0.22700
H4E H -0.87700 -0.49800 -0.31200
H3C H -0.30800 -0.95500 -0.32100
H3A H 0.32100 0.30800 0.95500
H3D H -0.32100 -0.30800 -0.95500
H3B H 0.95500 0.32100 0.30800
H3E H -0.95500 -0.32100 -0.30800
#END
