
#######################################################################
#
#                 Cambridge Crystallographic Data Centre
#                                CCDC
#
#######################################################################
#
# If this CIF has been generated from an entry in the Cambridge
# Structural Database, then it will include bibliographic, chemical,
# crystal, experimental, refinement or atomic coordinate data resulting
# from the CCDC's data processing and validation procedures.
#
#######################################################################

data_CSD_CIF_PIFXUZ
_audit_creation_date 2013-07-19
_audit_creation_method CSD-ConQuest-V1
_database_code_CSD PIFXUZ
_database_code_depnum_ccdc_archive 'CCDC 951301'
_chemical_formula_sum 'C19 H23 Fe1 N1 O1'
_chemical_formula_moiety
;
C19 H23 Fe1 N1 O1
;
_journal_coden_Cambridge 579
_journal_volume 32
_journal_year 2013
_journal_page_first 1797
_journal_name_full 'Organometallics '
loop_
_publ_author_name
"S.E.Kalman"
"A.Petit"
"T.Brent Gunnoe"
"D.H.Ess"
"T.R.Cundari"
"M.Sabat"
_chemical_name_systematic
;
(\h^5^-Pentamethylcyclopentadienyl)-acetonitrile-carbonyl-phenyl-iron(ii)
;
_cell_volume    852.974
_exptl_crystal_colour 'red'
_exptl_crystal_density_diffrn 1.313
_exptl_crystal_description 'plate'
_diffrn_ambient_temperature 153
#These two values have been output from a single CSD field.
_refine_ls_R_factor_gt 0.0294
_refine_ls_wR_factor_gt 0.0294
_symmetry_cell_setting triclinic
_symmetry_space_group_name_H-M 'P -1'
_symmetry_Int_Tables_number 2
loop_
_symmetry_equiv_pos_site_id
_symmetry_equiv_pos_as_xyz
1 x,y,z
2 -x,-y,-z
_cell_length_a 8.2307(1)
_cell_length_b 8.4998(2)
_cell_length_c 13.3303(2)
_cell_angle_alpha 73.158(1)
_cell_angle_beta 84.287(1)
_cell_angle_gamma 72.891(1)
_cell_formula_units_Z 2
loop_
_atom_type_symbol
_atom_type_radius_bond
C 0.68
H 0.23
Fe 1.52
N 0.68
O 0.68
loop_
_atom_site_label
_atom_site_type_symbol
_atom_site_fract_x
_atom_site_fract_y
_atom_site_fract_z
Fe1 Fe 0.76281(2) 0.68319(2) 0.741467(12)
O1 O 1.09731(15) 0.7076(2) 0.66252(12)
N1 N 0.78066(14) 0.68219(14) 0.88286(9)
C1 C 0.65400(16) 0.90572(17) 0.62253(10)
C2 C 0.55310(16) 0.90469(16) 0.71488(10)
C3 C 0.49400(15) 0.75350(16) 0.74244(9)
C4 C 0.55717(15) 0.66313(16) 0.66562(10)
C5 C 0.66048(16) 0.75335(17) 0.59312(9)
C6 C 0.7331(2) 1.0439(2) 0.56147(13)
H1 H 0.65740 1.12260 0.50730
H2 H 0.83860 0.99350 0.53040
H3 H 0.75390 1.10390 0.60770
C7 C 0.5082(2) 1.03830(19) 0.77327(12)
H4 H 0.59030 1.10260 0.75680
H5 H 0.50830 0.98410 0.84730
H6 H 0.39740 1.11390 0.75320
C8 C 0.38052(18) 0.7059(2) 0.83451(12)
H7 H 0.26410 0.76460 0.81600
H8 H 0.40880 0.73820 0.89240
H9 H 0.39600 0.58460 0.85400
C9 C 0.51506(19) 0.50768(19) 0.65813(13)
H10 H 0.41440 0.54170 0.61750
H11 H 0.49580 0.43990 0.72720
H12 H 0.60790 0.44140 0.62490
C10 C 0.7455(2) 0.7079(2) 0.49625(11)
H13 H 0.77360 0.58630 0.50740
H14 H 0.84740 0.74420 0.48120
H15 H 0.66980 0.76430 0.43820
C11 C 0.96688(17) 0.69504(18) 0.69888(11)
C12 C 0.78568(17) 0.68457(17) 0.96806(10)
C13 C 0.7929(2) 0.6900(2) 1.07556(11)
H16 H 0.85290 0.77050 1.07720
H17 H 0.85110 0.57840 1.11770
H18 H 0.67960 0.72460 1.10270
C14 C 0.83867(15) 0.42856(16) 0.78361(9)
C15 C 0.77826(17) 0.33345(17) 0.87683(10)
H19 H 0.70450 0.39170 0.92010
C16 C 0.8247(2) 0.15528(18) 0.90681(12)
H20 H 0.78230 0.09720 0.96930
C17 C 0.93385(19) 0.06370(18) 0.84405(13)
H21 H 0.96510 -0.05530 0.86390
C18 C 0.99529(19) 0.15337(18) 0.75122(12)
H22 H 1.06800 0.09410 0.70810
C19 C 0.94885(17) 0.33177(17) 0.7221(1)
H23 H 0.99240 0.38880 0.65970
#END
