
#######################################################################
#
#                 Cambridge Crystallographic Data Centre
#                                CCDC
#
#######################################################################
#
# If this CIF has been generated from an entry in the Cambridge
# Structural Database, then it will include bibliographic, chemical,
# crystal, experimental, refinement or atomic coordinate data resulting
# from the CCDC's data processing and validation procedures.
#
#######################################################################

data_CSD_CIF_PIGLOJ
_audit_creation_date 2018-07-24
_audit_creation_method CSD-ConQuest-V1
_database_code_CSD PIGLOJ
_database_code_depnum_ccdc_archive 'CCDC 1846077'
_chemical_formula_sum 'C24 H45 Co1 N1 P2'
_chemical_formula_moiety
;
C24 H45 Co1 N1 P2
;
_journal_coden_Cambridge 9
_journal_volume 57
_journal_year 2018
_journal_page_first 9544
_journal_name_full 'Inorg.Chem. '
loop_
_publ_author_name
"V.Mahesh Krishnan"
"Ian Davis"
"T.M.Baker"
"D.J.Curran"
"H.D.Arman"
"M.L.Neidig"
"Aimin Liu"
"Z.J.Tonzetich"
_chemical_name_systematic
;
{2,5-bis[(di-t-butylphosphanyl)methylidene]-2,5-dihydro-1H-pyrrolato}-ethyl-co
balt(ii)
;
_cell_volume    643.882
_exptl_crystal_colour 'dark red'
_exptl_crystal_density_diffrn 1.208
_exptl_crystal_description 'plate'
_diffrn_ambient_temperature 98
_diffrn_special_details
;
twin

;
#These two values have been output from a single CSD field.
_refine_ls_R_factor_gt 0.0471
_refine_ls_wR_factor_gt 0.0471
_symmetry_cell_setting triclinic
_symmetry_space_group_name_H-M 'P 1'
_symmetry_Int_Tables_number 1
loop_
_symmetry_equiv_pos_site_id
_symmetry_equiv_pos_as_xyz
1 x,y,z
_cell_length_a 7.8493(3)
_cell_length_b 8.3353(4)
_cell_length_c 10.7084(5)
_cell_angle_alpha 95.478(4)
_cell_angle_beta 104.468(3)
_cell_angle_gamma 105.468(4)
_cell_formula_units_Z 1
loop_
_atom_type_symbol
_atom_type_radius_bond
C 0.68
H 0.23
Co 1.26
N 0.68
P 1.05
loop_
_atom_site_label
_atom_site_type_symbol
_atom_site_fract_x
_atom_site_fract_y
_atom_site_fract_z
Co1 Co 0.50955(6) 0.49010(6) 0.51731(5)
P1 P 0.6434(2) 0.68277(19) 0.71041(15)
P2 P 0.4507(2) 0.3459(2) 0.31369(15)
N1 N 0.6884(8) 0.6463(8) 0.4614(6)
C1 C 0.3320(14) 0.3073(12) 0.5665(9)
H1 H 0.25130 0.23270 0.48350
H2 H 0.40510 0.24020 0.61400
C2 C 0.7213(9) 0.6238(9) 0.3422(7)
C3 C 0.8168(9) 0.7900(8) 0.5384(6)
C4 C 0.9059(10) 0.5235(9) 0.7796(8)
H3 H 0.82410 0.42380 0.71540
H4 H 0.99290 0.48920 0.84650
H5 H 0.97430 0.60400 0.73520
C5 C 0.7883(9) 0.6087(9) 0.8458(7)
C6 C 0.9370(9) 0.8654(8) 0.4602(6)
H6 H 1.03790 0.96630 0.48770
C7 C 0.3605(13) 0.8209(12) 0.6572(9)
H7 H 0.41300 0.85610 0.58660
H8 H 0.29760 0.90070 0.68160
H9 H 0.27190 0.70750 0.62710
C8 C 0.6683(10) 0.4655(8) 0.8981(7)
H10 H 0.59720 0.51270 0.94670
H11 H 0.74850 0.41470 0.95620
H12 H 0.58360 0.37890 0.82420
C9 C 0.6145(11) 0.4856(10) 0.2508(8)
H13 H 0.62500 0.46520 0.16460
C10 C 0.8771(9) 0.7642(8) 0.3420(7)
H14 H 0.92810 0.78190 0.27100
C11 C 0.9132(10) 0.7452(9) 0.9573(7)
H15 H 1.01380 0.81500 0.92910
H16 H 0.96470 0.69410 1.03080
H17 H 0.84300 0.81580 0.98510
C12 C 0.5182(16) 0.1455(13) 0.3047(11)
C13 C 0.5147(9) 0.8186(8) 0.7757(7)
C14 C 0.4323(10) 0.7501(9) 0.8832(7)
H18 H 0.35450 0.63280 0.85100
H19 H 0.35770 0.81920 0.90630
H20 H 0.53240 0.75480 0.96090
C15 C 0.2223(14) 0.3216(15) 0.1942(10)
C16 C 0.6391(11) 1.0015(9) 0.8336(8)
H21 H 0.73750 1.00090 0.91050
H22 H 0.56500 1.06940 0.85930
H23 H 0.69370 1.05020 0.76760
C17 C 0.8167(11) 0.8338(9) 0.6630(7)
H24 H 0.89930 0.93370 0.71980
C18 C 0.2047(13) 0.3370(11) 0.6470(9)
H25 H 0.13690 0.41180 0.60810
H26 H 0.27820 0.38970 0.73700
H27 H 0.11700 0.22870 0.64760
C19 C 0.5434(16) 0.0869(13) 0.1748(10)
H28 H 0.42400 0.05170 0.10740
H29 H 0.59350 -0.00890 0.18140
H30 H 0.62910 0.17960 0.15110
C20 C 0.2196(13) 0.2898(15) 0.0517(9)
H31 H 0.30320 0.38850 0.03250
H32 H 0.09400 0.27020 -0.00470
H33 H 0.25990 0.19020 0.03510
C21 C 0.7004(16) 0.1914(13) 0.4099(11)
H34 H 0.79320 0.27670 0.38540
H35 H 0.74040 0.09030 0.41960
H36 H 0.68590 0.23690 0.49310
C22 C 0.0702(13) 0.1684(14) 0.2058(9)
H37 H 0.10800 0.06620 0.19500
H38 H -0.04450 0.15560 0.13760
H39 H 0.05020 0.18580 0.29220
C23 C 0.1686(14) 0.4725(15) 0.2315(10)
H40 H 0.17300 0.48420 0.32430
H41 H 0.04310 0.45980 0.17810
H42 H 0.25430 0.57330 0.21680
C24 C 0.3902(15) -0.0015(12) 0.339(1)
H43 H 0.37220 0.03290 0.42370
H44 H 0.44390 -0.09500 0.34440
H45 H 0.27100 -0.03830 0.27130
#END
