
#######################################################################
#
#                 Cambridge Crystallographic Data Centre
#                                CCDC
#
#######################################################################
#
# If this CIF has been generated from an entry in the Cambridge
# Structural Database, then it will include bibliographic, chemical,
# crystal, experimental, refinement or atomic coordinate data resulting
# from the CCDC's data processing and validation procedures.
#
#######################################################################

data_CSD_CIF_PIHWEI
_audit_creation_date 1994-07-24
_audit_creation_method CSD-ConQuest-V1
_database_code_CSD PIHWEI
_database_code_depnum_ccdc_archive 'CCDC 1233509'
_chemical_formula_sum 'C10 H25 Cl2 Mn1 N5'
_chemical_formula_moiety
;
C10 H25 Cl2 Mn1 N5
;
_journal_coden_Cambridge 4
_journal_volume 116
_journal_year 1994
_journal_page_first 387
_journal_name_full 'J.Am.Chem.Soc. '
loop_
_publ_author_name
"D.P.Riley"
"R.H.Weiss"
_chemical_name_systematic
;
(Dichloro-1,4,7.10,13-penta-azacyclopentadecane)-manganese(ii)
;
_cell_volume    811.604
_exptl_crystal_density_diffrn 1.396
_diffrn_ambient_temperature ?
_diffrn_special_details
;
The study was carried out at room temperature,in the range 283-303K

;
_symmetry_cell_setting monoclinic
_symmetry_space_group_name_H-M 'P c'
_symmetry_Int_Tables_number 7
loop_
_symmetry_equiv_pos_site_id
_symmetry_equiv_pos_as_xyz
1 x,y,z
2 x,-y,1/2+z
_cell_length_a 6.968(2)
_cell_length_b 7.894(2)
_cell_length_c 15.131(4)
_cell_angle_alpha 90
_cell_angle_beta 102.80(2)
_cell_angle_gamma 90
_cell_formula_units_Z 2
loop_
_atom_type_symbol
_atom_type_radius_bond
C 0.68
H 0.23
Cl 0.99
Mn 1.38
N 0.68
loop_
_atom_site_label
_atom_site_type_symbol
_atom_site_fract_x
_atom_site_fract_y
_atom_site_fract_z
Mn1 Mn 0.00000 0.2505(5) 0.00000
Cl1 Cl -0.2441(4) 0.0705(4) 0.0725(2)
Cl2 Cl 0.2429(4) 0.4214(5) -0.0702(2)
N1 N -0.2600(18) 0.4269(17) -0.0423(10)
N2 N -0.1522(19) 0.1945(29) -0.1561(9)
N3 N 0.0641(21) -0.0372(16) -0.0459(12)
N4 N 0.284(2) 0.1446(24) 0.1056(11)
N5 N 0.0376(23) 0.4196(27) 0.1243(14)
C1 C -0.3015(25) 0.4592(29) -0.1380(11)
C2 C -0.3302(19) 0.2847(29) -0.1776(8)
C3 C -0.1684(47) 0.0201(25) -0.1841(27)
C4 C 0.0182(39) -0.0588(33) -0.1410(14)
C5 C 0.2643(37) -0.0545(58) -0.0009(26)
C6 C 0.2773(29) -0.0345(21) 0.0960(26)
C7 C 0.2778(52) 0.2240(36) 0.1910(14)
C8 C 0.2256(27) 0.4033(22) 0.1851(10)
C9 C -0.1153(38) 0.5530(24) 0.0998(16)
C10 C -0.2297(34) 0.5890(17) 0.0059(17)
H1 H -0.35830 0.37940 -0.03070
H2 H -0.07440 0.24740 -0.18450
H3 H 0.00220 -0.10920 -0.02040
H4 H 0.38260 0.18060 0.08660
H5 H -0.02910 0.35730 0.15140
H6 H -0.19210 0.51460 -0.15470
H7 H -0.41660 0.52900 -0.15500
H8 H -0.42740 0.22560 -0.15340
H9 H -0.37340 0.29250 -0.24230
H10 H -0.27450 -0.02710 -0.16100
H11 H -0.19850 0.01140 -0.24900
H12 H 0.12140 -0.01280 -0.16650
H13 H 0.00310 -0.17730 -0.15510
H14 H 0.32700 0.04200 -0.02100
H15 H 0.32100 -0.15650 -0.01850
H16 H 0.16290 -0.08600 0.11010
H17 H 0.39340 -0.08980 0.12960
H18 H 0.21250 0.15350 0.22690
H19 H 0.41450 0.23400 0.22020
H20 H 0.31930 0.48040 0.16960
H21 H 0.20620 0.43010 0.24440
H22 H -0.21140 0.53350 0.13540
H23 H -0.04760 0.65740 0.11830
H24 H -0.16280 0.66740 -0.02530
H25 H -0.35730 0.63300 0.00750
#END
