
#######################################################################
#
#                 Cambridge Crystallographic Data Centre
#                                CCDC
#
#######################################################################
#
# If this CIF has been generated from an entry in the Cambridge
# Structural Database, then it will include bibliographic, chemical,
# crystal, experimental, refinement or atomic coordinate data resulting
# from the CCDC's data processing and validation procedures.
#
#######################################################################

data_CSD_CIF_PIKZIT
_audit_creation_date 2007-11-13
_audit_creation_method CSD-ConQuest-V1
_database_code_CSD PIKZIT
_database_code_depnum_ccdc_archive 'CCDC 663570'
_chemical_formula_sum 'C14 H22 Mn1 N4 O2 S2'
_chemical_formula_moiety
;
C14 H22 Mn1 N4 O2 S2
;
_journal_coeditor_code "IUCr NG2320"
_journal_coden_Cambridge 1370
_journal_volume 63
_journal_year 2007
_journal_page_first m2486
_journal_name_full 'Acta Crystallogr.,Sect.E:Struct.Rep.Online '
loop_
_publ_author_name
"Hai-Yan Li"
"Hong-Xi Li"
"Xiao-Yan Tang"
"Yang Chen"
"Jian-Ping Lang"
_chemical_name_systematic
;
bis(4,6-dimethyl-2-pyrimidinethiolato-\k^2^N,S)-bis(methanol-\kO)-manganese(ii
)
;
_cell_volume   1800.696
_exptl_crystal_colour 'yellow'
_exptl_crystal_density_diffrn 1.466
_exptl_crystal_description 'block'
_diffrn_ambient_temperature 153
#These two values have been output from a single CSD field.
_refine_ls_R_factor_gt 0.0305
_refine_ls_wR_factor_gt 0.0305
_symmetry_cell_setting monoclinic
_symmetry_space_group_name_H-M 'C 2/c'
_symmetry_Int_Tables_number 15
loop_
_symmetry_equiv_pos_site_id
_symmetry_equiv_pos_as_xyz
1 x,y,z
2 1/2+x,1/2+y,z
3 -x,y,1/2-z
4 1/2-x,1/2+y,1/2-z
5 -x,-y,-z
6 -1/2-x,-1/2-y,-z
7 x,-y,-1/2+z
8 -1/2+x,-1/2-y,-1/2+z
_cell_length_a 15.150(3)
_cell_length_b 8.6713(17)
_cell_length_c 13.890(3)
_cell_angle_alpha 90
_cell_angle_beta 99.31(3)
_cell_angle_gamma 90
_cell_formula_units_Z 4
loop_
_atom_type_symbol
_atom_type_radius_bond
C 0.68
H 0.23
Mn 1.35
N 0.68
O 0.68
S 1.02
loop_
_atom_site_label
_atom_site_type_symbol
_atom_site_fract_x
_atom_site_fract_y
_atom_site_fract_z
Mn1 Mn 0.00000 0.03331(5) 0.75000
S1 S 0.10027(3) 0.07146(6) 0.61515(4)
O1 O -0.08155(9) -0.14465(17) 0.66532(10)
H1 H -0.0602(16) -0.181(3) 0.6212(15)
N1 N 0.00580(11) 0.25958(19) 0.48392(12)
N2 N -0.05222(11) 0.20439(19) 0.63054(11)
C1 C 0.01101(13) 0.1891(2) 0.57136(14)
C2 C -0.07078(16) 0.4251(3) 0.35684(16)
H2 H -0.01240 0.46830 0.34970
H3 H -0.11550 0.50770 0.35030
H4 H -0.08830 0.34740 0.30610
C3 C -0.06489(14) 0.3517(2) 0.45536(14)
C4 C -0.12950(14) 0.3754(3) 0.51330(15)
H5 H -0.17800 0.44370 0.49330
C5 C -0.12206(13) 0.2972(2) 0.60133(14)
C6 C -0.19153(14) 0.3138(3) 0.66618(16)
H6 H -0.24580 0.25840 0.63750
H7 H -0.20550 0.42330 0.67290
H8 H -0.16870 0.27070 0.73060
C7 C -0.17601(15) -0.1366(3) 0.63694(17)
H9 H -0.20170 -0.07350 0.68390
H10 H -0.20130 -0.24080 0.63540
H11 H -0.19000 -0.09020 0.57200
S1B S -0.10027(3) 0.07146(6) 0.88485(4)
O1B O 0.08155(9) -0.14465(17) 0.83468(10)
H1B H 0.0602(16) -0.181(3) 0.8788(15)
N1B N -0.00580(11) 0.25958(19) 1.01608(12)
N2B N 0.05222(11) 0.20439(19) 0.86946(11)
C1B C -0.01101(13) 0.1891(2) 0.92864(14)
C2B C 0.07078(16) 0.4251(3) 1.14316(16)
H2B H 0.01240 0.46830 1.15030
H3B H 0.11550 0.50770 1.14970
H4B H 0.08830 0.34740 1.19390
C3B C 0.06489(14) 0.3517(2) 1.04464(14)
C4B C 0.12950(14) 0.3754(3) 0.98670(15)
H5B H 0.17800 0.44370 1.00670
C5B C 0.12206(13) 0.2972(2) 0.89867(14)
C6B C 0.19153(14) 0.3138(3) 0.83382(16)
H6B H 0.24580 0.25840 0.86250
H7B H 0.20550 0.42330 0.82710
H8B H 0.16870 0.27070 0.76940
C7B C 0.17601(15) -0.1366(3) 0.86306(17)
H9B H 0.20170 -0.07350 0.81610
H10B H 0.20130 -0.24080 0.86460
H11B H 0.19000 -0.09020 0.92800
#END
