
#######################################################################
#
#                 Cambridge Crystallographic Data Centre
#                                CCDC
#
#######################################################################
#
# If this CIF has been generated from an entry in the Cambridge
# Structural Database, then it will include bibliographic, chemical,
# crystal, experimental, refinement or atomic coordinate data resulting
# from the CCDC's data processing and validation procedures.
#
#######################################################################

data_CSD_CIF_PIMMOQ
_audit_creation_date 2018-07-26
_audit_creation_method CSD-ConQuest-V1
_database_code_CSD PIMMOQ
_database_code_depnum_ccdc_archive 'CCDC 1842056'
_chemical_formula_sum 'C4 H10 Cl2 Fe1 N2 O2'
_chemical_formula_moiety
;
C4 H10 Cl2 Fe1 N2 O2
;
_journal_coden_Cambridge 1267
_journal_volume 233
_journal_year 2018
_journal_page_first 751
_journal_name_full 'Z.Kristallogr.-New Cryst.Struct. '
loop_
_publ_author_name
"Jian Zuo"
_chemical_name_systematic
;
bis(acetonitrile)-diaqua-dichloro-iron(ii)
;
_cell_volume    505.172
_exptl_crystal_colour 'green'
_exptl_crystal_density_diffrn 1.61
_exptl_crystal_description 'block'
_diffrn_ambient_temperature 298
#These two values have been output from a single CSD field.
_refine_ls_R_factor_gt 0.0447
_refine_ls_wR_factor_gt 0.0447
_symmetry_cell_setting monoclinic
_symmetry_space_group_name_H-M 'P 21/c'
_symmetry_Int_Tables_number 14
loop_
_symmetry_equiv_pos_site_id
_symmetry_equiv_pos_as_xyz
1 x,y,z
2 -x,1/2+y,1/2-z
3 -x,-y,-z
4 x,-1/2-y,-1/2+z
_cell_length_a 7.8501(10)
_cell_length_b 7.8289(10)
_cell_length_c 8.2974(17)
_cell_angle_alpha 90
_cell_angle_beta 97.840(2)
_cell_angle_gamma 90
_cell_formula_units_Z 2
loop_
_atom_type_symbol
_atom_type_radius_bond
C 0.68
H 0.23
Cl 0.99
Fe 1.52
N 0.68
O 0.68
loop_
_atom_site_label
_atom_site_type_symbol
_atom_site_fract_x
_atom_site_fract_y
_atom_site_fract_z
Fe1 Fe 0.00000 0.50000 0.00000
Cl1 Cl -0.18298(11) 0.75902(11) -0.01789(11)
O1 O 0.0246(5) 0.5157(3) -0.2459(4)
H1 H -0.06210 0.56180 -0.30170
H2 H 0.04590 0.41960 -0.28650
N1 N 0.2287(4) 0.6664(4) 0.0660(5)
C1 C 0.3235(5) 0.7615(5) 0.1265(5)
C2 C 0.4467(5) 0.8846(5) 0.2044(6)
H3 H 0.44590 0.88150 0.32000
H4 H 0.41610 0.99700 0.16430
H5 H 0.55960 0.85640 0.18050
Cl1B Cl 0.18298(11) 0.24098(11) 0.01789(11)
O1B O -0.0246(5) 0.4843(3) 0.2459(4)
H1B H 0.06210 0.43820 0.30170
H2B H -0.04590 0.58040 0.28650
N1B N -0.2287(4) 0.3336(4) -0.0660(5)
C1B C -0.3235(5) 0.2385(5) -0.1265(5)
C2B C -0.4467(5) 0.1154(5) -0.2044(6)
H3B H -0.44590 0.11850 -0.32000
H4B H -0.41610 0.00300 -0.16430
H5B H -0.55960 0.14360 -0.18050
#END
