
#######################################################################
#
#                 Cambridge Crystallographic Data Centre
#                                CCDC
#
#######################################################################
#
# If this CIF has been generated from an entry in the Cambridge
# Structural Database, then it will include bibliographic, chemical,
# crystal, experimental, refinement or atomic coordinate data resulting
# from the CCDC's data processing and validation procedures.
#
#######################################################################

data_CSD_CIF_PIPCEY
_audit_creation_date 2013-12-10
_audit_creation_method CSD-ConQuest-V1
_database_code_CSD PIPCEY
_database_code_depnum_ccdc_archive 'CCDC 957591'
_chemical_formula_sum 'C12 H16 Mn1 N6 O2 S2'
_chemical_formula_moiety
;
C12 H16 Mn1 N6 O2 S2
;
_journal_coden_Cambridge 29
_journal_volume 639
_journal_year 2013
_journal_page_first 2648
_journal_name_full 'Z.Anorg.Allg.Chem. '
loop_
_publ_author_name
"S.Wohlert"
"T.Runcevski"
"R.E.Dinnebier"
"C.Nather"
_chemical_name_systematic
;
Diaqua-bis(2-methylpyrazine)-di-isothiocyanato-manganese(ii)
;
_cell_volume    449.224
_exptl_crystal_colour 'yellow'
_exptl_crystal_density_diffrn 1.461
_exptl_crystal_description 'block'
_diffrn_ambient_temperature 293
#These two values have been output from a single CSD field.
_refine_ls_R_factor_gt 0.0332
_refine_ls_wR_factor_gt 0.0332
_symmetry_cell_setting triclinic
_symmetry_space_group_name_H-M 'P -1'
_symmetry_Int_Tables_number 2
loop_
_symmetry_equiv_pos_site_id
_symmetry_equiv_pos_as_xyz
1 x,y,z
2 -x,-y,-z
_cell_length_a 7.0038(7)
_cell_length_b 8.2552(9)
_cell_length_c 9.317(1)
_cell_angle_alpha 109.132(12)
_cell_angle_beta 111.330(12)
_cell_angle_gamma 99.321(13)
_cell_formula_units_Z 1
loop_
_atom_type_symbol
_atom_type_radius_bond
C 0.68
H 0.23
Mn 1.61
N 0.68
O 0.68
S 1.02
loop_
_atom_site_label
_atom_site_type_symbol
_atom_site_fract_x
_atom_site_fract_y
_atom_site_fract_z
Mn1 Mn 0.00000 0.00000 0.50000
N1 N 0.0271(4) -0.1391(3) 0.2695(3)
C1 C 0.1074(3) -0.1940(3) 0.1828(3)
S1 S 0.21925(10) -0.2723(1) 0.06008(8)
N2 N 0.3398(3) 0.6252(2) 0.5553(2)
C2 C 0.4049(3) 0.5838(3) 0.6896(3)
C3 C 0.3147(3) 0.4104(3) 0.6700(3)
H1 H 0.36010 0.38490 0.76480
C4 C 0.1073(3) 0.3202(3) 0.3876(3)
H2 H 0.00770 0.23140 0.28080
C5 C 0.1922(3) 0.4924(3) 0.4055(3)
H3 H 0.14560 0.51730 0.31030
C6 C 0.5740(4) 0.7280(4) 0.8572(3)
H4 H 0.68530 0.79300 0.84090
H5 H 0.63580 0.67350 0.93180
H6 H 0.50940 0.81020 0.90650
N3 N 0.1657(3) 0.2787(2) 0.5212(2)
O1 O 0.3143(3) -0.0203(2) 0.6442(2)
H7 H 0.43270 0.05240 0.71740
H8 H 0.34910 -0.11080 0.61200
N1A N -0.0271(4) 0.1391(3) 0.7305(3)
C1A C -0.1074(3) 0.1940(3) 0.8172(3)
S1A S -0.21925(10) 0.2723(1) 0.93992(8)
N2A N -0.3398(3) -0.6252(2) 0.4447(2)
C2A C -0.4049(3) -0.5838(3) 0.3104(3)
C3A C -0.3147(3) -0.4104(3) 0.3300(3)
H1A H -0.36010 -0.38490 0.23520
C4A C -0.1073(3) -0.3202(3) 0.6124(3)
H2A H -0.00770 -0.23140 0.71920
C5A C -0.1922(3) -0.4924(3) 0.5945(3)
H3A H -0.14560 -0.51730 0.68970
C6A C -0.5740(4) -0.7280(4) 0.1428(3)
H4A H -0.68530 -0.79300 0.15910
H5A H -0.63580 -0.67350 0.06820
H6A H -0.50940 -0.81020 0.09350
N3A N -0.1657(3) -0.2787(2) 0.4788(2)
O1A O -0.3143(3) 0.0203(2) 0.3558(2)
H7A H -0.43270 -0.05240 0.28260
H8A H -0.34910 0.11080 0.38800
#END
