
#######################################################################
#
#                 Cambridge Crystallographic Data Centre
#                                CCDC
#
#######################################################################
#
# If this CIF has been generated from an entry in the Cambridge
# Structural Database, then it will include bibliographic, chemical,
# crystal, experimental, refinement or atomic coordinate data resulting
# from the CCDC's data processing and validation procedures.
#
#######################################################################

data_CSD_CIF_PITBAW
_audit_creation_date 2008-05-08
_audit_creation_method CSD-ConQuest-V1
_database_code_CSD PITBAW
_database_code_depnum_ccdc_archive 'CCDC 684439'
_chemical_formula_sum 'C10 H14 Mn1 N4 O8'
_chemical_formula_moiety
;
C10 H10 Mn1 N4 O6,2(H2 O1)
;
_journal_coeditor_code "IUCr CS2069"
_journal_coden_Cambridge 1370
_journal_volume 64
_journal_year 2008
_journal_page_first m558
_journal_name_full 'Acta Crystallogr.,Sect.E:Struct.Rep.Online '
loop_
_publ_author_name
"Hui-Dong Xie"
"Cheng-Zhi Xie"
"Fang-Fang Dang"
_chemical_name_systematic
;
Diaqua-bis(pyrazine-2-carboxylato-\k^2^N^1^,O)-manganese(ii) dihydrate
;
_cell_volume    759.018
_exptl_crystal_colour 'light-yellow'
_exptl_crystal_density_diffrn 1.633
_exptl_special_details
;
isostructural with the cobalt analogue

;
_exptl_crystal_description 'block'
_diffrn_ambient_temperature 293
#These two values have been output from a single CSD field.
_refine_ls_R_factor_gt 0.0316
_refine_ls_wR_factor_gt 0.0316
_symmetry_cell_setting monoclinic
_symmetry_space_group_name_H-M 'P 21/n'
_symmetry_Int_Tables_number 14
loop_
_symmetry_equiv_pos_site_id
_symmetry_equiv_pos_as_xyz
1 x,y,z
2 1/2-x,1/2+y,1/2-z
3 -x,-y,-z
4 -1/2+x,-1/2-y,-1/2+z
_cell_length_a 7.233(2)
_cell_length_b 13.003(4)
_cell_length_c 8.257(3)
_cell_angle_alpha 90
_cell_angle_beta 102.207(5)
_cell_angle_gamma 90
_cell_formula_units_Z 2
loop_
_atom_type_symbol
_atom_type_radius_bond
C 0.68
H 0.23
Mn 1.35
N 0.68
O 0.68
loop_
_atom_site_label
_atom_site_type_symbol
_atom_site_fract_x
_atom_site_fract_y
_atom_site_fract_z
Mn1 Mn 0.00000 0.50000 0.00000
C1 C 0.3799(3) 0.50843(18) 0.2061(3)
O1 O 0.2234(2) 0.40214(13) -0.0110(2)
N1 N 0.2126(3) 0.55522(15) 0.1991(2)
C2 C 0.3768(3) 0.41836(17) 0.0906(3)
C3 C 0.2082(4) 0.6331(2) 0.3022(3)
H1 H 0.09400 0.66610 0.30150
O2 O 0.5231(2) 0.36634(14) 0.1034(2)
N2 N 0.5373(3) 0.62300(17) 0.4146(3)
C4 C 0.5411(3) 0.5443(2) 0.3121(3)
H2 H 0.65610 0.51230 0.31190
C5 C 0.3699(4) 0.6661(2) 0.4106(3)
H3 H 0.36120 0.72000 0.48270
O3 O 0.0978(2) 0.60221(15) -0.1543(2)
H4 H 0.21450 0.61360 -0.14970
H5 H 0.03280 0.63260 -0.23860
O4 O 0.9068(3) 0.69223(17) 0.5751(3)
H6 H 0.79310 0.67980 0.52660
H7 H 0.93410 0.75050 0.53980
C1B C -0.3799(3) 0.49157(18) -0.2061(3)
O1B O -0.2234(2) 0.59786(13) 0.0110(2)
N1B N -0.2126(3) 0.44478(15) -0.1991(2)
C2B C -0.3768(3) 0.58164(17) -0.0906(3)
C3B C -0.2082(4) 0.3669(2) -0.3022(3)
H1B H -0.09400 0.33390 -0.30150
O2B O -0.5231(2) 0.63366(14) -0.1034(2)
N2B N -0.5373(3) 0.37700(17) -0.4146(3)
C4B C -0.5411(3) 0.4557(2) -0.3121(3)
H2B H -0.65610 0.48770 -0.31190
C5B C -0.3699(4) 0.3339(2) -0.4106(3)
H3B H -0.36120 0.28000 -0.48270
O3B O -0.0978(2) 0.39779(15) 0.1543(2)
H4B H -0.21450 0.38640 0.14970
H5B H -0.03280 0.36740 0.23860
#END
