
#######################################################################
#
#                 Cambridge Crystallographic Data Centre
#                                CCDC
#
#######################################################################
#
# If this CIF has been generated from an entry in the Cambridge
# Structural Database, then it will include bibliographic, chemical,
# crystal, experimental, refinement or atomic coordinate data resulting
# from the CCDC's data processing and validation procedures.
#
#######################################################################

data_CSD_CIF_PITHIL
_audit_creation_date 2013-12-11
_audit_creation_method CSD-ConQuest-V1
_database_code_CSD PITHIL
_database_code_depnum_ccdc_archive 'CCDC 956829'
_chemical_formula_sum 'C19 H29 Co1 N2'
_chemical_formula_moiety
;
C19 H29 Co1 N2
;
_journal_coden_Cambridge 9
_journal_volume 52
_journal_year 2013
_journal_page_first 13719
_journal_name_full 'Inorg.Chem. '
loop_
_publ_author_name
"T.Pugh"
"S.D.Cosham"
"J.A.Hamilton"
"A.J.Kingsley"
"A.L.Johnson"
_chemical_name_systematic
;
(\h^5^-cyclopentadienyl)-(N,N'-dicyclohexylethene-1,2-diaminato)-cobalt(iii)
;
_cell_volume    868.211
_exptl_crystal_colour 'dark yellow'
_exptl_crystal_density_diffrn 1.317
_exptl_special_details
;
air- and moisture-sensitive, oxygen-sensitive

;
_exptl_crystal_description 'Plate'
_diffrn_ambient_temperature 150
#These two values have been output from a single CSD field.
_refine_ls_R_factor_gt 0.0291
_refine_ls_wR_factor_gt 0.0291
_symmetry_cell_setting triclinic
_symmetry_space_group_name_H-M 'P -1'
_symmetry_Int_Tables_number 2
loop_
_symmetry_equiv_pos_site_id
_symmetry_equiv_pos_as_xyz
1 x,y,z
2 -x,-y,-z
_cell_length_a 8.472(1)
_cell_length_b 10.434(1)
_cell_length_c 10.952(2)
_cell_angle_alpha 105.676(4)
_cell_angle_beta 107.831(4)
_cell_angle_gamma 96.116(9)
_cell_formula_units_Z 2
loop_
_atom_type_symbol
_atom_type_radius_bond
C 0.68
H 0.23
Co 1.26
N 0.68
loop_
_atom_site_label
_atom_site_type_symbol
_atom_site_fract_x
_atom_site_fract_y
_atom_site_fract_z
Co1 Co 0.17769(3) 0.09040(2) -0.24565(2)
C1 C 0.0050(2) -0.0911(2) -0.3170(2)
H1 H 0.01550 -0.17330 -0.37490
C2 C 0.0380(3) 0.5298(2) -0.3144(2)
H2 H 0.12790 0.59900 -0.31410
H3 H -0.06630 0.52180 -0.39070
N1 N 0.37387(19) 0.03604(15) -0.26294(16)
C3 C 0.4088(2) -0.10286(18) -0.2824(2)
H4 H 0.30810 -0.16150 -0.28140
C4 C 0.0714(2) -0.0468(2) -0.1733(2)
H5 H 0.13370 -0.09400 -0.11840
C5 C 0.2448(2) 0.39546(18) -0.21406(19)
H6 H 0.34270 0.46150 -0.20970
C6 C 0.1613(3) 0.58359(19) -0.0632(2)
H7 H 0.13600 0.61110 0.02150
H8 H 0.25580 0.65340 -0.05560
C7 C 0.0929(2) 0.39234(19) -0.33492(19)
H9 H -0.00300 0.32080 -0.34800
H10 H 0.12280 0.36900 -0.41770
C8 C 0.2148(3) 0.4458(2) -0.08122(19)
H11 H 0.32000 0.45480 -0.00530
H12 H 0.12520 0.37840 -0.07890
C9 C 0.4913(2) 0.1341(2) -0.2583(2)
H13 H 0.59710 0.11910 -0.26590
C10 C -0.0615(2) 0.1137(2) -0.2418(2)
H14 H -0.10290 0.19500 -0.23980
N2 N 0.29334(19) 0.26140(15) -0.23227(15)
C11 C 0.4256(3) -0.1624(2) -0.4194(2)
H15 H 0.52320 -0.10600 -0.42490
H16 H 0.32220 -0.16100 -0.49170
C12 C 0.0052(3) 0.5757(2) -0.1827(2)
H17 H -0.09160 0.51100 -0.18620
H18 H -0.02500 0.66630 -0.17030
C13 C -0.0793(2) 0.0073(2) -0.3593(2)
H19 H -0.13720 0.00270 -0.45010
C14 C 0.4471(2) 0.2597(2) -0.2414(2)
H20 H 0.51970 0.33830 -0.23660
C15 C 0.5614(3) -0.1103(2) -0.1696(2)
H21 H 0.54600 -0.07450 -0.08150
H22 H 0.66440 -0.05340 -0.16700
C16 C 0.6007(3) -0.3183(2) -0.3275(3)
H23 H 0.60820 -0.41480 -0.34120
H24 H 0.70650 -0.26940 -0.32910
C17 C 0.5835(3) -0.2578(2) -0.1924(2)
H25 H 0.68580 -0.26070 -0.11990
H26 H 0.48440 -0.31280 -0.18740
C18 C 0.4514(4) -0.3090(2) -0.4412(2)
H27 H 0.34770 -0.36750 -0.44690
H28 H 0.47030 -0.34320 -0.52800
C19 C 0.0286(2) 0.0790(2) -0.12704(19)
H29 H 0.05530 0.13160 -0.03510
#END
