
#######################################################################
#
#                 Cambridge Crystallographic Data Centre
#                                CCDC
#
#######################################################################
#
# If this CIF has been generated from an entry in the Cambridge
# Structural Database, then it will include bibliographic, chemical,
# crystal, experimental, refinement or atomic coordinate data resulting
# from the CCDC's data processing and validation procedures.
#
#######################################################################

data_CSD_CIF_PIXYAW
_audit_creation_date 1995-01-30
_audit_creation_method CSD-ConQuest-V1
_database_code_CSD PIXYAW
_chemical_formula_sum 'C20 H52 Cr1 Li2 N4 Si2'
_chemical_formula_moiety
;
C20 H52 Cr1 Li2 N4 Si2
;
_journal_coden_Cambridge 579
_journal_volume 13
_journal_year 1994
_journal_page_first 1646
_journal_name_full 'Organometallics '
loop_
_publ_author_name
"P.M.Morse"
"M.D.Spencer"
"S.R.Wilson"
"G.S.Girolami"
_chemical_name_systematic
;
bis((\m~3~-2,2-Dimethyl-2-silapropa-1,3-diylidene)-(N,N,N',N'-tetramethylethyl
enediamine)-lithium)-chromium(ii)
;
_chemical_melting_point 453.15
_cell_volume    746.186
_exptl_crystal_colour 'orange'
_exptl_crystal_density_diffrn 1.048
_exptl_special_details
;
Melts with decomposition.

;
_diffrn_ambient_temperature 198.15
#These two values have been output from a single CSD field.
_refine_ls_R_factor_gt 0.043
_refine_ls_wR_factor_gt 0.043
_symmetry_cell_setting triclinic
_symmetry_space_group_name_H-M 'P -1'
_symmetry_Int_Tables_number 2
loop_
_symmetry_equiv_pos_site_id
_symmetry_equiv_pos_as_xyz
1 x,y,z
2 -x,-y,-z
_cell_length_a 7.811(4)
_cell_length_b 10.336(4)
_cell_length_c 10.720(5)
_cell_angle_alpha 95.12(3)
_cell_angle_beta 110.87(4)
_cell_angle_gamma 108.58(5)
_cell_formula_units_Z 1
loop_
_atom_type_symbol
_atom_type_radius_bond
C 0.68
H 0.23
Cr 1.20
Li 1.10
N 0.68
Si 1.21
loop_
_atom_site_label
_atom_site_type_symbol
_atom_site_fract_x
_atom_site_fract_y
_atom_site_fract_z
Cr1 Cr 0.00000 0.00000 0.00000
Si1 Si 0.2441(1) 0.21797(8) 0.23753(8)
C1 C 0.2664(5) 0.1981(3) 0.0727(3)
C2 C 0.0854(5) 0.0399(3) 0.2268(3)
C3 C 0.4895(5) 0.2893(4) 0.3903(3)
C4 C 0.1181(7) 0.3414(5) 0.2501(5)
Li1 Li 0.1819(7) 0.1497(5) -0.1460(5)
N1 N 0.1533(4) 0.3076(3) -0.2618(3)
N2 N 0.4295(4) 0.1606(3) -0.1968(3)
C5 C 0.2845(6) 0.3088(4) -0.3320(4)
C6 C 0.4667(6) 0.2918(5) -0.2449(4)
C7 C -0.0454(6) 0.2794(5) -0.3652(4)
C8 C 0.2182(7) 0.4440(4) -0.1721(4)
C9 C 0.6138(6) 0.1787(5) -0.0801(4)
C10 C 0.3768(7) 0.0412(5) -0.3026(6)
H1 H 0.215(4) 0.210(4) -0.415(4)
H2 H 0.338(4) 0.407(4) -0.356(3)
H3 H 0.543(4) 0.283(4) -0.308(3)
H4 H 0.517(4) 0.384(4) -0.168(4)
H5 H -0.065(4) 0.193(4) -0.423(4)
H6 H -0.042(4) 0.344(4) -0.425(4)
H7 H -0.136(4) 0.263(4) -0.309(4)
H8 H 0.381(4) 0.482(4) -0.095(4)
H9 H 0.210(4) 0.528(4) -0.221(4)
H10 H 0.126(5) 0.444(4) -0.126(4)
H11 H 0.646(4) 0.246(4) -0.006(4)
H12 H 0.601(4) 0.099(4) -0.051(4)
H13 H 0.728(5) 0.203(4) -0.107(4)
H14 H 0.472(5) 0.026(4) -0.318(4)
H15 H 0.246(5) 0.032(4) -0.387(4)
H16 H 0.370(4) -0.038(4) -0.252(4)
H17 H 0.307(4) 0.288(2) 0.051(3)
H18 H 0.367(3) 0.166(3) 0.067(4)
H19 H 0.022(4) 0.048(4) 0.287(2)
H20 H 0.158(4) -0.017(3) 0.264(3)
H21 H 0.005(5) 0.315(4) 0.177(4)
H22 H 0.109(4) 0.357(4) 0.335(4)
H23 H 0.199(4) 0.436(4) 0.254(4)
H24 H 0.513(4) 0.329(4) 0.482(4)
H25 H 0.595(5) 0.366(4) 0.395(4)
H26 H 0.539(5) 0.227(4) 0.396(4)
C1A C -0.2664(5) -0.1981(3) -0.0727(3)
C2A C -0.0854(5) -0.0399(3) -0.2268(3)
Li1A Li -0.1819(7) -0.1497(5) 0.1460(5)
Si1A Si -0.2441(1) -0.21797(8) -0.23753(8)
H17A H -0.307(4) -0.288(2) -0.051(3)
H18A H -0.367(3) -0.166(3) -0.067(4)
H19A H -0.022(4) -0.048(4) -0.287(2)
H20A H -0.158(4) 0.017(3) -0.264(3)
N1A N -0.1533(4) -0.3076(3) 0.2618(3)
N2A N -0.4295(4) -0.1606(3) 0.1968(3)
C3A C -0.4895(5) -0.2893(4) -0.3903(3)
C4A C -0.1181(7) -0.3414(5) -0.2501(5)
C5A C -0.2845(6) -0.3088(4) 0.3320(4)
C7A C 0.0454(6) -0.2794(5) 0.3652(4)
C8A C -0.2182(7) -0.4440(4) 0.1721(4)
C6A C -0.4667(6) -0.2918(5) 0.2449(4)
C9A C -0.6138(6) -0.1787(5) 0.0801(4)
C10A C -0.3768(7) -0.0412(5) 0.3026(6)
H24A H -0.513(4) -0.329(4) -0.482(4)
H25A H -0.595(5) -0.366(4) -0.395(4)
H26A H -0.539(5) -0.227(4) -0.396(4)
H21A H -0.005(5) -0.315(4) -0.177(4)
H22A H -0.109(4) -0.357(4) -0.335(4)
H23A H -0.199(4) -0.436(4) -0.254(4)
H1A H -0.215(4) -0.210(4) 0.415(4)
H2A H -0.338(4) -0.407(4) 0.356(3)
H5A H 0.065(4) -0.193(4) 0.423(4)
H6A H 0.042(4) -0.344(4) 0.425(4)
H7A H 0.136(4) -0.263(4) 0.309(4)
H8A H -0.381(4) -0.482(4) 0.095(4)
H9A H -0.210(4) -0.528(4) 0.221(4)
H10A H -0.126(5) -0.444(4) 0.126(4)
H3A H -0.543(4) -0.283(4) 0.308(3)
H4A H -0.517(4) -0.384(4) 0.168(4)
H11A H -0.646(4) -0.246(4) 0.006(4)
H12A H -0.601(4) -0.099(4) 0.051(4)
H13A H -0.728(5) -0.203(4) 0.107(4)
H14A H -0.472(5) -0.026(4) 0.318(4)
H15A H -0.246(5) -0.032(4) 0.387(4)
H16A H -0.370(4) 0.038(4) 0.252(4)
#END
