
#######################################################################
#
#                 Cambridge Crystallographic Data Centre
#                                CCDC
#
#######################################################################
#
# If this CIF has been generated from an entry in the Cambridge
# Structural Database, then it will include bibliographic, chemical,
# crystal, experimental, refinement or atomic coordinate data resulting
# from the CCDC's data processing and validation procedures.
#
#######################################################################

data_CSD_CIF_PNMNCP
_audit_creation_date 1980-03-07
_audit_creation_method CSD-ConQuest-V1
_database_code_CSD PNMNCP
_database_code_depnum_ccdc_archive 'CCDC 1235455'
_chemical_formula_sum 'C49 H36 Mn1 N1 O7 P2'
_chemical_formula_moiety
;
C13 H6 Mn1 O7 1-,C36 H30 N1 P2 1+
;
_journal_coden_Cambridge 4
_journal_volume 100
_journal_year 1978
_journal_page_first 6766
_journal_name_full 'J.Am.Chem.Soc. '
loop_
_publ_author_name
"J.A.Gladysz"
"J.C.Selover"
"C.E.Strouse"
_chemical_name_systematic
;
bis(Triphenylphosphine)-iminium 
3,3,3,3-tetracarbonyl-5-phenyl-1-oxa-3-mangana-cyclopenta-2,4-dione
;
_chemical_melting_point 415.15
_cell_volume   2170.076
_exptl_special_details
;
Melts with decomposition.
We calculate void space in the structure

;
_diffrn_ambient_temperature 113
#These two values have been output from a single CSD field.
_refine_ls_R_factor_gt 0.055
_refine_ls_wR_factor_gt 0.055
_symmetry_cell_setting triclinic
_symmetry_space_group_name_H-M 'P -1'
_symmetry_Int_Tables_number 2
loop_
_symmetry_equiv_pos_site_id
_symmetry_equiv_pos_as_xyz
1 x,y,z
2 -x,-y,-z
_cell_length_a 10.016(4)
_cell_length_b 15.772(5)
_cell_length_c 15.698(4)
_cell_angle_alpha 86.55(3)
_cell_angle_beta 89.09(3)
_cell_angle_gamma 118.62(3)
_cell_formula_units_Z 2
loop_
_atom_type_symbol
_atom_type_radius_bond
C 0.68
H 0.23
Mn 1.35
N 0.68
O 0.68
P 1.05
loop_
_atom_site_label
_atom_site_type_symbol
_atom_site_fract_x
_atom_site_fract_y
_atom_site_fract_z
N1 N 0.41470 1.22960 -0.24100
P1 P 0.54300 1.22420 -0.18610
P2 P 0.39440 1.28250 -0.32400
O1 O 0.81020 1.06440 0.39780
O2 O 1.11170 1.38310 0.40720
O3 O 1.02600 1.07660 0.18140
O4 O 0.80810 1.29380 0.26210
O5 O 1.28570 1.18390 0.33640
O6 O 1.24380 1.37650 0.14810
O7 O 0.79690 1.19350 0.16930
C1 C 0.90140 1.13070 0.35560
C2 C 1.08370 1.32290 0.36060
C3 C 0.97950 1.13340 0.19680
C4 C 0.86530 1.24570 0.24010
C5 C 1.19330 1.20390 0.31780
C6 C 1.16600 1.32070 0.20140
C7 C 0.85080 1.13130 0.14040
H1 H 0.77270 1.06480 0.15040
Mn1 Mn 1.04250 1.23060 0.28560
#END
