
#######################################################################
#
#                 Cambridge Crystallographic Data Centre
#                                CCDC
#
#######################################################################
#
# If this CIF has been generated from an entry in the Cambridge
# Structural Database, then it will include bibliographic, chemical,
# crystal, experimental, refinement or atomic coordinate data resulting
# from the CCDC's data processing and validation procedures.
#
#######################################################################

data_CSD_CIF_PNMNCP10
_audit_creation_date 1987-03-27
_audit_creation_method CSD-ConQuest-V1
_database_code_CSD PNMNCP10
_chemical_formula_sum 'C49 H36 Mn1 N1 O7 P2'
_chemical_formula_moiety
;
C13 H6 Mn1 O7 1-,C36 H30 N1 P2 1+
;
_journal_coden_Cambridge 4
_journal_volume 108
_journal_year 1986
_journal_page_first 1455
_journal_name_full 'J.Am.Chem.Soc. '
loop_
_publ_author_name
"J.C.Selover"
"G.D.Vaughn"
"C.E.Strouse"
"J.A.Gladysz"
_chemical_name_systematic
;
bis(Triphenylphosphine)iminium 
3,3,3,3-tetracarbonyl-5-phenyl-1-oxa-3-mangana-cyclopenta-2,4-dione
;
_chemical_melting_point 313.15
_cell_volume   2170.076
_exptl_crystal_colour 'cream'
_exptl_crystal_density_diffrn 1.304
_exptl_special_details
;
Melting point range 313.15-315.15K
No coordinates are given for the phenyl carbons; coordinates for ring 
centroids are given in the paper
;
_diffrn_ambient_temperature 113.15
#These two values have been output from a single CSD field.
_refine_ls_R_factor_gt 0.055
_refine_ls_wR_factor_gt 0.055
_symmetry_cell_setting triclinic
_symmetry_space_group_name_H-M 'P -1'
_symmetry_Int_Tables_number 2
loop_
_symmetry_equiv_pos_site_id
_symmetry_equiv_pos_as_xyz
1 x,y,z
2 -x,-y,-z
_cell_length_a 10.016(4)
_cell_length_b 15.772(5)
_cell_length_c 15.698(5)
_cell_angle_alpha 86.55(3)
_cell_angle_beta 89.09(3)
_cell_angle_gamma 118.62(3)
_cell_formula_units_Z 2
loop_
_atom_type_symbol
_atom_type_radius_bond
C 0.68
H 0.23
Mn 1.35
N 0.68
O 0.68
P 1.05
loop_
_atom_site_label
_atom_site_type_symbol
_atom_site_fract_x
_atom_site_fract_y
_atom_site_fract_z
Mn1 Mn 1.0425(13) 1.2306(8) 0.2856(7)
O1 O 0.8102(61) 1.0644(39) 0.3978(34)
O2 O 1.1117(57) 1.3831(37) 0.4072(32)
O3 O 1.0260(54) 1.0766(35) 0.1814(30)
O4 O 0.8081(53) 1.2938(34) 0.2621(30)
O5 O 1.2857(61) 1.1839(38) 0.3364(33)
O6 O 1.2438(57) 1.3765(37) 0.1481(32)
O7 O 0.7969(53) 1.1935(34) 0.1693(30)
C1 C 0.9014(86) 1.1307(55) 0.3556(47)
C2 C 1.0837(82) 1.3229(54) 0.3606(46)
C3 C 0.9795(79) 1.1334(51) 0.1968(44)
C4 C 0.8653(79) 1.2457(51) 0.2401(44)
C5 C 1.1933(90) 1.2039(56) 0.3178(49)
C6 C 1.1660(83) 1.3207(53) 0.2014(47)
C7 C 0.8508(84) 1.1313(56) 0.1404(45)
H1 H 0.772(60) 1.064(39) 0.150(32)
N1 N 0.4147(62) 1.2296(39) -0.2410(35)
P1 P 0.5430(21) 1.2242(14) -0.1861(12)
P2 P 0.3944(21) 1.2825(14) -0.3240(12)
#END
