
#######################################################################
#
#                 Cambridge Crystallographic Data Centre
#                                CCDC
#
#######################################################################
#
# If this CIF has been generated from an entry in the Cambridge
# Structural Database, then it will include bibliographic, chemical,
# crystal, experimental, refinement or atomic coordinate data resulting
# from the CCDC's data processing and validation procedures.
#
#######################################################################

data_CSD_CIF_POFFOF
_audit_creation_date 1995-03-06
_audit_creation_method CSD-ConQuest-V1
_database_code_CSD POFFOF
_chemical_formula_sum 'C10 H22 Co1 I1 N2 O5'
_chemical_formula_moiety
;
C10 H20 Co1 N2 O4 1+,I1 1-,H2 O1
;
_journal_coden_Cambridge 9
_journal_volume 33
_journal_year 1994
_journal_page_first 3396
_journal_name_full 'Inorg.Chem. '
loop_
_publ_author_name
"P.Comba"
"H.Jakob"
"B.Nuber"
"B.K.Keppler"
_chemical_name_systematic
;
bis(Ammine-(2,4-pentanedionato-O,O'))-cobalt(iii) iodide monohydrate
;
_cell_volume    821.255
_exptl_crystal_colour 'red-brown'
_diffrn_ambient_temperature ?
_diffrn_special_details
;
The study was carried out at room temperature,in the range 283-303K

;
#These two values have been output from a single CSD field.
_refine_ls_R_factor_gt 0.042
_refine_ls_wR_factor_gt 0.042
_symmetry_cell_setting triclinic
_symmetry_space_group_name_H-M 'P -1'
_symmetry_Int_Tables_number 2
loop_
_symmetry_equiv_pos_site_id
_symmetry_equiv_pos_as_xyz
1 x,y,z
2 -x,-y,-z
_cell_length_a 9.714
_cell_length_b 9.885
_cell_length_c 10.449
_cell_angle_alpha 69.12(3)
_cell_angle_beta 67.83(3)
_cell_angle_gamma 65.48(2)
_cell_formula_units_Z 2
loop_
_atom_type_symbol
_atom_type_radius_bond
C 0.68
H 0.23
Co 1.33
I 1.40
N 0.68
O 0.68
loop_
_atom_site_label
_atom_site_type_symbol
_atom_site_fract_x
_atom_site_fract_y
_atom_site_fract_z
I1 I 0.0982(1) 0.0286(1) 0.2343(1)
Co1 Co 0.7417(1) 0.7382(1) 0.5119(1)
O1 O 0.7517(5) 0.5392(5) 0.5217(5)
O2 O 0.6491(5) 0.8403(5) 0.3583(5)
O3 O 0.5347(5) 0.7728(5) 0.6353(5)
O4 O 0.8467(5) 0.6432(5) 0.6570(5)
N1 N 0.7326(6) 0.9389(6) 0.5135(6)
N2 N 0.9502(5) 0.7029(6) 0.3766(6)
C1 C 0.7384(8) 0.3414(7) 0.4546(8)
C2 C 0.7164(7) 0.5095(7) 0.4301(7)
C3 C 0.6627(8) 0.6144(8) 0.3166(7)
C4 C 0.6300(7) 0.7731(8) 0.2848(7)
C5 C 0.5697(8) 0.8753(8) 0.1588(7)
C6 C 0.3321(8) 0.7736(9) 0.8494(8)
C7 C 0.5042(7) 0.7363(7) 0.7705(8)
C8 C 0.6147(7) 0.6665(8) 0.8483(8)
C9 C 0.7771(7) 0.6237(7) 0.7897(7)
C10 C 0.8842(8) 0.5492(8) 0.8876(7)
O5 O 0.0230(14) 0.1567(13) 0.9202(11)
H1 H 0.77520 0.92780 0.58730
H2 H 0.62540 1.00490 0.53070
H3 H 0.79290 0.98260 0.42320
H4 H 0.93950 0.74170 0.28130
H5 H 1.00670 0.59510 0.39230
H6 H 1.00670 0.75460 0.38980
H7 H 0.70970 0.32850 0.38230
H8 H 0.67290 0.30790 0.54640
H9 H 0.84640 0.28170 0.45060
H10 H 0.64610 0.57540 0.25360
H11 H 0.55930 0.81470 0.11090
H12 H 0.64200 0.92880 0.09480
H13 H 0.46900 0.94790 0.19010
H14 H 0.32080 0.74210 0.94990
H15 H 0.28540 0.72050 0.82530
H16 H 0.28050 0.88190 0.82310
H17 H 0.57630 0.64610 0.95010
H18 H 0.82180 0.53920 0.98480
H19 H 0.94710 0.61140 0.86810
H20 H 0.95150 0.44970 0.87190
#END
