
#######################################################################
#
#                 Cambridge Crystallographic Data Centre
#                                CCDC
#
#######################################################################
#
# If this CIF has been generated from an entry in the Cambridge
# Structural Database, then it will include bibliographic, chemical,
# crystal, experimental, refinement or atomic coordinate data resulting
# from the CCDC's data processing and validation procedures.
#
#######################################################################

data_CSD_CIF_POFYAL
_audit_creation_date 2009-03-02
_audit_creation_method CSD-ConQuest-V1
_database_code_CSD POFYAL
_database_code_depnum_ccdc_archive 'CCDC 717217'
_chemical_formula_sum 'C12 H14 Fe1 N4 O6'
_chemical_formula_moiety
;
C12 H14 Fe1 N4 O6
;
_journal_coeditor_code "IUCr NG2527"
_journal_coden_Cambridge 1370
_journal_volume 65
_journal_year 2009
_journal_page_first m107
_journal_name_full 'Acta Crystallogr.,Sect.E:Struct.Rep.Online '
loop_
_publ_author_name
"Guang Fan"
"Jia-Juan Sun"
"Jun-Cai Zhang"
"Zhan-Ying Ma"
"Sheng-Li Gao"
_chemical_name_systematic
;
Diaqua-bis(5-methylpyrazine-2-carboxylato-N,O)-iron(ii)
;
_cell_volume    368.219
_exptl_crystal_colour 'red'
_exptl_crystal_density_diffrn 1.651
_exptl_crystal_description 'block'
_diffrn_ambient_temperature 298
#These two values have been output from a single CSD field.
_refine_ls_R_factor_gt 0.0414
_refine_ls_wR_factor_gt 0.0414
_symmetry_cell_setting triclinic
_symmetry_space_group_name_H-M 'P -1'
_symmetry_Int_Tables_number 2
loop_
_symmetry_equiv_pos_site_id
_symmetry_equiv_pos_as_xyz
1 x,y,z
2 -x,-y,-z
_cell_length_a 5.068(1)
_cell_length_b 6.401(1)
_cell_length_c 12.3810(12)
_cell_angle_alpha 103.851(2)
_cell_angle_beta 91.079(1)
_cell_angle_gamma 108.340(2)
_cell_formula_units_Z 1
loop_
_atom_type_symbol
_atom_type_radius_bond
C 0.68
H 0.23
Fe 1.34
N 0.68
O 0.68
loop_
_atom_site_label
_atom_site_type_symbol
_atom_site_fract_x
_atom_site_fract_y
_atom_site_fract_z
Fe1 Fe 0.50000 0.50000 0.50000
N1 N 0.5923(6) 0.4742(4) 0.3281(2)
N2 N 0.6791(7) 0.4921(6) 0.1096(2)
O1 O 0.3162(5) 0.7203(4) 0.45178(18)
O2 O 0.2550(5) 0.8729(4) 0.3133(2)
O3 O 0.8721(5) 0.7772(4) 0.56033(19)
H1 H 1.01210 0.79750 0.52260
H2 H 0.87010 0.90770 0.59610
C1 C 0.3463(7) 0.7489(5) 0.3543(3)
C2 C 0.5049(7) 0.6138(5) 0.2826(3)
C3 C 0.5494(8) 0.6191(7) 0.1744(3)
H3 H 0.48560 0.71670 0.14450
C4 C 0.7211(7) 0.3461(6) 0.2642(3)
H4 H 0.78550 0.24870 0.29400
C5 C 0.7624(7) 0.3530(6) 0.1548(3)
C6 C 0.9003(9) 0.2011(7) 0.0829(3)
H5 H 0.76000 0.07220 0.03470
H6 H 1.00590 0.14950 0.12970
H7 H 1.02320 0.28470 0.03840
N1A N 0.4077(6) 0.5258(4) 0.6719(2)
N2A N 0.3209(7) 0.5079(6) 0.8904(2)
O1A O 0.6838(5) 0.2797(4) 0.54822(18)
O2A O 0.7450(5) 0.1271(4) 0.6867(2)
O3A O 0.1279(5) 0.2228(4) 0.43967(19)
H1A H -0.01210 0.20250 0.47740
H2A H 0.12990 0.09230 0.40390
C1A C 0.6537(7) 0.2511(5) 0.6457(3)
C2A C 0.4951(7) 0.3862(5) 0.7174(3)
C3A C 0.4506(8) 0.3809(7) 0.8256(3)
H3A H 0.51440 0.28330 0.85550
C4A C 0.2789(7) 0.6539(6) 0.7358(3)
H4A H 0.21450 0.75130 0.70600
C5A C 0.2376(7) 0.6470(6) 0.8452(3)
C6A C 0.0997(9) 0.7989(7) 0.9171(3)
H5A H 0.24000 0.92780 0.96530
H6A H -0.00590 0.85050 0.87030
H7A H -0.02320 0.71530 0.96160
#END
