
#######################################################################
#
#                 Cambridge Crystallographic Data Centre
#                                CCDC
#
#######################################################################
#
# If this CIF has been generated from an entry in the Cambridge
# Structural Database, then it will include bibliographic, chemical,
# crystal, experimental, refinement or atomic coordinate data resulting
# from the CCDC's data processing and validation procedures.
#
#######################################################################

data_CSD_CIF_POJJIH
_audit_creation_date 1995-05-01
_audit_creation_method CSD-ConQuest-V1
_database_code_CSD POJJIH
_database_code_depnum_ccdc_fiz 'CSD 57960'
_chemical_formula_sum 'C16 H18 Cr1 O4 Si1'
_chemical_formula_moiety
;
C16 H18 Cr1 O4 Si1
;
_journal_coden_Cambridge 155
_journal_volume 220
_journal_year 1994
_journal_page_first 175
_journal_name_full 'Inorg.Chim.Acta '
loop_
_publ_author_name
"M.Brands"
"H.G.Wey"
"R.Goddard"
"H.Butenschon"
_chemical_name_systematic
;
Tricarbonyl-(\h^6^-1-endo-trimethylsilyloxy-1-exo-vinylbenzocyclobutene)-chrom
ium(0)
;
_chemical_melting_point 365.15
_cell_volume    838.964
_exptl_crystal_colour 'yellow'
_exptl_crystal_density_diffrn 1.4
_diffrn_ambient_temperature ?
_diffrn_special_details
;
The study was carried out at room temperature,in the range 283-303K

;
#These two values have been output from a single CSD field.
_refine_ls_R_factor_gt 0.037
_refine_ls_wR_factor_gt 0.037
_symmetry_cell_setting triclinic
_symmetry_space_group_name_H-M 'P -1'
_symmetry_Int_Tables_number 2
loop_
_symmetry_equiv_pos_site_id
_symmetry_equiv_pos_as_xyz
1 x,y,z
2 -x,-y,-z
_cell_length_a 8.693(1)
_cell_length_b 9.490(1)
_cell_length_c 11.063(1)
_cell_angle_alpha 97.51(1)
_cell_angle_beta 110.32(1)
_cell_angle_gamma 95.38(1)
_cell_formula_units_Z 2
loop_
_atom_type_symbol
_atom_type_radius_bond
C 0.68
H 0.23
Cr 1.35
O 0.68
Si 1.20
loop_
_atom_site_label
_atom_site_type_symbol
_atom_site_fract_x
_atom_site_fract_y
_atom_site_fract_z
Cr1 Cr 0.2709(1) 0.7903(1) 0.0167(1)
Si1 Si 0.1529(1) 0.7485(1) 0.4074(1)
O1 O 0.1535(1) 0.6482(1) 0.2732(1)
O2 O -0.0615(2) 0.8185(2) 0.0336(2)
O3 O 0.3931(2) 1.0757(2) 0.1936(2)
O4 O 0.1774(3) 0.9388(2) -0.2149(2)
C1 C 0.0648(2) 0.8065(2) 0.0267(2)
C2 C 0.3477(3) 0.9666(2) 0.1252(2)
C3 C 0.2127(3) 0.8828(2) -0.1253(2)
C4 C 0.4458(2) 0.6885(2) 0.1642(2)
C5 C 0.5264(2) 0.7351(2) 0.0825(2)
C6 C 0.4459(3) 0.6845(2) -0.0519(2)
C7 C 0.2902(3) 0.5938(2) -0.1030(2)
C8 C 0.2069(2) 0.5530(2) -0.0221(2)
C9 C 0.2906(2) 0.6022(2) 0.1133(2)
C10 C 0.2850(2) 0.5926(2) 0.2492(2)
C11 C 0.4607(2) 0.6943(2) 0.3053(2)
C12 C 0.2952(3) 0.4416(2) 0.2769(2)
C13 C 0.1886(3) 0.3632(2) 0.3092(3)
C14 C 0.2933(3) 0.6898(3) 0.5551(2)
C15 C 0.2137(4) 0.9426(2) 0.4130(3)
C16 C -0.0643(3) 0.7197(3) 0.3957(3)
H1 H 0.63990 0.75090 0.11350
H2 H 0.51730 0.67380 -0.09970
H3 H 0.26860 0.52690 -0.18100
H4 H 0.13440 0.46470 -0.04920
H5 H 0.46260 0.78480 0.35020
H6 H 0.55050 0.64960 0.35580
H7 H 0.38600 0.39940 0.26900
H8 H 0.20470 0.26930 0.32460
H9 H 0.09440 0.40180 0.31800
H10 H 0.26170 0.59340 0.55570
H11 H 0.40590 0.70230 0.55480
H12 H 0.29520 0.74930 0.63200
H13 H 0.32100 0.95750 0.40750
H14 H 0.13620 0.97120 0.33630
H15 H 0.21150 0.99690 0.48800
H16 H -0.13300 0.75040 0.31840
H17 H -0.09890 0.62110 0.39140
H18 H -0.07490 0.77460 0.46990
#END
