
#######################################################################
#
#                 Cambridge Crystallographic Data Centre
#                                CCDC
#
#######################################################################
#
# If this CIF has been generated from an entry in the Cambridge
# Structural Database, then it will include bibliographic, chemical,
# crystal, experimental, refinement or atomic coordinate data resulting
# from the CCDC's data processing and validation procedures.
#
#######################################################################

data_CSD_CIF_POLTUF
_audit_creation_date 1995-09-14
_audit_creation_method CSD-ConQuest-V1
_database_code_CSD POLTUF
_chemical_formula_sum 'C10 H7 Cr1 N1 O4'
_chemical_formula_moiety
;
C10 H7 Cr1 N1 O4
;
_journal_coden_Cambridge 36
_journal_volume 476
_journal_year 1994
_journal_page_first 55
_journal_name_full 'J.Organomet.Chem. '
loop_
_publ_author_name
"M.M.Kubicki"
"P.Richard"
"B.Gautheron"
"M.Viotte"
"S.Toma"
"M.Hudecek"
"V.Gajda"
_chemical_name_systematic
;
(\h^6^-Benzamide)-tricarbonyl-chromium
;
_chemical_melting_point 398.15
_cell_volume    511.593
_exptl_crystal_colour 'orange'
_exptl_crystal_density_diffrn 1.667
_exptl_special_details
;
Melting point range 398.15-400.15K

;
_diffrn_ambient_temperature ?
_diffrn_special_details
;
The study was carried out at room temperature,in the range 283-303K

;
#These two values have been output from a single CSD field.
_refine_ls_R_factor_gt 0.033
_refine_ls_wR_factor_gt 0.033
_symmetry_cell_setting triclinic
_symmetry_space_group_name_H-M 'P -1'
_symmetry_Int_Tables_number 2
loop_
_symmetry_equiv_pos_site_id
_symmetry_equiv_pos_as_xyz
1 x,y,z
2 -x,-y,-z
_cell_length_a 6.6418
_cell_length_b 7.213
_cell_length_c 11.343
_cell_angle_alpha 85.72
_cell_angle_beta 82.89
_cell_angle_gamma 71.7
_cell_formula_units_Z 2
loop_
_atom_type_symbol
_atom_type_radius_bond
C 0.68
H 0.23
Cr 1.35
N 0.68
O 0.68
loop_
_atom_site_label
_atom_site_type_symbol
_atom_site_fract_x
_atom_site_fract_y
_atom_site_fract_z
Cr1 Cr 0.18241(4) 0.13750(4) 0.21451(2)
O1 O -0.0304(5) 0.2355(3) -0.0093(2)
O2 O 0.4994(4) -0.2144(3) 0.1033(2)
O3 O -0.1004(3) -0.1072(3) 0.2958(2)
O4 O -0.2498(3) 0.2970(3) 0.4863(2)
N1 N -0.3396(3) 0.5722(3) 0.3731(2)
C1 C 0.0548(4) 0.1960(3) 0.0763(2)
C2 C 0.3806(4) -0.0789(4) 0.1450(2)
C3 C 0.0107(3) -0.0147(3) 0.2646(2)
C4 C 0.0225(3) 0.3579(3) 0.3490(2)
C5 C 0.0803(4) 0.4528(3) 0.2429(2)
C6 C 0.2950(4) 0.3983(4) 0.1905(2)
C7 C 0.4485(4) 0.2458(4) 0.2429(2)
C8 C 0.3930(4) 0.1490(4) 0.3484(2)
C9 C 0.1817(3) 0.2024(4) 0.4012(2)
C10 C -0.2011(3) 0.4076(3) 0.4083(2)
H1 H -0.04000 0.56800 0.20100
H2 H 0.34000 0.47400 0.11100
H3 H 0.61100 0.20100 0.20200
H4 H 0.51400 0.03300 0.38900
H5 H 0.13900 0.12600 0.48100
H6 H -0.47800 0.61900 0.41500
H7 H -0.30700 0.65400 0.32400
#END
