
#######################################################################
#
#                 Cambridge Crystallographic Data Centre
#                                CCDC
#
#######################################################################
#
# If this CIF has been generated from an entry in the Cambridge
# Structural Database, then it will include bibliographic, chemical,
# crystal, experimental, refinement or atomic coordinate data resulting
# from the CCDC's data processing and validation procedures.
#
#######################################################################

data_CSD_CIF_POQXEB
_audit_creation_date 2019-09-04
_audit_creation_method CSD-ConQuest-V1
_database_code_CSD POQXEB
_database_code_depnum_ccdc_archive 'CCDC 1851825'
_chemical_formula_sum 'C12 H12 Cl3 Fe1 N6'
_chemical_formula_moiety
;
C12 H12 Cl3 Fe1 N6
;
_journal_coden_Cambridge 1268
_journal_volume 24
_journal_year 2019
_journal_page_first 3173
_journal_name_full 'Molecules '
loop_
_publ_author_name
"A.Bocian"
"M.Szymanska"
"D.Brykczynska"
"M.Kubicki"
"M.Walesa-Chorab"
"G.N.Roviello"
"M.A.Fik-Jaskolka"
"A.Gorczynski"
"V.Patroniak"
_chemical_name_systematic
;
trichloro-(2-{2-[(1H-imidazol-4-yl)methylidene]-1-methylhydrazinyl}-1H-benzimi
dazole)-iron
;
_cell_volume    743.691
_exptl_crystal_colour 'colorless'
_exptl_crystal_density_diffrn 1.797
_exptl_crystal_description 'block'
_diffrn_ambient_temperature 130
#These two values have been output from a single CSD field.
_refine_ls_R_factor_gt 0.0776
_refine_ls_wR_factor_gt 0.0776
_symmetry_cell_setting triclinic
_symmetry_space_group_name_H-M 'P -1'
_symmetry_Int_Tables_number 2
loop_
_symmetry_equiv_pos_site_id
_symmetry_equiv_pos_as_xyz
1 x,y,z
2 -x,-y,-z
_cell_length_a 7.459(2)
_cell_length_b 9.055(2)
_cell_length_c 12.460(3)
_cell_angle_alpha 75.69(2)
_cell_angle_beta 87.94(2)
_cell_angle_gamma 66.12(3)
_cell_formula_units_Z 2
loop_
_atom_type_symbol
_atom_type_radius_bond
C 0.68
H 0.23
Cl 0.99
Fe 1.52
N 0.68
loop_
_atom_site_label
_atom_site_type_symbol
_atom_site_fract_x
_atom_site_fract_y
_atom_site_fract_z
Fe1 Fe 0.7721(5) 0.2083(4) 0.7971(3)
Cl1 Cl 0.9900(8) -0.0563(6) 0.8229(5)
Cl2 Cl 0.5263(8) 0.1367(6) 0.7086(4)
Cl3 Cl 0.9643(8) 0.3043(6) 0.8781(4)
N1 N 0.789(2) 0.3355(18) 0.6398(12)
C1 C 0.664(3) 0.497(2) 0.6069(16)
N2 N 0.685(2) 0.5687(18) 0.5014(12)
H1 H 0.61590 0.67290 0.46490
C2 C 0.840(3) 0.448(2) 0.4594(14)
C3 C 0.909(3) 0.459(2) 0.3608(16)
H2 H 0.86020 0.55980 0.30340
C4 C 1.060(3) 0.312(2) 0.3464(17)
H3 H 1.11720 0.31080 0.27690
C5 C 1.129(3) 0.166(3) 0.4335(17)
H4 H 1.23130 0.06730 0.42230
C6 C 1.052(3) 0.164(3) 0.5317(17)
H5 H 1.10160 0.06510 0.59040
C7 C 0.898(3) 0.307(2) 0.5487(15)
N3 N 0.534(2) 0.5720(19) 0.6706(13)
C8 C 0.396(3) 0.749(2) 0.6520(17)
H6 H 0.26090 0.75710 0.65800
H7 H 0.40790 0.81160 0.57780
H8 H 0.42630 0.79650 0.70800
N4 N 0.533(2) 0.4645(18) 0.7708(13)
C9 C 0.411(3) 0.496(3) 0.8410(17)
H9 H 0.30530 0.60190 0.83290
C10 C 0.445(3) 0.353(2) 0.9394(16)
N5 N 0.610(2) 0.2038(18) 0.9373(12)
C11 C 0.609(3) 0.099(3) 1.0317(16)
H10 H 0.70630 -0.01150 1.05600
N6 N 0.461(3) 0.164(2) 1.0879(14)
H11 H 0.43200 0.11360 1.15160
C12 C 0.355(3) 0.330(2) 1.0290(16)
H12 H 0.23960 0.40930 1.05010
#END
