
#######################################################################
#
#                 Cambridge Crystallographic Data Centre
#                                CCDC
#
#######################################################################
#
# If this CIF has been generated from an entry in the Cambridge
# Structural Database, then it will include bibliographic, chemical,
# crystal, experimental, refinement or atomic coordinate data resulting
# from the CCDC's data processing and validation procedures.
#
#######################################################################

data_CSD_CIF_POQXOL
_audit_creation_date 2019-09-04
_audit_creation_method CSD-ConQuest-V1
_database_code_CSD POQXOL
_database_code_depnum_ccdc_archive 'CCDC 1851829'
_chemical_formula_sum 'C10 H11 Cl3 Fe1 N5'
_chemical_formula_moiety
;
C10 H11 Cl3 Fe1 N5
;
_journal_coden_Cambridge 1268
_journal_volume 24
_journal_year 2019
_journal_page_first 3173
_journal_name_full 'Molecules '
loop_
_publ_author_name
"A.Bocian"
"M.Szymanska"
"D.Brykczynska"
"M.Kubicki"
"M.Walesa-Chorab"
"G.N.Roviello"
"M.A.Fik-Jaskolka"
"A.Gorczynski"
"V.Patroniak"
_chemical_name_systematic
;
trichloro-(2-{2-[(1H-imidazol-4-yl)methylidene]-1-methylhydrazinyl}pyridine)-i
ron
;
_cell_volume    673.870
_exptl_crystal_colour 'colorless'
_exptl_crystal_density_diffrn 1.791
_exptl_crystal_description 'block'
_diffrn_ambient_temperature 130
#These two values have been output from a single CSD field.
_refine_ls_R_factor_gt 0.0748
_refine_ls_wR_factor_gt 0.0748
_symmetry_cell_setting triclinic
_symmetry_space_group_name_H-M 'P -1'
_symmetry_Int_Tables_number 2
loop_
_symmetry_equiv_pos_site_id
_symmetry_equiv_pos_as_xyz
1 x,y,z
2 -x,-y,-z
_cell_length_a 7.5198(4)
_cell_length_b 8.1040(6)
_cell_length_c 12.4702(10)
_cell_angle_alpha 75.205(6)
_cell_angle_beta 84.655(5)
_cell_angle_gamma 66.519(6)
_cell_formula_units_Z 2
loop_
_atom_type_symbol
_atom_type_radius_bond
C 0.68
H 0.23
Cl 0.99
Fe 1.52
N 0.68
loop_
_atom_site_label
_atom_site_type_symbol
_atom_site_fract_x
_atom_site_fract_y
_atom_site_fract_z
Fe1 Fe 0.30385(13) 0.67123(13) 0.28825(8)
Cl1 Cl 0.5125(2) 0.3726(2) 0.33435(14)
Cl2 Cl 0.4948(2) 0.7963(2) 0.34524(13)
Cl3 Cl 0.0766(2) 0.5736(2) 0.21438(12)
N1 N 0.3665(8) 0.7698(7) 0.1191(4)
C1 C 0.5150(9) 0.6621(9) 0.0658(6)
H1 H 0.59650 0.54290 0.10640
C2 C 0.5533(10) 0.7174(10) -0.0445(6)
H2 H 0.65690 0.63900 -0.08080
C3 C 0.4321(10) 0.8946(10) -0.1003(5)
H3 H 0.45440 0.93800 -0.17650
C4 C 0.2837(10) 1.0069(9) -0.0495(5)
H4 H 0.20230 1.12730 -0.08880
C5 C 0.2537(9) 0.9395(9) 0.0639(5)
N2 N 0.1060(8) 1.0424(7) 0.1235(4)
C6 C -0.0159(9) 1.2387(9) 0.0867(5)
H5 H -0.15130 1.25400 0.08240
H6 H 0.02590 1.28910 0.01330
H7 H -0.00440 1.30500 0.13960
N3 N 0.0853(7) 0.9476(7) 0.2282(4)
C7 C -0.0537(9) 1.0136(9) 0.2933(5)
H8 H -0.15260 1.13440 0.27340
C8 C -0.0447(9) 0.8854(9) 0.4003(5)
N4 N 0.1152(8) 0.7190(7) 0.4210(4)
C9 C 0.0934(10) 0.6284(9) 0.5235(5)
H9 H 0.18270 0.51030 0.56090
N5 N -0.0741(8) 0.7294(8) 0.5663(5)
H10 H -0.11890 0.69650 0.63260
C10 C -0.1633(10) 0.8923(10) 0.4890(6)
H11 H -0.28350 0.98980 0.49630
#END
