
#######################################################################
#
#                 Cambridge Crystallographic Data Centre
#                                CCDC
#
#######################################################################
#
# If this CIF has been generated from an entry in the Cambridge
# Structural Database, then it will include bibliographic, chemical,
# crystal, experimental, refinement or atomic coordinate data resulting
# from the CCDC's data processing and validation procedures.
#
#######################################################################

data_CSD_CIF_PORWUQ
_audit_creation_date 2014-10-28
_audit_creation_method CSD-ConQuest-V1
_database_code_CSD PORWUQ
_database_code_depnum_ccdc_archive 'CCDC 999746'
_chemical_formula_sum 'C28 H18 Co1 N16'
_chemical_formula_moiety
;
C24 H12 Co1 N14,2(C2 H3 N1)
;
_journal_coden_Cambridge 29
_journal_volume 640
_journal_year 2014
_journal_page_first 1960
_journal_name_full 'Z.Anorg.Allg.Chem. '
loop_
_publ_author_name
"B.Szafranowsky"
"J.Beck"
_chemical_name_systematic
;
tetrakis(acetonitrile)-bis(2,3,4,5-tetracyano-1H-pyrrol-1-yl)-cobalt(ii) 
acetonitrile solvate
;
_cell_volume    796.187
_exptl_crystal_density_diffrn 1.33
_exptl_special_details
;
Magnetic properties
Easily loses solvent molecules under loss of crystallinity
;
_exptl_crystal_preparation 'Acetonitrile'
_diffrn_ambient_temperature 123
#These two values have been output from a single CSD field.
_refine_ls_R_factor_gt 0.0365
_refine_ls_wR_factor_gt 0.0365
_symmetry_cell_setting triclinic
_symmetry_space_group_name_H-M 'P -1'
_symmetry_Int_Tables_number 2
loop_
_symmetry_equiv_pos_site_id
_symmetry_equiv_pos_as_xyz
1 x,y,z
2 -x,-y,-z
_cell_length_a 7.8693(2)
_cell_length_b 9.9411(3)
_cell_length_c 10.4822(3)
_cell_angle_alpha 96.171(2)
_cell_angle_beta 102.334(2)
_cell_angle_gamma 90.110(1)
_cell_formula_units_Z 1
loop_
_atom_type_symbol
_atom_type_radius_bond
C 0.68
H 0.23
Co 1.26
N 0.68
loop_
_atom_site_label
_atom_site_type_symbol
_atom_site_fract_x
_atom_site_fract_y
_atom_site_fract_z
Co1 Co 0.50000 0.50000 0.50000
N1 N 0.40450(18) 0.29397(14) 0.46007(13)
N2 N 0.2534(2) 0.31851(17) 0.75728(16)
N3 N 0.1564(2) -0.10044(17) 0.58261(16)
N4 N 0.3331(3) -0.13420(18) 0.19740(17)
N5 N 0.5417(2) 0.25315(17) 0.15625(15)
N6 N 0.38536(19) 0.53235(15) 0.30345(14)
N7 N 0.73167(19) 0.44116(15) 0.43997(14)
C1 C 0.3282(2) 0.22221(17) 0.53814(16)
C2 C 0.2895(2) 0.08903(17) 0.48288(17)
C3 C 0.3440(2) 0.07747(18) 0.36264(17)
C4 C 0.4127(2) 0.20451(17) 0.35374(16)
C5 C 0.2898(2) 0.27881(18) 0.65979(18)
C6 C 0.2145(2) -0.01587(18) 0.53777(17)
C7 C 0.3358(2) -0.04000(19) 0.27090(18)
C8 C 0.4859(2) 0.23630(18) 0.24597(17)
C9 C 0.3344(2) 0.54497(18) 0.19542(18)
C10 C 0.2725(3) 0.5591(2) 0.05649(18)
H1 H 0.35910 0.61070 0.02560
H2 H 0.16240 0.60690 0.04380
H3 H 0.25450 0.46920 0.00650
C11 C 0.8353(2) 0.40905(18) 0.38241(17)
C12 C 0.9615(2) 0.3701(2) 0.30352(19)
H4 H 0.90300 0.31670 0.22190
H5 H 1.05120 0.31590 0.35270
H6 H 1.01560 0.45150 0.28270
N8 N 0.0790(3) 0.2159(2) 1.04882(19)
C13 C 0.1448(3) 0.1387(2) 0.98914(19)
C14 C 0.2319(3) 0.0403(2) 0.9143(2)
H7 H 0.34170 0.07990 0.90410
H8 H 0.15710 0.01480 0.82750
H9 H 0.25580 -0.04030 0.96090
N1A N 0.59550(18) 0.70603(14) 0.53993(13)
N2A N 0.7466(2) 0.68149(17) 0.24272(16)
N3A N 0.8436(2) 1.10044(17) 0.41739(16)
N4A N 0.6669(3) 1.13420(18) 0.80260(17)
N5A N 0.4583(2) 0.74685(17) 0.84375(15)
N6A N 0.61464(19) 0.46765(15) 0.69655(14)
N7A N 0.26833(19) 0.55884(15) 0.56003(14)
C1A C 0.6718(2) 0.77779(17) 0.46186(16)
C2A C 0.7105(2) 0.91097(17) 0.51712(17)
C3A C 0.6560(2) 0.92253(18) 0.63736(17)
C4A C 0.5873(2) 0.79549(17) 0.64626(16)
C5A C 0.7102(2) 0.72119(18) 0.34021(18)
C6A C 0.7855(2) 1.01587(18) 0.46223(17)
C7A C 0.6642(2) 1.04000(19) 0.72910(18)
C8A C 0.5141(2) 0.76370(18) 0.75403(17)
C9A C 0.6656(2) 0.45503(18) 0.80458(18)
C10A C 0.7275(3) 0.4409(2) 0.94351(18)
H1A H 0.64090 0.38930 0.97440
H2A H 0.83760 0.39310 0.95620
H3A H 0.74550 0.53080 0.99350
C11A C 0.1647(2) 0.59095(18) 0.61759(17)
C12A C 0.0385(2) 0.6299(2) 0.69648(19)
H4A H 0.09700 0.68330 0.77810
H5A H -0.05120 0.68410 0.64730
H6A H -0.01560 0.54850 0.71730
#END
