
#######################################################################
#
#                 Cambridge Crystallographic Data Centre
#                                CCDC
#
#######################################################################
#
# If this CIF has been generated from an entry in the Cambridge
# Structural Database, then it will include bibliographic, chemical,
# crystal, experimental, refinement or atomic coordinate data resulting
# from the CCDC's data processing and validation procedures.
#
#######################################################################

data_CSD_CIF_POVXAA
_audit_creation_date 2009-09-08
_audit_creation_method CSD-ConQuest-V1
_database_code_CSD POVXAA
_database_code_depnum_ccdc_archive 'CCDC 714813'
_chemical_formula_sum 'C6 H12 Cl2 Mn1 N4 O2'
_chemical_formula_moiety
;
C6 H12 Cl2 Mn1 N4 O2
;
_journal_coeditor_code "IUCr SK3300"
_journal_coden_Cambridge 591
_journal_volume 65
_journal_year 2009
_journal_page_first m215
_journal_name_full 'Acta Crystallogr.,Sect.C:Cryst.Struct.Commun. '
loop_
_publ_author_name
"B.Hachula"
"M.Pedras"
"D.Pentak"
"M.Nowak"
"J.Kusz"
"J.Borek"
_chemical_name_systematic
;
Diaqua-dichlorido-bis(1H-imidazole-N^3^)-manganese(ii)
;
_cell_volume    591.814
_exptl_crystal_colour 'colorless'
_exptl_crystal_density_diffrn 1.672
_exptl_crystal_description 'polyhedron'
_diffrn_ambient_temperature 100
#These two values have been output from a single CSD field.
_refine_ls_R_factor_gt 0.0139
_refine_ls_wR_factor_gt 0.0139
_symmetry_cell_setting monoclinic
_symmetry_space_group_name_H-M 'P 21/c'
_symmetry_Int_Tables_number 14
loop_
_symmetry_equiv_pos_site_id
_symmetry_equiv_pos_as_xyz
1 x,y,z
2 -x,1/2+y,1/2-z
3 -x,-y,-z
4 x,-1/2-y,-1/2+z
_cell_length_a 7.9364(1)
_cell_length_b 9.0864(2)
_cell_length_c 8.2480(1)
_cell_angle_alpha 90
_cell_angle_beta 95.734(2)
_cell_angle_gamma 90
_cell_formula_units_Z 2
loop_
_atom_type_symbol
_atom_type_radius_bond
C 0.68
H 0.23
Cl 0.99
Mn 1.61
N 0.68
O 0.68
loop_
_atom_site_label
_atom_site_type_symbol
_atom_site_fract_x
_atom_site_fract_y
_atom_site_fract_z
Mn1 Mn 0.50000 0.50000 0.00000
Cl1 Cl 0.38087(3) 0.76376(3) -0.00932(3)
O1 O 0.42191(10) 0.47073(10) 0.2473(1)
H1 H 0.466(2) 0.406(2) 0.306(2)
H2 H 0.417(2) 0.544(2) 0.303(2)
N1 N 0.75240(11) 0.57626(10) 0.10307(11)
N2 N 1.01472(13) 0.65532(12) 0.11409(14)
H3 H 1.099(2) 0.6925(18) 0.0817(19)
C1 C 0.86214(15) 0.65252(13) 0.02728(15)
H4 H 0.83670 0.69930 -0.07520
C2 C 1.00392(16) 0.57514(14) 0.25295(16)
H5 H 1.09210 0.55690 0.33720
C3 C 0.84151(15) 0.52703(14) 0.24572(15)
H6 H 0.79590 0.46850 0.32620
Cl1B Cl 0.61913(3) 0.23624(3) 0.00932(3)
O1B O 0.57809(10) 0.52927(10) -0.2473(1)
H1B H 0.534(2) 0.594(2) -0.306(2)
H2B H 0.583(2) 0.456(2) -0.303(2)
N1B N 0.24760(11) 0.42374(10) -0.10307(11)
N2B N -0.01472(13) 0.34468(12) -0.11409(14)
H3B H -0.099(2) 0.3075(18) -0.0817(19)
C1B C 0.13786(15) 0.34748(13) -0.02728(15)
H4B H 0.16330 0.30070 0.07520
C2B C -0.00392(16) 0.42486(14) -0.25295(16)
H5B H -0.09210 0.44310 -0.33720
C3B C 0.15849(15) 0.47297(14) -0.24572(15)
H6B H 0.20410 0.53150 -0.32620
#END
