
#######################################################################
#
#                 Cambridge Crystallographic Data Centre
#                                CCDC
#
#######################################################################
#
# If this CIF has been generated from an entry in the Cambridge
# Structural Database, then it will include bibliographic, chemical,
# crystal, experimental, refinement or atomic coordinate data resulting
# from the CCDC's data processing and validation procedures.
#
#######################################################################

data_CSD_CIF_POWVED
_audit_creation_date 2009-09-08
_audit_creation_method CSD-ConQuest-V1
_database_code_CSD POWVED
_database_code_depnum_ccdc_archive 'CCDC 744169'
_chemical_formula_sum 'C8 H18 Cl3 Fe1 N2 O6'
_chemical_formula_moiety
;
C6 H14 N2 2+,C2 H4 Cl2 Fe1 O6 1-,Cl1 1-
;
_journal_coeditor_code "IUCr CV2580"
_journal_coden_Cambridge 1370
_journal_volume 65
_journal_year 2009
_journal_page_first m877
_journal_name_full 'Acta Crystallogr.,Sect.E:Struct.Rep.Online '
loop_
_publ_author_name
"Ying Cai"
_chemical_name_systematic
;
1,4-Diazoniabicyclo[2.2.2]octane diaqua-dichlorido-(oxalato-O,O')-iron(iii) 
chloride
;
_cell_volume    757.469
_exptl_crystal_colour 'yellow'
_exptl_crystal_density_diffrn 1.756
_exptl_crystal_description 'plate'
_diffrn_ambient_temperature 293
#These two values have been output from a single CSD field.
_refine_ls_R_factor_gt 0.0204
_refine_ls_wR_factor_gt 0.0204
_symmetry_cell_setting monoclinic
_symmetry_space_group_name_H-M 'C 2'
_symmetry_Int_Tables_number 5
loop_
_symmetry_equiv_pos_site_id
_symmetry_equiv_pos_as_xyz
1 x,y,z
2 -x,y,-z
3 1/2+x,1/2+y,z
4 1/2-x,1/2+y,-z
_cell_length_a 9.872(2)
_cell_length_b 9.6636(19)
_cell_length_c 8.4268(17)
_cell_angle_alpha 90
_cell_angle_beta 109.57(3)
_cell_angle_gamma 90
_cell_formula_units_Z 2
loop_
_atom_type_symbol
_atom_type_radius_bond
C 0.68
H 0.23
Cl 0.99
Fe 1.52
N 0.68
O 0.68
loop_
_atom_site_label
_atom_site_type_symbol
_atom_site_fract_x
_atom_site_fract_y
_atom_site_fract_z
Fe1 Fe 0.00000 1.02078(3) 1.00000
Cl1 Cl 0.16532(6) 1.17560(5) 1.16036(7)
Cl2 Cl 0.00000 0.85379(10) 0.50000
N1 N 0.37619(17) 0.90236(18) 0.3965(2)
H1 H 0.28530 0.90210 0.32070
C1 C 0.07314(19) 0.7358(2) 1.0751(2)
C2 C 0.3777(2) 0.9825(2) 0.5494(2)
H2 H 0.30470 0.94700 0.59220
H3 H 0.35720 1.07920 0.52070
C3 C 0.4750(2) 0.9679(3) 0.3179(3)
H4 H 0.43860 1.05820 0.27350
H5 H 0.48120 0.91110 0.22570
C4 C 0.4218(3) 0.7572(2) 0.4454(3)
H6 H 0.40880 0.70170 0.34540
H7 H 0.36380 0.71760 0.50670
O1 O 0.11725(13) 0.85657(14) 1.13039(16)
O2 O 0.11176(16) 1.00290(19) 0.83598(18)
O3 O 0.13212(14) 0.62670(16) 1.1287(2)
H8 H 0.199(3) 1.033(3) 0.859(3)
H9 H 0.075(3) 0.971(4) 0.741(4)
Cl1A Cl -0.16532(6) 1.17560(5) 0.83964(7)
N1A N 0.62381(17) 0.90236(18) 0.6035(2)
H1A H 0.71470 0.90210 0.67930
C1A C -0.07314(19) 0.7358(2) 0.9249(2)
C2A C 0.6223(2) 0.9825(2) 0.4506(2)
H2A H 0.69530 0.94700 0.40780
H3A H 0.64280 1.07920 0.47930
C3A C 0.5250(2) 0.9679(3) 0.6821(3)
H4A H 0.56140 1.05820 0.72650
H5A H 0.51880 0.91110 0.77430
C4A C 0.5782(3) 0.7572(2) 0.5546(3)
H6A H 0.59120 0.70170 0.65460
H7A H 0.63620 0.71760 0.49330
O1A O -0.11725(13) 0.85657(14) 0.86961(16)
O2A O -0.11176(16) 1.00290(19) 1.16402(18)
O3A O -0.13212(14) 0.62670(16) 0.8713(2)
H8A H -0.199(3) 1.033(3) 1.141(3)
H9A H -0.075(3) 0.971(4) 1.259(4)
#END
