
#######################################################################
#
#                 Cambridge Crystallographic Data Centre
#                                CCDC
#
#######################################################################
#
# If this CIF has been generated from an entry in the Cambridge
# Structural Database, then it will include bibliographic, chemical,
# crystal, experimental, refinement or atomic coordinate data resulting
# from the CCDC's data processing and validation procedures.
#
#######################################################################

data_CSD_CIF_PRZCOC05
_audit_creation_date 2019-10-19
_audit_creation_method CSD-ConQuest-V1
_database_code_CSD PRZCOC05
_database_code_depnum_ccdc_archive 'CCDC 1499532'
_chemical_formula_sum 'C10 H10 Co1 N4 O6'
_chemical_formula_moiety
;
C10 H10 Co1 N4 O6
;
_journal_coden_Cambridge 580
_journal_volume 175
_journal_year 2019
_journal_page_first 114173
_journal_name_full 'Polyhedron '
loop_
_publ_author_name
"G.Swiderski"
"S.Wojtulewski"
"M.Kalinowska"
"R.Swislocka"
"A.Z.Wilczewska"
"A.Pietryczuk"
"A.Cudowski"
"W.Lewandowski"
_chemical_name_systematic
;
diaqua-bis(pyrazine-2-carboxylato)-cobalt(ii)
;
_cell_volume    580.735
_exptl_crystal_colour 'light orange'
_exptl_crystal_density_diffrn 1.951
_exptl_crystal_description 'block'
_diffrn_ambient_temperature 100
#These two values have been output from a single CSD field.
_refine_ls_R_factor_gt 0.0283
_refine_ls_wR_factor_gt 0.0283
_symmetry_cell_setting monoclinic
_symmetry_space_group_name_H-M 'P 21/c'
_symmetry_Int_Tables_number 14
loop_
_symmetry_equiv_pos_site_id
_symmetry_equiv_pos_as_xyz
1 x,y,z
2 -x,1/2+y,1/2-z
3 -x,-y,-z
4 x,-1/2-y,-1/2+z
_cell_length_a 5.21679(6)
_cell_length_b 11.12242(13)
_cell_length_c 10.16842(12)
_cell_angle_alpha 90
_cell_angle_beta 100.1703(12)
_cell_angle_gamma 90
_cell_formula_units_Z 2
loop_
_atom_type_symbol
_atom_type_radius_bond
C 0.68
H 0.23
Co 1.26
N 0.68
O 0.68
loop_
_atom_site_label
_atom_site_type_symbol
_atom_site_fract_x
_atom_site_fract_y
_atom_site_fract_z
Co1 Co 0.00000 1.00000 0.50000
O1 O -0.23317(19) 0.92761(9) 0.62779(10)
O2 O -0.3054(2) 0.75873(9) 0.73602(10)
N1 N 0.1110(2) 0.81906(10) 0.50277(11)
O3 O 0.2969(2) 1.02541(11) 0.66713(11)
C1 C -0.1941(3) 0.81625(12) 0.65839(13)
C2 C 0.0036(3) 0.75305(12) 0.58960(13)
N2 N 0.2478(2) 0.57872(11) 0.54947(13)
C3 C 0.3496(3) 0.64500(13) 0.46235(14)
H1 H 0.47218 0.60940 0.41530
C4 C 0.0724(3) 0.63256(12) 0.61142(14)
H2 H -0.00766 0.58718 0.67221
C5 C 0.2809(3) 0.76534(12) 0.43845(14)
H3 H 0.35651 0.80970 0.37520
H4 H 0.320(6) 1.088(3) 0.696(3)
H5 H 0.426(5) 0.9918(18) 0.665(2)
O1B O 0.23317(19) 1.07239(9) 0.37221(10)
O2B O 0.3054(2) 1.24127(9) 0.26398(10)
N1B N -0.1110(2) 1.18094(10) 0.49723(11)
O3B O -0.2969(2) 0.97459(11) 0.33287(11)
C1B C 0.1941(3) 1.18375(12) 0.34161(13)
C2B C -0.0036(3) 1.24695(12) 0.41040(13)
N2B N -0.2478(2) 1.42128(11) 0.45053(13)
C3B C -0.3496(3) 1.35500(13) 0.53765(14)
H1B H -0.47218 1.39060 0.58470
C4B C -0.0724(3) 1.36744(12) 0.38858(14)
H2B H 0.00766 1.41282 0.32779
C5B C -0.2809(3) 1.23466(12) 0.56155(14)
H3B H -0.35651 1.19030 0.62480
H4B H -0.320(6) 0.912(3) 0.304(3)
H5B H -0.426(5) 1.0082(18) 0.335(2)
#END
