
#######################################################################
#
#                 Cambridge Crystallographic Data Centre
#                                CCDC
#
#######################################################################
#
# If this CIF has been generated from an entry in the Cambridge
# Structural Database, then it will include bibliographic, chemical,
# crystal, experimental, refinement or atomic coordinate data resulting
# from the CCDC's data processing and validation procedures.
#
#######################################################################

data_CSD_CIF_PRZCOC03
_audit_creation_date 2017-01-11
_audit_creation_method CSD-ConQuest-V1
_database_code_CSD PRZCOC03
_database_code_depnum_ccdc_archive 'CCDC 988258'
_chemical_formula_sum 'C10 H10 Co1 N4 O6'
_chemical_formula_moiety
;
C10 H10 Co1 N4 O6
;
_journal_coden_Cambridge 1078
_journal_year 2016
_journal_name_full 'CSD Communication(Private Communication) '
loop_
_publ_author_name
"A.Ilyukhin"
"A.Gavrikov"
_chemical_name_systematic
;
diaqua-bis(pyrazine-2-carboxylato)-cobalt(ii)
;
_cell_volume    580.864
_exptl_crystal_colour 'red'
_exptl_crystal_density_diffrn 1.951
_exptl_crystal_description 'block'
_diffrn_ambient_temperature 120
#These two values have been output from a single CSD field.
_refine_ls_R_factor_gt 0.0237
_refine_ls_wR_factor_gt 0.0237
_symmetry_cell_setting monoclinic
_symmetry_space_group_name_H-M 'P 21/c'
_symmetry_Int_Tables_number 14
loop_
_symmetry_equiv_pos_site_id
_symmetry_equiv_pos_as_xyz
1 x,y,z
2 -x,1/2+y,1/2-z
3 -x,-y,-z
4 x,-1/2-y,-1/2+z
_cell_length_a 5.2135(1)
_cell_length_b 11.1155(3)
_cell_length_c 10.1806(2)
_cell_angle_alpha 90
_cell_angle_beta 100.081(1)
_cell_angle_gamma 90
_cell_formula_units_Z 2
loop_
_atom_type_symbol
_atom_type_radius_bond
C 0.68
H 0.23
Co 1.26
N 0.68
O 0.68
loop_
_atom_site_label
_atom_site_type_symbol
_atom_site_fract_x
_atom_site_fract_y
_atom_site_fract_z
Co1 Co 0.00000 0.50000 0.50000
O1 O 0.23260(15) 0.42759(7) 0.37239(8)
O2 O 0.30488(17) 0.25882(8) 0.26420(9)
O3 O 0.29676(17) 0.47442(9) 0.66657(9)
N1 N -0.11126(18) 0.31917(8) 0.49704(9)
N2 N -0.2474(2) 0.07865(9) 0.45064(11)
C1 C 0.1937(2) 0.31642(10) 0.34168(11)
C2 C -0.0037(2) 0.25317(10) 0.41064(11)
C3 C -0.0725(2) 0.13276(10) 0.38864(12)
C4 C -0.3490(2) 0.14501(11) 0.53790(12)
C5 C -0.2808(2) 0.26519(10) 0.56149(11)
H1 H 0.310(4) 0.4155(19) 0.696(2)
H2 H 0.428(5) 0.5062(15) 0.664(2)
H3 H 0.000(3) 0.0847(16) 0.3287(17)
H4 H -0.471(3) 0.1144(14) 0.5787(16)
H5 H -0.354(3) 0.3115(15) 0.6229(17)
O1B O -0.23260(15) 0.57241(7) 0.62761(8)
O2B O -0.30488(17) 0.74118(8) 0.73580(9)
O3B O -0.29676(17) 0.52558(9) 0.33343(9)
N1B N 0.11126(18) 0.68083(8) 0.50296(9)
N2B N 0.2474(2) 0.92135(9) 0.54936(11)
C1B C -0.1937(2) 0.68358(10) 0.65832(11)
C2B C 0.0037(2) 0.74683(10) 0.58936(11)
C3B C 0.0725(2) 0.86724(10) 0.61136(12)
C4B C 0.3490(2) 0.85499(11) 0.46210(12)
C5B C 0.2808(2) 0.73481(10) 0.43851(11)
H1B H -0.310(4) 0.5845(19) 0.304(2)
H2B H -0.428(5) 0.4938(15) 0.336(2)
H3B H 0.000(3) 0.9153(16) 0.6713(17)
H4B H 0.471(3) 0.8856(14) 0.4213(16)
H5B H 0.354(3) 0.6885(15) 0.3771(17)
#END
