
#######################################################################
#
#                 Cambridge Crystallographic Data Centre
#                                CCDC
#
#######################################################################
#
# If this CIF has been generated from an entry in the Cambridge
# Structural Database, then it will include bibliographic, chemical,
# crystal, experimental, refinement or atomic coordinate data resulting
# from the CCDC's data processing and validation procedures.
#
#######################################################################

data_CSD_CIF_PRZCOC
_audit_creation_date 1981-08-11
_audit_creation_method CSD-ConQuest-V1
_database_code_CSD PRZCOC
_database_code_depnum_ccdc_archive 'CCDC 1238210'
_chemical_formula_sum 'C10 H10 Co1 N4 O6'
_chemical_formula_moiety
;
C10 H10 Co1 N4 O6
;
_journal_coden_Cambridge 9
_journal_volume 20
_journal_year 1981
_journal_page_first 545
_journal_name_full 'Inorg.Chem. '
loop_
_publ_author_name
"C.J.O'Connor"
"E.Sinn"
_chemical_name_systematic
;
Diaqua-bis(pyrazine-2-carboxylato)-cobalt(ii)
;
_cell_volume    593.944
_exptl_crystal_density_diffrn 1.92
_diffrn_ambient_temperature ?
_diffrn_special_details
;
The study was carried out at room temperature,in the range 283-303K

;
#These two values have been output from a single CSD field.
_refine_ls_R_factor_gt 0.022
_refine_ls_wR_factor_gt 0.022
_symmetry_cell_setting monoclinic
_symmetry_space_group_name_H-M 'P 21/c'
_symmetry_Int_Tables_number 14
loop_
_symmetry_equiv_pos_site_id
_symmetry_equiv_pos_as_xyz
1 x,y,z
2 -x,1/2+y,1/2-z
3 -x,-y,-z
4 x,-1/2-y,-1/2+z
_cell_length_a 5.2496(7)
_cell_length_b 11.140(1)
_cell_length_c 10.299(2)
_cell_angle_alpha 90
_cell_angle_beta 99.55(1)
_cell_angle_gamma 90
_cell_formula_units_Z 2
loop_
_atom_type_symbol
_atom_type_radius_bond
C 0.68
H 0.23
Co 1.33
N 0.68
O 0.68
loop_
_atom_site_label
_atom_site_type_symbol
_atom_site_fract_x
_atom_site_fract_y
_atom_site_fract_z
Co1 Co 0.00000 0.00000 0.00000
O1 O -0.23120 -0.07280 0.12740
O2 O -0.30200 -0.24030 0.23530
O3 O 0.29550 0.02600 0.16430
N1 N 0.11090 -0.18140 0.00300
N2 N 0.24840 -0.42090 0.05060
C1 C 0.00510 -0.24680 0.08980
C2 C 0.07430 -0.36660 0.11180
C3 C 0.34880 -0.35460 -0.03630
C4 C 0.28050 -0.23580 -0.06060
C5 C -0.19170 -0.18340 0.15860
H1 H -0.00800 -0.41500 0.17200
H2 H 0.48300 -0.39000 -0.08100
H3 H 0.35100 -0.19000 -0.12400
H4 H 0.42600 -0.01000 0.16600
H5 H 0.31000 0.08700 0.19400
O1B O 0.23120 0.07280 -0.12740
O3B O -0.29550 -0.02600 -0.16430
N1B N -0.11090 0.18140 -0.00300
C5B C 0.19170 0.18340 -0.15860
H4B H -0.42600 0.01000 -0.16600
H5B H -0.31000 -0.08700 -0.19400
C1B C -0.00510 0.24680 -0.08980
C4B C -0.28050 0.23580 0.06060
O2B O 0.30200 0.24030 -0.23530
C2B C -0.07430 0.36660 -0.11180
C3B C -0.34880 0.35460 0.03630
H3B H -0.35100 0.19000 0.12400
N2B N -0.24840 0.42090 -0.05060
H1B H 0.00800 0.41500 -0.17200
H2B H -0.48300 0.39000 0.08100
#END
