
#######################################################################
#
#                 Cambridge Crystallographic Data Centre
#                                CCDC
#
#######################################################################
#
# If this CIF has been generated from an entry in the Cambridge
# Structural Database, then it will include bibliographic, chemical,
# crystal, experimental, refinement or atomic coordinate data resulting
# from the CCDC's data processing and validation procedures.
#
#######################################################################

data_CSD_CIF_PRZCOC02
_audit_creation_date 1997-03-05
_audit_creation_method CSD-ConQuest-V1
_database_code_CSD PRZCOC02
_database_code_depnum_ccdc_archive 'CCDC 1238212'
_chemical_formula_sum 'C10 H10 Co1 N4 O6'
_chemical_formula_moiety
;
C10 H10 Co1 N4 O6
;
_journal_coden_Cambridge 211
_journal_volume 36
_journal_year 1995
_journal_page_first 317
_journal_name_full 'J.Coord.Chem. '
loop_
_publ_author_name
"H.Ptasiewicz-Bak"
"J.Leciejewicz"
"J.Zachara"
_chemical_name_systematic
;
Diaqua-bis(2-pyrazinecarboxylato)-cobalt(ii)
;
_cell_volume    590.539
_exptl_crystal_density_diffrn 1.919
_exptl_special_details
;
Isostructural with the Mn, Ni, Cu and Zn complexes

;
_diffrn_ambient_temperature ?
_diffrn_special_details
;
The study was carried out at room temperature,in the range 283-303K

;
#These two values have been output from a single CSD field.
_refine_ls_R_factor_gt 0.032
_refine_ls_wR_factor_gt 0.032
_symmetry_cell_setting monoclinic
_symmetry_space_group_name_H-M 'P 21/c'
_symmetry_Int_Tables_number 14
loop_
_symmetry_equiv_pos_site_id
_symmetry_equiv_pos_as_xyz
1 x,y,z
2 -x,1/2+y,1/2-z
3 -x,-y,-z
4 x,-1/2-y,-1/2+z
_cell_length_a 5.241(1)
_cell_length_b 11.108(1)
_cell_length_c 10.286(2)
_cell_angle_alpha 90
_cell_angle_beta 99.54(1)
_cell_angle_gamma 90
_cell_formula_units_Z 2
loop_
_atom_type_symbol
_atom_type_radius_bond
C 0.68
H 0.23
Co 1.33
N 0.68
O 0.68
loop_
_atom_site_label
_atom_site_type_symbol
_atom_site_fract_x
_atom_site_fract_y
_atom_site_fract_z
Co1 Co 0.00000 0.00000 0.00000
O1 O 0.2953(3) -0.0261(2) 0.1644(2)
O2 O -0.3015(3) 0.2404(1) 0.2355(1)
O3 O -0.2311(3) 0.0727(1) 0.1273(1)
N1 N -0.1115(4) -0.1812(2) -0.0030(2)
N2 N -0.2483(5) -0.4206(2) -0.0504(2)
C1 C -0.2809(4) -0.2357(2) 0.0606(2)
C2 C -0.3487(5) -0.3548(2) 0.0366(2)
C3 C -0.0784(5) -0.3664(2) -0.1117(2)
C4 C -0.0058(4) -0.2465(2) -0.0898(2)
C5 C -0.1918(4) 0.1831(2) 0.1584(2)
H1 H -0.340(5) -0.188(2) 0.126(2)
H2 H -0.477(6) -0.390(2) 0.078(2)
H3 H -0.001(6) -0.41(6) -0.169(3)
H4 H 0.314(7) -0.084(3) 0.196(3)
H5 H 0.428(7) 0.007(3) 0.165(3)
O1B O -0.2953(3) 0.0261(2) -0.1644(2)
H4B H -0.314(7) 0.084(3) -0.196(3)
H5B H -0.428(7) -0.007(3) -0.165(3)
C4B C 0.0058(4) 0.2465(2) 0.0898(2)
N1B N 0.1115(4) 0.1812(2) 0.0030(2)
O3B O 0.2311(3) -0.0727(1) -0.1273(1)
C5B C 0.1918(4) -0.1831(2) -0.1584(2)
O2B O 0.3015(3) -0.2404(1) -0.2355(1)
C1B C 0.2809(4) 0.2357(2) -0.0606(2)
C2B C 0.3487(5) 0.3548(2) -0.0366(2)
N2B N 0.2483(5) 0.4206(2) 0.0504(2)
C3B C 0.0784(5) 0.3664(2) 0.1117(2)
H3B H 0.001(6) 0.41(6) 0.169(3)
H2B H 0.477(6) 0.390(2) -0.078(2)
H1B H 0.340(5) 0.188(2) -0.126(2)
#END
