
#######################################################################
#
#                 Cambridge Crystallographic Data Centre
#                                CCDC
#
#######################################################################
#
# If this CIF has been generated from an entry in the Cambridge
# Structural Database, then it will include bibliographic, chemical,
# crystal, experimental, refinement or atomic coordinate data resulting
# from the CCDC's data processing and validation procedures.
#
#######################################################################

data_CSD_CIF_PUBTOV
_audit_creation_date 1998-11-26
_audit_creation_method CSD-ConQuest-V1
_database_code_CSD PUBTOV
_database_code_depnum_ccdc_fiz 'CSD 408308'
_chemical_formula_sum 'C18 H12 Fe1 O4'
_chemical_formula_moiety
;
C18 H12 Fe1 O4
;
_journal_coden_Cambridge 36
_journal_volume 556
_journal_year 1998
_journal_page_first 173
_journal_name_full 'J.Organomet.Chem. '
loop_
_publ_author_name
"M.Herberhold"
"H.-D.Brendel"
"A.Hofmann"
"B.Hofmann"
"W.Milius"
_chemical_name_systematic
;
Ferrocene-1,1'-diyl phthalate
;
_cell_volume   1406.279
_exptl_crystal_colour 'orange'
_exptl_crystal_density_diffrn 1.644
_exptl_crystal_description 'plate'
_diffrn_ambient_temperature ?
_diffrn_special_details
;
The study was carried out at room temperature,in the range 283-303K

;
#These two values have been output from a single CSD field.
_refine_ls_R_factor_gt 0.0234
_refine_ls_wR_factor_gt 0.0234
_symmetry_cell_setting monoclinic
_symmetry_space_group_name_H-M 'C 2/c'
_symmetry_Int_Tables_number 15
loop_
_symmetry_equiv_pos_site_id
_symmetry_equiv_pos_as_xyz
1 x,y,z
2 -x,y,1/2-z
3 1/2+x,1/2+y,z
4 1/2-x,1/2+y,1/2-z
5 -x,-y,-z
6 x,-y,-1/2+z
7 -1/2-x,-1/2-y,-z
8 -1/2+x,-1/2-y,-1/2+z
_cell_length_a 11.062(2)
_cell_length_b 11.753(2)
_cell_length_c 11.701(2)
_cell_angle_alpha 90
_cell_angle_beta 112.42(1)
_cell_angle_gamma 90
_cell_formula_units_Z 4
loop_
_atom_type_symbol
_atom_type_radius_bond
C 0.68
H 0.23
Fe 1.34
O 0.68
loop_
_atom_site_label
_atom_site_type_symbol
_atom_site_fract_x
_atom_site_fract_y
_atom_site_fract_z
Fe1 Fe 0.00000 0.00592(3) 0.25000
O1 O -0.13231(9) -0.21892(8) 0.17410(9)
O2 O -0.06028(16) -0.26151(10) 0.02265(11)
C1 C -0.14534(14) -0.10176(13) 0.15362(14)
C2 C -0.18689(15) -0.03228(14) 0.23046(15)
H1 H -0.21414(15) -0.05924(14) 0.29433(15)
C3 C -0.18058(16) 0.08218(15) 0.19429(17)
H2 H -0.20091(16) 0.14796(15) 0.23224(17)
C4 C -0.13487(16) 0.08188(14) 0.09628(16)
H3 H -0.11962(16) 0.14780(14) 0.05520(16)
C5 C -0.11311(16) -0.03255(12) 0.06974(13)
H4 H -0.08300(16) -0.05993(12) 0.00792(13)
C6 C -0.07292(15) -0.28631(13) 0.11626(13)
C7 C -0.03126(15) -0.39467(13) 0.18545(13)
C8 C -0.05856(13) -0.49725(16) 0.12161(13)
H5 H -0.09965(13) -0.49708(16) 0.03303(13)
C9 C -0.02797(18) -0.59822(15) 0.18626(17)
H6 H -0.04446(18) -0.66914(15) 0.14224(17)
C7A C 0.03126(15) -0.39467(13) 0.31455(13)
C6A C 0.07292(15) -0.28631(13) 0.38374(13)
O1A O 0.13231(9) -0.21892(8) 0.32590(9)
C1A C 0.14534(14) -0.10176(13) 0.34638(14)
C2A C 0.18689(15) -0.03228(14) 0.26954(15)
C5A C 0.11311(16) -0.03255(12) 0.43026(13)
C3A C 0.18058(16) 0.08218(15) 0.30571(17)
H1A H 0.21414(15) -0.05924(14) 0.20567(15)
H2A H 0.20091(16) 0.14796(15) 0.26776(17)
C4A C 0.13487(16) 0.08188(14) 0.40372(16)
H3A H 0.11962(16) 0.14780(14) 0.44480(16)
H4A H 0.08300(16) -0.05993(12) 0.49208(13)
O2A O 0.06028(16) -0.26151(10) 0.47735(11)
C8A C 0.05856(13) -0.49725(16) 0.37839(13)
H5A H 0.09965(13) -0.49708(16) 0.46697(13)
C9A C 0.02797(18) -0.59822(15) 0.31374(17)
H6A H 0.04446(18) -0.66914(15) 0.35776(17)
#END
