
#######################################################################
#
#                 Cambridge Crystallographic Data Centre
#                                CCDC
#
#######################################################################
#
# If this CIF has been generated from an entry in the Cambridge
# Structural Database, then it will include bibliographic, chemical,
# crystal, experimental, refinement or atomic coordinate data resulting
# from the CCDC's data processing and validation procedures.
#
#######################################################################

data_CSD_CIF_PUFXAQ
_audit_creation_date 2009-12-22
_audit_creation_method CSD-ConQuest-V1
_database_code_CSD PUFXAQ
_database_code_depnum_ccdc_archive 'CCDC 754152'
_chemical_formula_sum 'C24 H36 Co1 N6 O16'
_chemical_formula_moiety
;
C18 H18 Co1 N4 O12,2(C3 H7 N1 O1),2(H2 O1)
;
_journal_coeditor_code "IUCr NG2669"
_journal_coden_Cambridge 1370
_journal_volume 65
_journal_year 2009
_journal_page_first m1423
_journal_name_full 'Acta Crystallogr.,Sect.E:Struct.Rep.Online '
loop_
_publ_author_name
"Hao Wang"
"Wen-Dong Song"
"Shi-Jie Li"
"Dong-Liang Miao"
"Jin Liu"
_chemical_name_systematic
;
Tetra-aqua-bis(hydrogen 1H-benzimidazole-5,6-dicarboxylato-\kN^3^)-cobalt(ii) 
dimethylformamide solvate dihydrate
;
_cell_volume    769.855
_exptl_crystal_colour 'red'
_exptl_crystal_density_diffrn 1.561
_exptl_crystal_description 'block'
_diffrn_ambient_temperature 293
#These two values have been output from a single CSD field.
_refine_ls_R_factor_gt 0.0376
_refine_ls_wR_factor_gt 0.0376
_symmetry_cell_setting triclinic
_symmetry_space_group_name_H-M 'P -1'
_symmetry_Int_Tables_number 2
loop_
_symmetry_equiv_pos_site_id
_symmetry_equiv_pos_as_xyz
1 x,y,z
2 -x,-y,-z
_cell_length_a 8.5612(17)
_cell_length_b 9.1475(18)
_cell_length_c 11.642(2)
_cell_angle_alpha 100.82(3)
_cell_angle_beta 102.98(3)
_cell_angle_gamma 114.11(3)
_cell_formula_units_Z 1
loop_
_atom_type_symbol
_atom_type_radius_bond
C 0.68
H 0.23
Co 1.26
N 0.68
O 0.68
loop_
_atom_site_label
_atom_site_type_symbol
_atom_site_fract_x
_atom_site_fract_y
_atom_site_fract_z
C1 C 0.1417(4) 0.8422(3) 0.1200(2)
C2 C 0.2484(3) 0.8904(3) 0.2467(2)
C3 C 0.1906(3) 0.7887(3) 0.3191(2)
H1 H 0.25950 0.82010 0.40200
C4 C 0.0277(3) 0.6389(3) 0.2654(2)
C5 C -0.0742(3) 0.5940(3) 0.1405(2)
C6 C -0.0194(4) 0.6932(4) 0.0667(2)
H2 H -0.08880 0.66060 -0.01630
C7 C 0.1921(4) 0.9449(4) 0.0363(3)
C8 C 0.4297(3) 1.0478(3) 0.3103(2)
C9 C -0.2117(4) 0.4034(3) 0.2225(3)
H3 H -0.29840 0.30640 0.22990
Co1 Co 0.00000 0.50000 0.50000
N1 N -0.2262(3) 0.4426(3) 0.1168(2)
H4 H -0.31370 0.38460 0.04730
N2 N -0.0630(3) 0.5150(3) 0.3148(2)
O1 O 0.1079(3) 0.8972(3) -0.0726(2)
O2 O 0.3337(4) 1.0933(3) 0.0904(2)
O3 O 0.4308(3) 1.1767(3) 0.3708(2)
O4 O 0.5660(3) 1.0359(3) 0.3035(3)
O5 O 0.0884(2) 0.7574(2) 0.57397(17)
H5 H 0.02960 0.77840 0.61760
H6 H 0.20070 0.81330 0.61260
O6 O 0.2619(3) 0.5455(2) 0.50191(19)
H7 H 0.25760 0.48810 0.43470
H8 H 0.36300 0.63210 0.53810
H9 H 0.367(6) 1.146(5) 0.041(3)
C10 C 0.6732(4) 0.7964(4) 0.1713(3)
H10 H 0.78010 0.89720 0.19550
N3 N 0.6382(3) 0.7242(3) 0.2550(2)
C11 C 0.4674(5) 0.5710(5) 0.2251(4)
H11 H 0.37420 0.60080 0.23300
H12 H 0.48290 0.50940 0.28120
H13 H 0.43300 0.50210 0.14140
C12 C 0.7568(6) 0.8059(5) 0.3848(3)
H14 H 0.86400 0.90360 0.39110
H15 H 0.79070 0.72830 0.41450
H16 H 0.69370 0.83930 0.43400
O7 O 0.5725(3) 0.7391(3) 0.06005(19)
O8 O 0.1590(3) 0.2539(3) 0.3083(2)
H17 H 0.24520 0.23120 0.32750
H18 H 0.09050 0.20040 0.23430
C1A C -0.1417(4) 0.1578(3) 0.8800(2)
C2A C -0.2484(3) 0.1096(3) 0.7533(2)
C3A C -0.1906(3) 0.2113(3) 0.6809(2)
H1A H -0.25950 0.17990 0.59800
C4A C -0.0277(3) 0.3611(3) 0.7346(2)
C5A C 0.0742(3) 0.4060(3) 0.8595(2)
C6A C 0.0194(4) 0.3068(4) 0.9333(2)
H2A H 0.08880 0.33940 1.01630
C7A C -0.1921(4) 0.0551(4) 0.9637(3)
C8A C -0.4297(3) -0.0478(3) 0.6897(2)
C9A C 0.2117(4) 0.5966(3) 0.7775(3)
H3A H 0.29840 0.69360 0.77010
N1A N 0.2262(3) 0.5574(3) 0.8832(2)
H4A H 0.31370 0.61540 0.95270
N2A N 0.0630(3) 0.4850(3) 0.6852(2)
O1A O -0.1079(3) 0.1028(3) 1.0726(2)
O2A O -0.3337(4) -0.0933(3) 0.9096(2)
O3A O -0.4308(3) -0.1767(3) 0.6292(2)
O4A O -0.5660(3) -0.0359(3) 0.6965(3)
O5A O -0.0884(2) 0.2426(2) 0.42603(17)
H5A H -0.02960 0.22160 0.38240
H6A H -0.20070 0.18670 0.38740
O6A O -0.2619(3) 0.4545(2) 0.49809(19)
H7A H -0.25760 0.51190 0.56530
H8A H -0.36300 0.36790 0.46190
H9A H -0.367(6) -0.146(5) 0.959(3)
#END
