
#######################################################################
#
#                 Cambridge Crystallographic Data Centre
#                                CCDC
#
#######################################################################
#
# If this CIF has been generated from an entry in the Cambridge
# Structural Database, then it will include bibliographic, chemical,
# crystal, experimental, refinement or atomic coordinate data resulting
# from the CCDC's data processing and validation procedures.
#
#######################################################################

data_CSD_CIF_PUJBAX
_audit_creation_date 1998-12-15
_audit_creation_method CSD-ConQuest-V1
_database_code_CSD PUJBAX
_database_code_depnum_ccdc_archive 'CCDC 1239074; CCDC 408641'
_database_code_depnum_ccdc_fiz 'CSD 408641'
_chemical_formula_sum 'C6 H20 F7 Mn1 N2 O1'
_chemical_formula_moiety
;
C6 H16 N2 2+,H2 F5 Mn1 O1 2-,2(H1 F1)
;
_journal_coden_Cambridge 29
_journal_volume 624
_journal_year 1998
_journal_page_first 1706
_journal_name_full 'Z.Anorg.Allg.Chem. '
loop_
_publ_author_name
"G.Rother"
"H.Worzala"
"U.Bentrup"
_chemical_name_systematic
;
N,N'-Dimethylpiperazine-1,4-di-ium aqua-pentafluoro-manganese(iii) 
bis(hydrogen fluoride)
;
_cell_volume    628.889
_exptl_crystal_colour 'brown'
_exptl_crystal_density_diffrn 1.712
_exptl_crystal_description 'plates'
_diffrn_ambient_temperature ?
_diffrn_special_details
;
The study was carried out at room temperature,in the range 283-303K

;
#These two values have been output from a single CSD field.
_refine_ls_R_factor_gt 0.0263
_refine_ls_wR_factor_gt 0.0263
_symmetry_cell_setting triclinic
_symmetry_space_group_name_H-M 'P -1'
_symmetry_Int_Tables_number 2
loop_
_symmetry_equiv_pos_site_id
_symmetry_equiv_pos_as_xyz
1 x,y,z
2 -x,-y,-z
_cell_length_a 6.771(3)
_cell_length_b 8.639(1)
_cell_length_c 11.877(2)
_cell_angle_alpha 79.18(4)
_cell_angle_beta 81.63(2)
_cell_angle_gamma 67.62(2)
_cell_formula_units_Z 2
loop_
_atom_type_symbol
_atom_type_radius_bond
C 0.68
H 0.23
F 0.64
Mn 1.35
N 0.68
O 0.68
loop_
_atom_site_label
_atom_site_type_symbol
_atom_site_fract_x
_atom_site_fract_y
_atom_site_fract_z
Mn1 Mn 0.23009(3) 0.47774(2) 0.17430(2)
F1 F -0.00657(15) 0.66087(12) 0.21827(8)
F2 F 0.4155(2) 0.56901(11) 0.20103(9)
F3 F 0.4578(2) 0.29433(11) 0.12155(9)
F4 F 0.0514(2) 0.37903(14) 0.14342(9)
F5 F 0.2549(2) 0.35429(12) 0.34301(8)
O1 O 0.2150(2) 0.6215(2) -0.00381(10)
H1 H 0.1584(36) 0.5968(27) -0.0468(19)
H2 H 0.3293(42) 0.6289(31) -0.0394(22)
N1 N 0.3295(2) 0.03266(14) 0.09199(10)
H3 H 0.3342(28) 0.1213(24) 0.1042(16)
C1 C 0.2841(2) 0.0586(2) -0.03042(13)
H4 H 0.2772(27) -0.0483(23) -0.0400(15)
H5 H 0.1531(33) 0.1447(27) -0.0403(18)
C2 C 0.5450(2) -0.1020(2) 0.11056(13)
H6 H 0.5727(32) -0.1071(26) 0.1842(19)
H7 H 0.5420(28) -0.2078(23) 0.0982(15)
C3 C 0.1583(3) -0.0110(2) 0.1692(2)
H8 H 0.0213(36) 0.0751(28) 0.1614(19)
H9 H 0.1556(33) -0.1117(29) 0.1535(19)
H10 H 0.1948(36) -0.0213(29) 0.2489(21)
N2 N 0.5968(2) 0.3665(2) 0.43003(11)
H11 H 0.4952(42) 0.3930(33) 0.3871(23)
C4 C 0.6674(2) 0.5127(2) 0.41408(13)
H12 H 0.7877(31) 0.4780(25) 0.4601(17)
H13 H 0.7107(38) 0.5328(29) 0.336(2)
C5 C 0.5129(3) 0.3335(2) 0.55186(14)
H14 H 0.6187(34) 0.3015(26) 0.5938(18)
H15 H 0.4669(35) 0.2399(29) 0.5599(20)
C6 C 0.7724(4) 0.2136(3) 0.3928(2)
H16 H 0.8899(41) 0.1862(31) 0.4404(22)
H17 H 0.7120(41) 0.1246(35) 0.4102(23)
H18 H 0.8238(55) 0.2429(44) 0.3113(34)
F6 F 0.3604(3) 0.0598(2) 0.3658(2)
H19 H 0.3218(50) 0.1536(42) 0.3622(28)
F7 F -0.0496(3) 0.7861(3) 0.3886(2)
H20 H -0.0545(71) 0.7473(61) 0.3214(43)
C2A C 0.4550(2) 0.1020(2) -0.11056(13)
N1A N 0.6705(2) -0.03266(14) -0.09199(10)
H3A H 0.6658(28) -0.1213(24) -0.1042(16)
C1A C 0.7159(2) -0.0586(2) 0.03042(13)
H4A H 0.7228(27) 0.0483(23) 0.0400(15)
H5A H 0.8469(33) -0.1447(27) 0.0403(18)
C3A C 0.8417(3) 0.0110(2) -0.1692(2)
H8A H 0.9787(36) -0.0751(28) -0.1614(19)
H9A H 0.8444(33) 0.1117(29) -0.1535(19)
H10A H 0.8052(36) 0.0213(29) -0.2489(21)
H6A H 0.4273(32) 0.1071(26) -0.1842(19)
H7A H 0.4580(28) 0.2078(23) -0.0982(15)
C5A C 0.4871(3) 0.6665(2) 0.44814(14)
N2A N 0.4032(2) 0.6335(2) 0.56997(11)
H11A H 0.5048(42) 0.6070(33) 0.6129(23)
C4A C 0.3326(2) 0.4873(2) 0.58592(13)
H12A H 0.2123(31) 0.5220(25) 0.5399(17)
H13A H 0.2893(38) 0.4672(29) 0.664(2)
C6A C 0.2276(4) 0.7864(3) 0.6072(2)
H16A H 0.1101(41) 0.8138(31) 0.5596(22)
H17A H 0.2880(41) 0.8754(35) 0.5898(23)
H18A H 0.1762(55) 0.7571(44) 0.6887(34)
H14A H 0.3813(34) 0.6985(26) 0.4062(18)
H15A H 0.5331(35) 0.7601(29) 0.4401(20)
#END
