
#######################################################################
#
#                 Cambridge Crystallographic Data Centre
#                                CCDC
#
#######################################################################
#
# If this CIF has been generated from an entry in the Cambridge
# Structural Database, then it will include bibliographic, chemical,
# crystal, experimental, refinement or atomic coordinate data resulting
# from the CCDC's data processing and validation procedures.
#
#######################################################################

data_CSD_CIF_PULGAG
_audit_creation_date 2015-08-20
_audit_creation_method CSD-ConQuest-V1
_database_code_CSD PULGAG
_database_code_depnum_ccdc_archive 'CCDC 1008698'
_chemical_formula_sum 'C31 H36 Cl1 Mn1 N2 O5'
_chemical_formula_moiety
;
C30 H32 Mn1 N2 O4 1+,C1 H4 O1,Cl1 1-
;
_journal_coden_Cambridge 1086
_journal_volume 27
_journal_year 2015
_journal_page_first 142
_journal_name_full 'Chirality '
loop_
_publ_author_name
"Bi-Wei Wang"
"Lin Jiang"
"Si-Sheng Shu"
"Bo-Wen Li"
"Zhang Dong"
"Wen Gu"
"Xin Liu"
"Jin-Lei Tian"
_chemical_name_systematic
;
(1,1'-(cyclohexane-1,2-diylbis((nitrilo)methylylidene))bis(2-naphtholato))-bis
(methanol)-manganese(iii) chloride methanol solvate
;
_cell_volume    744.778
_exptl_crystal_density_diffrn 1.353
_exptl_special_details
;
Absolute configuration

;
_diffrn_ambient_temperature 293
#These two values have been output from a single CSD field.
_refine_ls_R_factor_gt 0.0499
_refine_ls_wR_factor_gt 0.0499
_symmetry_cell_setting triclinic
_symmetry_space_group_name_H-M 'P 1'
_symmetry_Int_Tables_number 1
loop_
_symmetry_equiv_pos_site_id
_symmetry_equiv_pos_as_xyz
1 x,y,z
_cell_length_a 8.0457(6)
_cell_length_b 9.2898(6)
_cell_length_c 10.5822(8)
_cell_angle_alpha 104.545(6)
_cell_angle_beta 101.707(6)
_cell_angle_gamma 93.276(6)
_cell_formula_units_Z 1
loop_
_atom_type_symbol
_atom_type_radius_bond
C 0.68
H 0.23
Cl 0.99
Mn 1.61
N 0.68
O 0.68
loop_
_atom_site_label
_atom_site_type_symbol
_atom_site_fract_x
_atom_site_fract_y
_atom_site_fract_z
Mn1 Mn 0.70899(8) 0.39065(7) 0.98451(7)
O1 O 0.7877(4) 0.5837(4) 0.9765(4)
N1 N 0.7070(5) 0.3053(5) 0.7942(4)
N2 N 0.6247(6) 0.1831(5) 0.9740(5)
O2 O 0.7079(5) 0.4531(4) 1.1688(4)
O3 O 0.4361(5) 0.4351(5) 0.9245(4)
O4 O 0.9811(6) 0.3384(6) 1.0255(5)
C1 C 0.8659(6) 0.6192(6) 0.8872(5)
C2 C 0.9570(6) 0.5685(6) 0.6687(6)
C3 C 0.9769(7) 0.4741(7) 0.5483(6)
H1 H 0.93960 0.37240 0.52660
C4 C 0.8702(6) 0.5168(6) 0.7624(5)
C5 C 0.7845(7) 0.3689(6) 0.7203(6)
H2 H 0.78300 0.31270 0.63380
C6 C 0.6116(7) 0.3910(7) 1.2312(5)
C7 C 0.5531(8) 0.1456(7) 1.0632(6)
H3 H 0.51450 0.04490 1.04660
C8 C 1.0254(6) 0.7219(6) 0.7043(6)
C9 C 1.1089(7) 0.6825(7) 0.4917(6)
H4 H 1.15540 0.72020 0.43140
C10 C 0.5285(8) 0.2431(6) 1.1829(6)
C11 C 0.9463(6) 0.7690(6) 0.9191(5)
H5 H 0.94790 0.83400 1.00210
C12 C 0.6090(6) 0.1518(6) 0.7388(5)
H6 H 0.48700 0.16400 0.72210
C13 C 1.0206(6) 0.8190(6) 0.8310(5)
H7 H 1.06880 0.91800 0.85380
C14 C 0.6447(7) 0.0531(6) 0.6080(5)
H8 H 0.61770 0.10190 0.53660
H9 H 0.76440 0.03720 0.62110
C15 C 0.2078(9) 0.0945(8) 1.4164(7)
H10 H 0.13750 0.06420 1.46690
C16 C 0.5328(7) -0.0969(6) 0.5711(5)
H11 H 0.41370 -0.07950 0.55180
H12 H 0.55570 -0.16090 0.49020
C17 C 0.5380(7) -0.0775(6) 0.8146(5)
H13 H 0.41880 -0.06100 0.80660
H14 H 0.56930 -0.12730 0.88490
C18 C 1.0511(7) 0.5303(7) 0.4616(6)
H15 H 1.06290 0.46600 0.38180
C19 C 0.4024(8) 0.2826(9) 1.3847(7)
C20 C 0.5953(8) 0.4842(7) 1.3617(6)
H16 H 0.65380 0.57990 1.39640
C21 C 0.2963(8) 0.2293(8) 1.4592(6)
H17 H 0.28850 0.29130 1.54120
C22 C 0.3245(9) 0.0456(8) 1.2167(7)
H18 H 0.32870 -0.01680 1.13390
C23 C 0.5623(7) -0.1779(6) 0.6810(6)
H19 H 0.67720 -0.20670 0.69310
H20 H 0.48270 -0.26830 0.65420
C24 C 0.4225(8) 0.1866(7) 1.2614(6)
C25 C 0.6479(6) 0.0724(5) 0.8518(5)
H21 H 0.76810 0.05410 0.86540
C26 C 1.0960(7) 0.7746(7) 0.6112(6)
H22 H 1.13520 0.87570 0.63160
C27 C 0.4945(8) 0.4298(7) 1.4312(6)
H23 H 0.48450 0.49090 1.51310
C28 C 0.3860(7) 0.5486(7) 0.8591(7)
H24 H 0.48530 0.61340 0.86310
H25 H 0.30860 0.60600 0.90340
H26 H 0.33050 0.50250 0.76720
C29 C 0.2216(9) -0.0036(8) 1.2920(7)
H27 H 0.16260 -0.09930 1.26180
C30 C 1.1261(11) 0.4701(13) 1.1163(9)
H28 H 1.07460 0.54730 1.16870
H29 H 1.18320 0.51100 1.05960
H30 H 1.20740 0.43070 1.17480
H31 H 1.010(8) 0.300(8) 0.984(6)
H32 H 0.362(7) 0.362(6) 0.891(7)
Cl1 Cl 0.14390(16) 0.19206(15) 0.79232(15)
C31 C 0.6566(8) 0.8294(6) 0.1281(5)
H33 H 0.53540 0.81850 0.12100
H34 H 0.69230 0.73370 0.09180
H35 H 0.68450 0.89790 0.07910
O5 O 0.7388(14) 0.8835(12) 0.2601(8)
H36 H 0.70020 0.96030 0.29340
#END
