
#######################################################################
#
#                 Cambridge Crystallographic Data Centre
#                                CCDC
#
#######################################################################
#
# If this CIF has been generated from an entry in the Cambridge
# Structural Database, then it will include bibliographic, chemical,
# crystal, experimental, refinement or atomic coordinate data resulting
# from the CCDC's data processing and validation procedures.
#
#######################################################################

data_CSD_CIF_PUQVIG
_audit_creation_date 1999-01-19
_audit_creation_method CSD-ConQuest-V1
_database_code_CSD PUQVIG
_chemical_formula_sum 'C14 H16 Cr1 F6 P1'
_chemical_formula_moiety
;
C14 H16 Cr1 1+,F6 P1 1-
;
_journal_coden_Cambridge 579
_journal_volume 17
_journal_year 1998
_journal_page_first 296
_journal_name_full 'Organometallics '
loop_
_publ_author_name
"F.Grepioni"
"G.Cojazzi"
"S.M.Draper"
"N.Scully"
"D.Braga"
_chemical_name_systematic
;
bis(\h^6^-Toluene)-chromium hexafluorophosphate
;
_cell_volume    779.235
_exptl_crystal_density_diffrn 1.625
_exptl_special_details
;
Decomposes in air

;
_diffrn_ambient_temperature 273
#These two values have been output from a single CSD field.
_refine_ls_R_factor_gt 0.0446
_refine_ls_wR_factor_gt 0.0446
_symmetry_cell_setting monoclinic
_symmetry_space_group_name_H-M 'P 21/n'
_symmetry_Int_Tables_number 14
loop_
_symmetry_equiv_pos_site_id
_symmetry_equiv_pos_as_xyz
1 x,y,z
2 1/2-x,1/2+y,1/2-z
3 -x,-y,-z
4 -1/2+x,-1/2-y,-1/2+z
_cell_length_a 6.793(2)
_cell_length_b 11.056(2)
_cell_length_c 10.740(5)
_cell_angle_alpha 90
_cell_angle_beta 104.97(3)
_cell_angle_gamma 90
_cell_formula_units_Z 2
loop_
_atom_type_symbol
_atom_type_radius_bond
C 0.68
H 0.23
Cr 1.35
F 0.64
P 1.05
loop_
_atom_site_label
_atom_site_type_symbol
_atom_site_fract_x
_atom_site_fract_y
_atom_site_fract_z
Cr1 Cr 0.00000 0.00000 0.00000
C1 C 0.3104(5) 0.0342(3) 0.0942(3)
C2 C 0.2517(5) 0.1127(2) -0.0099(4)
C3 C 0.1631(5) 0.0675(3) -0.1323(4)
C4 C 0.1332(5) -0.0563(3) -0.1506(3)
C5 C 0.1919(5) -0.1348(2) -0.0465(4)
C6 C 0.2805(5) -0.0896(3) 0.0759(4)
C7 C 0.0985(10) 0.1537(6) -0.2456(6)
P1 P 0.50000 0.00000 0.50000
F1 F 0.4387(7) -0.1005(3) 0.3934(4)
F2 F 0.3263(7) 0.0849(3) 0.4193(4)
F3 F 0.3497(9) -0.0542(5) 0.5731(5)
H1 H 0.36970 0.06450 0.17610
H2 H 0.27170 0.19550 0.00240
H3 H 0.07390 -0.08660 -0.23250
H4 H 0.17190 -0.21760 -0.05880
H5 H 0.31980 -0.14210 0.14550
H6 H 0.12920 0.23530 -0.21630
H7 H -0.04540 0.14600 -0.28330
H8 H 0.17080 0.13440 -0.30890
C1B C -0.3104(5) -0.0342(3) -0.0942(3)
C2B C -0.2517(5) -0.1127(2) 0.0099(4)
C3B C -0.1631(5) -0.0675(3) 0.1323(4)
H2B H -0.27170 -0.19550 -0.00240
C4B C -0.1332(5) 0.0563(3) 0.1506(3)
C5B C -0.1919(5) 0.1348(2) 0.0465(4)
H3B H -0.07390 0.08660 0.23250
C6B C -0.2805(5) 0.0896(3) -0.0759(4)
H1B H -0.36970 -0.06450 -0.17610
H5B H -0.31980 0.14210 -0.14550
H4B H -0.17190 0.21760 0.05880
C7B C -0.0985(10) -0.1537(6) 0.2456(6)
H6B H -0.12920 -0.23530 0.21630
H7B H 0.04540 -0.14600 0.28330
H8B H -0.17080 -0.13440 0.30890
F1B F 0.5613(7) 0.1005(3) 0.6066(4)
F2B F 0.6737(7) -0.0849(3) 0.5807(4)
F3B F 0.6503(9) 0.0542(5) 0.4269(5)
#END
