
#######################################################################
#
#                 Cambridge Crystallographic Data Centre
#                                CCDC
#
#######################################################################
#
# If this CIF has been generated from an entry in the Cambridge
# Structural Database, then it will include bibliographic, chemical,
# crystal, experimental, refinement or atomic coordinate data resulting
# from the CCDC's data processing and validation procedures.
#
#######################################################################

data_CSD_CIF_PURYIK
_audit_creation_date 1999-01-19
_audit_creation_method CSD-ConQuest-V1
_database_code_CSD PURYIK
_database_code_depnum_ccdc_archive 'CCDC 1239825'
_chemical_formula_sum 'C12 H42 Cl2 Fe1 N6 O12'
_chemical_formula_moiety
;
C12 H30 Fe1 N6 O6 2+,2(Cl1 1-),6(H2 O1)
;
_journal_coden_Cambridge 9
_journal_volume 37
_journal_year 1998
_journal_page_first 997
_journal_name_full 'Inorg.Chem. '
loop_
_publ_author_name
"M.Ghisletta"
"L.Hausherr-Primo"
"K.Gajda-Schrantz"
"G.Machula"
"L.Nagy"
"H.W.Schmalle"
"G.Rihs"
"F.Endres"
"K.Hegetschweiler"
_chemical_name_systematic
;
bis(1,3,5-Triamino-1,3,5-trideoxy-cis-inositol)-iron(ii) dichloride 
hexahydrate
;
_cell_volume   1312.916
_exptl_crystal_colour 'blue green'
_exptl_crystal_density_diffrn 1.49
_exptl_special_details
;
disintegrates in air due to loss of solvent and oxidative decomposition

;
_exptl_crystal_description 'platelet'
_diffrn_ambient_temperature ?
_diffrn_special_details
;
The study was carried out at room temperature,in the range 283-303K

;
#These two values have been output from a single CSD field.
_refine_ls_R_factor_gt 0.078
_refine_ls_wR_factor_gt 0.078
_symmetry_cell_setting monoclinic
_symmetry_space_group_name_H-M 'C 2/m'
_symmetry_Int_Tables_number 12
loop_
_symmetry_equiv_pos_site_id
_symmetry_equiv_pos_as_xyz
1 x,y,z
2 -x,y,-z
3 1/2+x,1/2+y,z
4 1/2-x,1/2+y,-z
5 -x,-y,-z
6 x,-y,z
7 -1/2-x,-1/2-y,-z
8 -1/2+x,-1/2-y,z
_cell_length_a 11.420(2)
_cell_length_b 9.300(2)
_cell_length_c 13.330(3)
_cell_angle_alpha 90
_cell_angle_beta 111.97(3)
_cell_angle_gamma 90
_cell_formula_units_Z 2
loop_
_atom_type_symbol
_atom_type_radius_bond
C 0.68
H 0.23
Cl 0.99
Fe 1.34
N 0.68
O 0.68
loop_
_atom_site_label
_atom_site_type_symbol
_atom_site_fract_x
_atom_site_fract_y
_atom_site_fract_z
Fe1 Fe 0.00000 0.00000 0.00000
N1 N -0.1776(8) 0.00000 0.0361(7)
N2 N 0.0691(6) 0.1640(7) 0.1259(5)
O1 O -0.1539(5) 0.2586(6) 0.1562(4)
O2 O 0.2452(7) 0.00000 0.2972(7)
C1 C -0.1607(10) 0.00000 0.1507(10)
C2 C -0.0899(7) 0.1328(9) 0.2120(6)
C3 C 0.0507(7) 0.1395(9) 0.2279(6)
C4 C 0.1125(10) 0.00000 0.2826(10)
H1 H -0.23150 -0.09820 -0.00220
H2 H 0.02680 0.25510 0.09740
H3 H 0.16070 0.17600 0.14770
H4 H -0.18220 0.25350 0.10340
H5 H 0.22610 0.00000 0.24030
H6 H -0.25410 0.00000 0.15320
H7 H -0.09250 0.13230 0.29610
H8 H 0.08930 0.22610 0.28300
H9 H 0.11560 0.00000 0.36530
Cl1 Cl 0.00000 0.50000 0.00000
Cl2 Cl 0.7423(8) 0.00000 0.4072(7)
O3 O 0.4945(9) 0.00000 0.2279(8)
O4 O 0.3671(7) 0.2187(10) 0.4548(6)
N1A N 0.1776(8) 0.00000 -0.0361(7)
C1A C 0.1607(10) 0.00000 -0.1507(10)
C2A C 0.0899(7) 0.1328(9) -0.2120(6)
O1A O 0.1539(5) 0.2586(6) -0.1562(4)
H4A H 0.18220 0.25350 -0.10340
C3A C -0.0507(7) 0.1395(9) -0.2279(6)
N2A N -0.0691(6) 0.1640(7) -0.1259(5)
N2D N -0.0691(6) -0.1640(7) -0.1259(5)
C3D C -0.0507(7) -0.1395(9) -0.2279(6)
C2D C 0.0899(7) -0.1328(9) -0.2120(6)
O1D O 0.1539(5) -0.2586(6) -0.1562(4)
H4D H 0.18220 -0.25350 -0.10340
H6A H 0.25410 0.00000 -0.15320
H7D H 0.09250 -0.13230 -0.29610
C4D C -0.1125(10) 0.00000 -0.2826(10)
O2D O -0.2452(7) 0.00000 -0.2972(7)
H5D H -0.22610 0.00000 -0.24030
H8A H -0.08930 0.22610 -0.28300
H9D H -0.11560 0.00000 -0.36530
H8D H -0.08930 -0.22610 -0.28300
H2D H -0.02680 -0.25510 -0.09740
H3D H -0.16070 -0.17600 -0.14770
N2E N 0.0691(6) -0.1640(7) 0.1259(5)
C3E C 0.0507(7) -0.1395(9) 0.2279(6)
C2E C -0.0899(7) -0.1328(9) 0.2120(6)
O1E O -0.1539(5) -0.2586(6) 0.1562(4)
H4E H -0.18220 -0.25350 0.10340
H7E H -0.09250 -0.13230 0.29610
H8E H 0.08930 -0.22610 0.28300
H2E H 0.02680 -0.25510 0.09740
H3E H 0.16070 -0.17600 0.14770
H2A H -0.02680 0.25510 -0.09740
H3A H -0.16070 0.17600 -0.14770
H7A H 0.09250 0.13230 -0.29610
H1A H 0.23150 -0.09820 0.00220
H1D H 0.23150 0.09820 0.00220
H1E H -0.23150 0.09820 -0.00220
#END
