
#######################################################################
#
#                 Cambridge Crystallographic Data Centre
#                                CCDC
#
#######################################################################
#
# If this CIF has been generated from an entry in the Cambridge
# Structural Database, then it will include bibliographic, chemical,
# crystal, experimental, refinement or atomic coordinate data resulting
# from the CCDC's data processing and validation procedures.
#
#######################################################################

data_CSD_CIF_QANPEC
_audit_creation_date 2012-06-01
_audit_creation_method CSD-ConQuest-V1
_database_code_CSD QANPEC
_database_code_depnum_ccdc_archive 'CCDC 834992'
_chemical_formula_sum 'C12 H21 Co1 N1 O9'
_chemical_formula_moiety
;
C12 H19 Co1 N1 O8,H2 O1
;
_journal_coden_Cambridge 9
_journal_volume 50
_journal_year 2011
_journal_page_first 10549
_journal_name_full 'Inorg.Chem. '
loop_
_publ_author_name
"D.K.Patel"
"D.Choquesillo-Lazarte"
"A.Dominguez-Martin"
"M.P.Brandi-Blanco"
"J.M.Gonzalez-Perez"
"A.Castineiras"
"J.Niclos-Gutierrez"
_chemical_name_systematic
;
Triaqua-(2,2'-((4-methoxybenzyl)imino)diacetato)-cobalt(ii) monohydrate
;
_cell_volume    820.015
_exptl_crystal_colour 'pink'
_exptl_crystal_density_diffrn 1.548
_exptl_crystal_description 'block'
_diffrn_ambient_temperature 293
#These two values have been output from a single CSD field.
_refine_ls_R_factor_gt 0.0378
_refine_ls_wR_factor_gt 0.0378
_symmetry_cell_setting monoclinic
_symmetry_space_group_name_H-M 'P 21'
_symmetry_Int_Tables_number 4
loop_
_symmetry_equiv_pos_site_id
_symmetry_equiv_pos_as_xyz
1 x,y,z
2 -x,1/2+y,-z
_cell_length_a 7.6388(4)
_cell_length_b 7.1064(4)
_cell_length_c 15.3781(9)
_cell_angle_alpha 90
_cell_angle_beta 100.796(3)
_cell_angle_gamma 90
_cell_formula_units_Z 2
loop_
_atom_type_symbol
_atom_type_radius_bond
C 0.68
H 0.23
Co 1.26
N 0.68
O 0.68
loop_
_atom_site_label
_atom_site_type_symbol
_atom_site_fract_x
_atom_site_fract_y
_atom_site_fract_z
Co1 Co 0.57014(6) 0.35454(9) 0.88133(3)
O1 O 0.9336(4) 0.9217(5) 0.9508(2)
H1 H 1.05030 0.87110 0.95410
N1 N 0.4081(3) 0.3415(5) 0.74665(16)
C1 C 0.4207(5) 0.1419(5) 0.7218(2)
H2 H 0.52730 0.12370 0.69710
H3 H 0.31870 0.10970 0.67660
C2 C 0.4268(5) 0.0115(5) 0.8007(2)
O2 O 0.4603(3) 0.0835(4) 0.87797(16)
O3 O 0.4029(4) -0.1575(5) 0.78598(18)
C3 C 0.2231(4) 0.3875(6) 0.7582(2)
H4 H 0.14980 0.27590 0.74490
H5 H 0.17520 0.48330 0.71540
C4 C 0.2080(4) 0.4564(5) 0.8496(2)
O4 O 0.3470(3) 0.4840(4) 0.90666(15)
O5 O 0.0551(3) 0.4881(5) 0.86359(19)
C5 C 0.4723(5) 0.4687(6) 0.6826(2)
H6 H 0.59340 0.43270 0.67920
H7 H 0.47680 0.59560 0.70610
C6 C 0.3634(5) 0.4723(5) 0.5890(2)
C7 C 0.2332(5) 0.6084(6) 0.5643(3)
H8 H 0.21500 0.70000 0.60490
C8 C 0.1303(6) 0.6097(7) 0.4804(3)
H9 H 0.04250 0.70090 0.46540
C9 C 0.1563(5) 0.4771(7) 0.4185(2)
O6 O 0.0462(4) 0.4878(6) 0.33754(19)
C10 C 0.0696(6) 0.356(1) 0.2720(3)
H10 H 0.18450 0.37390 0.25650
H11 H -0.02150 0.37360 0.22050
H12 H 0.06190 0.23090 0.29450
C11 C 0.2907(5) 0.3437(8) 0.4406(2)
H13 H 0.31300 0.25670 0.39890
C12 C 0.3915(5) 0.3421(7) 0.5263(2)
H14 H 0.47970 0.25130 0.54160
O7 O 0.7947(3) 0.2320(4) 0.84387(18)
H15 H 0.90060 0.31290 0.85650
H16 H 0.83630 0.14870 0.87820
O8 O 0.6761(3) 0.6235(4) 0.87420(19)
H17 H 0.58710 0.71560 0.85910
H18 H 0.74960 0.70830 0.89620
O9 O 0.6807(3) 0.3364(4) 1.01756(14)
H19 H 0.58700 0.36970 1.03910
H20 H 0.69000 0.22620 1.03530
H21 H 0.926(8) 0.965(9) 1.002(4)
#END
