
#######################################################################
#
#                 Cambridge Crystallographic Data Centre
#                                CCDC
#
#######################################################################
#
# If this CIF has been generated from an entry in the Cambridge
# Structural Database, then it will include bibliographic, chemical,
# crystal, experimental, refinement or atomic coordinate data resulting
# from the CCDC's data processing and validation procedures.
#
#######################################################################

data_CSD_CIF_QATRAE
_audit_creation_date 2001-03-08
_audit_creation_method CSD-ConQuest-V1
_database_code_CSD QATRAE
_database_code_depnum_ccdc_archive 'CCDC 143083'
_chemical_formula_sum 'C42 H56 Fe1 N6'
_chemical_formula_moiety
;
C42 H56 Fe1 N6
;
_journal_coden_Cambridge 1220
_journal_volume 6
_journal_year 2000
_journal_page_first 4518
_journal_name_full 'Chem.-Eur.J. '
loop_
_publ_author_name
"C.Da Silva"
"L.Bonomo"
"E.Solari"
"R.Scopelliti"
"C.Floriani"
"N.Re"
_chemical_name_systematic
;
bis(t-Butylisocyanide)-(meso-5,5,10,15,15,20-hexaethylporphodimethene-N,N',N''
,N''')-iron(ii)
;
_cell_volume    946.097
_exptl_crystal_colour 'purple'
_exptl_crystal_density_diffrn 1.23
_exptl_crystal_description 'prismatic'
_exptl_crystal_preparation 'toluene/hexane'
_diffrn_ambient_temperature 143
#These two values have been output from a single CSD field.
_refine_ls_R_factor_gt 0.055
_refine_ls_wR_factor_gt 0.055
_symmetry_cell_setting triclinic
_symmetry_space_group_name_H-M 'P -1'
_symmetry_Int_Tables_number 2
loop_
_symmetry_equiv_pos_site_id
_symmetry_equiv_pos_as_xyz
1 x,y,z
2 -x,-y,-z
_cell_length_a 9.0900(18)
_cell_length_b 11.024(2)
_cell_length_c 11.545(2)
_cell_angle_alpha 68.07(3)
_cell_angle_beta 67.25(3)
_cell_angle_gamma 66.70(3)
_cell_formula_units_Z 1
loop_
_atom_type_symbol
_atom_type_radius_bond
C 0.68
H 0.23
Fe 1.34
N 0.68
loop_
_atom_site_label
_atom_site_type_symbol
_atom_site_fract_x
_atom_site_fract_y
_atom_site_fract_z
Fe1 Fe 0.00000 0.00000 0.00000
N1 N -0.1143(4) -0.0577(3) 0.1942(3)
N2 N -0.1331(3) 0.2003(3) -0.0083(3)
N3 N 0.2284(4) 0.0610(3) 0.0954(3)
C1 C -0.0879(5) -0.1820(4) 0.2773(3)
C2 C -0.1822(5) -0.1763(4) 0.4064(4)
H1 H -0.18290 -0.25110 0.48190
C3 C -0.2720(5) -0.0430(4) 0.4019(3)
H2 H -0.34780 -0.00730 0.47360
C4 C -0.2309(4) 0.0326(4) 0.2699(3)
C5 C -0.2943(4) 0.1730(4) 0.2256(3)
C6 C -0.2495(4) 0.2510(3) 0.0991(3)
C7 C -0.3105(5) 0.3951(4) 0.0566(4)
H3 H -0.39070 0.45470 0.10870
C8 C -0.2332(5) 0.4325(4) -0.0724(4)
H4 H -0.24850 0.52300 -0.12730
C9 C -0.1247(5) 0.3103(3) -0.1096(3)
C10 C 0.0222(5) -0.3173(3) 0.2482(3)
C11 C -0.4243(5) 0.2485(4) 0.3268(4)
H5 H -0.50040 0.33040 0.28340
H6 H -0.49160 0.18820 0.39260
C12 C -0.3494(6) 0.2931(5) 0.3955(4)
H7 H -0.27490 0.21260 0.43980
H8 H -0.43900 0.33960 0.45950
H9 H -0.28590 0.35570 0.33150
C13 C -0.0929(5) -0.4082(4) 0.2864(4)
H10 H -0.16190 -0.41260 0.37770
H11 H -0.02260 -0.50220 0.28140
C14 C -0.2067(6) -0.3550(5) 0.2000(5)
H12 H -0.13930 -0.35610 0.11030
H13 H -0.27940 -0.41330 0.23050
H14 H -0.27520 -0.26110 0.20310
C15 C 0.1420(5) -0.3889(4) 0.3346(4)
H15 H 0.20510 -0.48180 0.32210
H16 H 0.07530 -0.39920 0.42690
C16 C 0.2648(7) -0.3138(5) 0.3068(5)
H17 H 0.20370 -0.22230 0.32090
H18 H 0.33630 -0.36480 0.36530
H19 H 0.33390 -0.30560 0.21640
C17 C 0.1525(4) 0.0327(3) 0.0528(3)
C18 C 0.2931(5) 0.1082(4) 0.1627(4)
C19 C 0.3961(6) 0.2031(4) 0.0604(5)
H20 H 0.49100 0.15160 0.00280
H21 H 0.43710 0.23890 0.10410
H22 H 0.32590 0.27930 0.00910
C20 C 0.4074(6) -0.0162(5) 0.2344(5)
H23 H 0.34200 -0.07590 0.30160
H24 H 0.45870 0.01420 0.27500
H25 H 0.49490 -0.06670 0.17250
C21 C 0.1435(7) 0.1845(7) 0.2524(6)
H26 H 0.06920 0.25670 0.20210
H27 H 0.18100 0.22540 0.29400
H28 H 0.08340 0.12080 0.31930
N1A N 0.1143(4) 0.0577(3) -0.1942(3)
C1A C 0.0879(5) 0.1820(4) -0.2773(3)
C2A C 0.1822(5) 0.1763(4) -0.4064(4)
H1A H 0.18290 0.25110 -0.48190
C3A C 0.2720(5) 0.0430(4) -0.4019(3)
H2A H 0.34780 0.00730 -0.47360
C4A C 0.2309(4) -0.0326(4) -0.2699(3)
C5A C 0.2943(4) -0.1730(4) -0.2256(3)
C6A C 0.2495(4) -0.2510(3) -0.0991(3)
N2A N 0.1331(3) -0.2003(3) 0.0083(3)
C17A C -0.1525(4) -0.0327(3) -0.0528(3)
N3A N -0.2284(4) -0.0610(3) -0.0954(3)
C18A C -0.2931(5) -0.1082(4) -0.1627(4)
C19A C -0.3961(6) -0.2031(4) -0.0604(5)
H20A H -0.49100 -0.15160 -0.00280
H21A H -0.43710 -0.23890 -0.10410
H22A H -0.32590 -0.27930 -0.00910
C20A C -0.4074(6) 0.0162(5) -0.2344(5)
H23A H -0.34200 0.07590 -0.30160
H24A H -0.45870 -0.01420 -0.27500
H25A H -0.49490 0.06670 -0.17250
C21A C -0.1435(7) -0.1845(7) -0.2524(6)
H26A H -0.06920 -0.25670 -0.20210
H27A H -0.18100 -0.22540 -0.29400
H28A H -0.08340 -0.12080 -0.31930
C9A C 0.1247(5) -0.3103(3) 0.1096(3)
C8A C 0.2332(5) -0.4325(4) 0.0724(4)
C7A C 0.3105(5) -0.3951(4) -0.0566(4)
H3A H 0.39070 -0.45470 -0.10870
H4A H 0.24850 -0.52300 0.12730
C11A C 0.4243(5) -0.2485(4) -0.3268(4)
H5A H 0.50040 -0.33040 -0.28340
H6A H 0.49160 -0.18820 -0.39260
C12A C 0.3494(6) -0.2931(5) -0.3955(4)
H7A H 0.27490 -0.21260 -0.43980
H8A H 0.43900 -0.33960 -0.45950
H9A H 0.28590 -0.35570 -0.33150
C10A C -0.0222(5) 0.3173(3) -0.2482(3)
C13A C 0.0929(5) 0.4082(4) -0.2864(4)
H10A H 0.16190 0.41260 -0.37770
H11A H 0.02260 0.50220 -0.28140
C14A C 0.2067(6) 0.3550(5) -0.2000(5)
H12A H 0.13930 0.35610 -0.11030
H13A H 0.27940 0.41330 -0.23050
H14A H 0.27520 0.26110 -0.20310
C15A C -0.1420(5) 0.3889(4) -0.3346(4)
H15A H -0.20510 0.48180 -0.32210
H16A H -0.07530 0.39920 -0.42690
C16A C -0.2648(7) 0.3138(5) -0.3068(5)
H17A H -0.20370 0.22230 -0.32090
H18A H -0.33630 0.36480 -0.36530
H19A H -0.33390 0.30560 -0.21640
#END
