
#######################################################################
#
#                 Cambridge Crystallographic Data Centre
#                                CCDC
#
#######################################################################
#
# If this CIF has been generated from an entry in the Cambridge
# Structural Database, then it will include bibliographic, chemical,
# crystal, experimental, refinement or atomic coordinate data resulting
# from the CCDC's data processing and validation procedures.
#
#######################################################################

data_CSD_CIF_QAXQUD04
_audit_creation_date 2012-06-19
_audit_creation_method CSD-ConQuest-V1
_database_code_CSD QAXQUD04
_database_code_depnum_ccdc_archive 'CCDC 875979'
_chemical_formula_sum 'C26 H32 Cl2 Fe1 N12 O8'
_chemical_formula_moiety
;
C26 H32 Fe1 N12 2+,2(Cl1 O4 1-)
;
_journal_coden_Cambridge 9
_journal_volume 51
_journal_year 2012
_journal_page_first 1084
_journal_name_full 'Inorg.Chem. '
loop_
_publ_author_name
"M.A.Goodman"
"A.Y.Nazarenko"
"B.J.Casavant"
"Zhanjie Li"
"W.W.Brennessel"
"M.J.DeMarco"
"Gen Long"
"M.S.Goodman"
_chemical_name_systematic
;
bis(tris(5-Methylpyrazolyl)methane)-iron(ii) diperchlorate
;
_cell_volume   2362.571
_exptl_crystal_colour 'pale pink'
_exptl_crystal_density_diffrn 1.618
_exptl_crystal_description 'block'
_diffrn_ambient_temperature 300
#These two values have been output from a single CSD field.
_refine_ls_R_factor_gt 0.051
_refine_ls_wR_factor_gt 0.051
_symmetry_cell_setting rhombohedral
_symmetry_space_group_name_H-M 'R -3'
_symmetry_Int_Tables_number 148
loop_
_symmetry_equiv_pos_site_id
_symmetry_equiv_pos_as_xyz
1 x,y,z
2 -y,x-y,z
3 -x+y,-x,z
4 2/3+x,1/3+y,1/3+z
5 2/3-y,1/3+x-y,1/3+z
6 2/3-x+y,1/3-x,1/3+z
7 1/3+x,2/3+y,2/3+z
8 1/3-y,2/3+x-y,2/3+z
9 1/3-x+y,2/3-x,2/3+z
10 -x,-y,-z
11 y,-x+y,-z
12 x-y,x,-z
13 -2/3-x,-1/3-y,-1/3-z
14 -2/3+y,-1/3-x+y,-1/3-z
15 -2/3+x-y,-1/3+x,-1/3-z
16 -1/3-x,-2/3-y,-2/3-z
17 -1/3+y,-2/3-x+y,-2/3-z
18 -1/3+x-y,-2/3+x,-2/3-z
_cell_length_a 11.2103(6)
_cell_length_b 11.2103(6)
_cell_length_c 21.708(2)
_cell_angle_alpha 90
_cell_angle_beta 90
_cell_angle_gamma 120
_cell_formula_units_Z 3
loop_
_atom_type_symbol
_atom_type_radius_bond
C 0.68
H 0.23
Cl 0.99
Fe 1.52
N 0.68
O 0.68
loop_
_atom_site_label
_atom_site_type_symbol
_atom_site_fract_x
_atom_site_fract_y
_atom_site_fract_z
Fe1 Fe 0.00000 0.00000 0.50000
N1 N 0.03566(19) 0.15887(18) 0.55963(8)
N2 N 0.01929(18) 0.13110(17) 0.62159(7)
C1 C 0.00000 0.00000 0.64220(14)
H1 H 0.00000 0.00000 0.68730
C2 C 0.0638(3) 0.2878(3) 0.55549(12)
H2 H 0.08040 0.33580 0.51860
C3 C 0.0657(3) 0.3433(3) 0.61322(13)
H3 H 0.08430 0.43230 0.62170
C4 C 0.0345(2) 0.2402(2) 0.65493(10)
C5 C 0.0153(3) 0.2371(3) 0.72295(12)
H4 H 0.03540 0.32650 0.73690
H5 H 0.07620 0.21210 0.74270
H6 H -0.07830 0.17060 0.73300
Cl1 Cl 0.33330 0.66670 0.79965(6)
O1 O 0.33330 0.66670 0.7346(2)
O2 O 0.3079(4) 0.7735(3) 0.81780(16)
N1A N -0.15887(19) -0.12321(18) 0.55963(8)
N1B N 0.12321(19) -0.03566(18) 0.55963(8)
N1I N -0.03566(19) -0.15887(18) 0.44037(8)
N1J N 0.15887(19) 0.12321(18) 0.44037(8)
N1K N -0.12321(19) 0.03566(18) 0.44037(8)
N2A N -0.13110(18) -0.11181(17) 0.62159(7)
N2B N 0.11181(18) -0.01929(17) 0.62159(7)
N2I N -0.01929(18) -0.13110(17) 0.37841(7)
N2J N 0.13110(18) 0.11181(17) 0.37841(7)
N2K N -0.11181(18) 0.01929(17) 0.37841(7)
C1I C 0.00000 0.00000 0.35780(14)
H1I H 0.00000 0.00000 0.31270
C2A C -0.2878(3) -0.2240(3) 0.55549(12)
C2B C 0.2240(3) -0.0638(3) 0.55549(12)
C2I C -0.0638(3) -0.2878(3) 0.44451(12)
C2J C 0.2878(3) 0.2240(3) 0.44451(12)
C2K C -0.2240(3) 0.0638(3) 0.44451(12)
H2A H -0.33580 -0.25540 0.51860
H2B H 0.25540 -0.08040 0.51860
H2I H -0.08040 -0.33580 0.48140
H2J H 0.33580 0.25540 0.48140
H2K H -0.25540 0.08040 0.48140
C3A C -0.3433(3) -0.2776(3) 0.61322(13)
C3B C 0.2776(3) -0.0657(3) 0.61322(13)
C3I C -0.0657(3) -0.3433(3) 0.38678(13)
C3J C 0.3433(3) 0.2776(3) 0.38678(13)
C3K C -0.2776(3) 0.0657(3) 0.38678(13)
H3A H -0.43230 -0.34800 0.62170
H3B H 0.34800 -0.08430 0.62170
H3I H -0.08430 -0.43230 0.37830
H3J H 0.43230 0.34800 0.37830
H3K H -0.34800 0.08430 0.37830
C4A C -0.2402(2) -0.2057(2) 0.65493(10)
C4B C 0.2057(2) -0.0345(2) 0.65493(10)
C4I C -0.0345(2) -0.2402(2) 0.34507(10)
C4J C 0.2402(2) 0.2057(2) 0.34507(10)
C4K C -0.2057(2) 0.0345(2) 0.34507(10)
C5A C -0.2371(3) -0.2218(3) 0.72295(12)
C5B C 0.2218(3) -0.0153(3) 0.72295(12)
C5I C -0.0153(3) -0.2371(3) 0.27705(12)
C5J C 0.2371(3) 0.2218(3) 0.27705(12)
C5K C -0.2218(3) 0.0153(3) 0.27705(12)
H4A H -0.32650 -0.29110 0.73690
H4B H 0.29110 -0.03540 0.73690
H4I H -0.03540 -0.32650 0.26310
H4J H 0.32650 0.29110 0.26310
H4K H -0.29110 0.03540 0.26310
H5A H -0.21210 -0.13590 0.74270
H5B H 0.13590 -0.07620 0.74270
H5I H -0.07620 -0.21210 0.25730
H5J H 0.21210 0.13590 0.25730
H5K H -0.13590 0.07620 0.25730
H6A H -0.17060 -0.24890 0.73300
H6B H 0.24890 0.07830 0.73300
H6I H 0.07830 -0.17060 0.26700
H6J H 0.17060 0.24890 0.26700
H6K H -0.24890 -0.07830 0.26700
O2A O 0.2265(4) 0.5344(3) 0.81780(16)
O2B O 0.4656(4) 0.6921(3) 0.81780(16)
#END
