
#######################################################################
#
#                 Cambridge Crystallographic Data Centre
#                                CCDC
#
#######################################################################
#
# If this CIF has been generated from an entry in the Cambridge
# Structural Database, then it will include bibliographic, chemical,
# crystal, experimental, refinement or atomic coordinate data resulting
# from the CCDC's data processing and validation procedures.
#
#######################################################################

data_CSD_CIF_QAXQUD
_audit_creation_date 2012-06-19
_audit_creation_method CSD-ConQuest-V1
_database_code_CSD QAXQUD
_database_code_depnum_ccdc_archive 'CCDC 875975'
_chemical_formula_sum 'C26 H32 Cl2 Fe1 N12 O8'
_chemical_formula_moiety
;
C26 H32 Fe1 N12 2+,2(Cl1 O4 1-)
;
_journal_coden_Cambridge 9
_journal_volume 51
_journal_year 2012
_journal_page_first 1084
_journal_name_full 'Inorg.Chem. '
loop_
_publ_author_name
"M.A.Goodman"
"A.Y.Nazarenko"
"B.J.Casavant"
"Zhanjie Li"
"W.W.Brennessel"
"M.J.DeMarco"
"Gen Long"
"M.S.Goodman"
_chemical_name_systematic
;
bis(tris(5-Methylpyrazolyl)methane)-iron(ii) diperchlorate
;
_cell_volume   2270.941
_exptl_crystal_colour 'pink red'
_exptl_crystal_density_diffrn 1.683
_exptl_crystal_description 'block'
_diffrn_ambient_temperature 173
#These two values have been output from a single CSD field.
_refine_ls_R_factor_gt 0.0385
_refine_ls_wR_factor_gt 0.0385
_symmetry_cell_setting rhombohedral
_symmetry_space_group_name_H-M 'R -3'
_symmetry_Int_Tables_number 148
loop_
_symmetry_equiv_pos_site_id
_symmetry_equiv_pos_as_xyz
1 x,y,z
2 -y,x-y,z
3 -x+y,-x,z
4 2/3+x,1/3+y,1/3+z
5 2/3-y,1/3+x-y,1/3+z
6 2/3-x+y,1/3-x,1/3+z
7 1/3+x,2/3+y,2/3+z
8 1/3-y,2/3+x-y,2/3+z
9 1/3-x+y,2/3-x,2/3+z
10 -x,-y,-z
11 y,-x+y,-z
12 x-y,x,-z
13 -2/3-x,-1/3-y,-1/3-z
14 -2/3+y,-1/3-x+y,-1/3-z
15 -2/3+x-y,-1/3+x,-1/3-z
16 -1/3-x,-2/3-y,-2/3-z
17 -1/3+y,-2/3-x+y,-2/3-z
18 -1/3+x-y,-2/3+x,-2/3-z
_cell_length_a 11.0644(12)
_cell_length_b 11.0644(12)
_cell_length_c 21.420(5)
_cell_angle_alpha 90
_cell_angle_beta 90
_cell_angle_gamma 120
_cell_formula_units_Z 3
loop_
_atom_type_symbol
_atom_type_radius_bond
C 0.68
H 0.23
Cl 0.99
Fe 1.52
N 0.68
O 0.68
loop_
_atom_site_label
_atom_site_type_symbol
_atom_site_fract_x
_atom_site_fract_y
_atom_site_fract_z
Fe1 Fe 0.00000 0.00000 0.50000
N1 N 0.03023(14) 0.15464(14) 0.55598(5)
N2 N 0.01514(14) 0.13020(13) 0.61910(5)
C1 C 0.00000 0.00000 0.64107(11)
H1 H 0.00000 0.00000 0.68780
C2 C 0.05928(18) 0.28583(17) 0.54960(7)
H2 H 0.07470 0.33260 0.51070
C3 C 0.06415(18) 0.34636(18) 0.60784(7)
H3 H 0.08390 0.43910 0.61540
C4 C 0.03454(15) 0.24451(16) 0.65164(7)
C5 C 0.01601(18) 0.24436(19) 0.72072(7)
H4 H 0.07600 0.21490 0.74140
H5 H -0.08170 0.17950 0.73140
H6 H 0.04150 0.33860 0.73460
Cl1 Cl 0.33330 0.66670 0.80264(3)
O1 O 0.33330 0.66670 0.73587(13)
O2 O 0.46504(18) 0.6867(2) 0.82414(8)
N1A N -0.15464(14) -0.12441(14) 0.55598(5)
N1B N 0.12441(14) -0.03023(14) 0.55598(5)
N1I N -0.03023(14) -0.15464(14) 0.44402(5)
N1J N 0.15464(14) 0.12441(14) 0.44402(5)
N1K N -0.12441(14) 0.03023(14) 0.44402(5)
N2A N -0.13020(14) -0.11506(13) 0.61910(5)
N2B N 0.11506(14) -0.01514(13) 0.61910(5)
N2I N -0.01514(14) -0.13020(13) 0.38090(5)
N2J N 0.13020(14) 0.11506(13) 0.38090(5)
N2K N -0.11506(14) 0.01514(13) 0.38090(5)
C1I C 0.00000 0.00000 0.35893(11)
H1I H 0.00000 0.00000 0.31220
C2A C -0.28583(18) -0.22655(17) 0.54960(7)
C2B C 0.22655(18) -0.05928(17) 0.54960(7)
C2I C -0.05928(18) -0.28583(17) 0.45040(7)
C2J C 0.28583(18) 0.22655(17) 0.45040(7)
C2K C -0.22655(18) 0.05928(17) 0.45040(7)
H2A H -0.33260 -0.25790 0.51070
H2B H 0.25790 -0.07470 0.51070
H2I H -0.07470 -0.33260 0.48930
H2J H 0.33260 0.25790 0.48930
H2K H -0.25790 0.07470 0.48930
C3A C -0.34636(18) -0.28221(18) 0.60784(7)
C3B C 0.28221(18) -0.06415(18) 0.60784(7)
C3I C -0.06415(18) -0.34636(18) 0.39216(7)
C3J C 0.34636(18) 0.28221(18) 0.39216(7)
C3K C -0.28221(18) 0.06415(18) 0.39216(7)
H3A H -0.43910 -0.35520 0.61540
H3B H 0.35520 -0.08390 0.61540
H3I H -0.08390 -0.43910 0.38460
H3J H 0.43910 0.35520 0.38460
H3K H -0.35520 0.08390 0.38460
C4A C -0.24451(15) -0.20997(16) 0.65164(7)
C4B C 0.20997(15) -0.03454(16) 0.65164(7)
C4I C -0.03454(15) -0.24451(16) 0.34836(7)
C4J C 0.24451(15) 0.20997(16) 0.34836(7)
C4K C -0.20997(15) 0.03454(16) 0.34836(7)
C5A C -0.24436(18) -0.22835(19) 0.72072(7)
C5B C 0.22835(18) -0.01601(19) 0.72072(7)
C5I C -0.01601(18) -0.24436(19) 0.27928(7)
C5J C 0.24436(18) 0.22835(19) 0.27928(7)
C5K C -0.22835(18) 0.01601(19) 0.27928(7)
H4A H -0.21490 -0.13890 0.74140
H4B H 0.13890 -0.07600 0.74140
H4I H -0.07600 -0.21490 0.25860
H4J H 0.21490 0.13890 0.25860
H4K H -0.13890 0.07600 0.25860
H5A H -0.17950 -0.26120 0.73140
H5B H 0.26120 0.08170 0.73140
H5I H 0.08170 -0.17950 0.26860
H5J H 0.17950 0.26120 0.26860
H5K H -0.26120 -0.08170 0.26860
H6A H -0.33860 -0.29710 0.73460
H6B H 0.29710 -0.04150 0.73460
H6I H -0.04150 -0.33860 0.26540
H6J H 0.33860 0.29710 0.26540
H6K H -0.29710 0.04150 0.26540
O2A O 0.31330(18) 0.77834(20) 0.82414(8)
O2B O 0.22166(18) 0.53496(20) 0.82414(8)
#END
