
#######################################################################
#
#                 Cambridge Crystallographic Data Centre
#                                CCDC
#
#######################################################################
#
# If this CIF has been generated from an entry in the Cambridge
# Structural Database, then it will include bibliographic, chemical,
# crystal, experimental, refinement or atomic coordinate data resulting
# from the CCDC's data processing and validation procedures.
#
#######################################################################

data_CSD_CIF_QAXQUD02
_audit_creation_date 2012-06-19
_audit_creation_method CSD-ConQuest-V1
_database_code_CSD QAXQUD02
_database_code_depnum_ccdc_archive 'CCDC 875977'
_chemical_formula_sum 'C26 H32 Cl2 Fe1 N12 O8'
_chemical_formula_moiety
;
C26 H32 Fe1 N12 2+,2(Cl1 O4 1-)
;
_journal_coden_Cambridge 9
_journal_volume 51
_journal_year 2012
_journal_page_first 1084
_journal_name_full 'Inorg.Chem. '
loop_
_publ_author_name
"M.A.Goodman"
"A.Y.Nazarenko"
"B.J.Casavant"
"Zhanjie Li"
"W.W.Brennessel"
"M.J.DeMarco"
"Gen Long"
"M.S.Goodman"
_chemical_name_systematic
;
bis(tris(5-Methylpyrazolyl)methane)-iron(ii) diperchlorate
;
_cell_volume   2328.217
_exptl_crystal_colour 'pink red'
_exptl_crystal_density_diffrn 1.642
_exptl_crystal_description 'block'
_diffrn_ambient_temperature 263
#These two values have been output from a single CSD field.
_refine_ls_R_factor_gt 0.0479
_refine_ls_wR_factor_gt 0.0479
_symmetry_cell_setting rhombohedral
_symmetry_space_group_name_H-M 'R -3'
_symmetry_Int_Tables_number 148
loop_
_symmetry_equiv_pos_site_id
_symmetry_equiv_pos_as_xyz
1 x,y,z
2 -y,x-y,z
3 -x+y,-x,z
4 2/3+x,1/3+y,1/3+z
5 2/3-y,1/3+x-y,1/3+z
6 2/3-x+y,1/3-x,1/3+z
7 1/3+x,2/3+y,2/3+z
8 1/3-y,2/3+x-y,2/3+z
9 1/3-x+y,2/3-x,2/3+z
10 -x,-y,-z
11 y,-x+y,-z
12 x-y,x,-z
13 -2/3-x,-1/3-y,-1/3-z
14 -2/3+y,-1/3-x+y,-1/3-z
15 -2/3+x-y,-1/3+x,-1/3-z
16 -1/3-x,-2/3-y,-2/3-z
17 -1/3+y,-2/3-x+y,-2/3-z
18 -1/3+x-y,-2/3+x,-2/3-z
_cell_length_a 11.1783(10)
_cell_length_b 11.1783(10)
_cell_length_c 21.515(4)
_cell_angle_alpha 90
_cell_angle_beta 90
_cell_angle_gamma 120
_cell_formula_units_Z 3
loop_
_atom_type_symbol
_atom_type_radius_bond
C 0.68
H 0.23
Cl 0.99
Fe 1.52
N 0.68
O 0.68
loop_
_atom_site_label
_atom_site_type_symbol
_atom_site_fract_x
_atom_site_fract_y
_atom_site_fract_z
Fe1 Fe 0.00000 0.00000 0.50000
N1 N 0.03181(18) 0.15455(17) 0.55679(7)
N2 N 0.01689(17) 0.12988(16) 0.61956(6)
C1 C 0.00000 0.00000 0.64109(13)
H1 H 0.00000 0.00000 0.68660
C2 C 0.0609(2) 0.2846(2) 0.55096(10)
H2 H 0.07670 0.33090 0.51330
C3 C 0.0644(3) 0.3426(2) 0.60890(11)
H3 H 0.08330 0.43220 0.61660
C4 C 0.03467(19) 0.2420(2) 0.65194(9)
C5 C 0.0168(3) 0.2419(3) 0.7207(1)
H4 H 0.04080 0.33310 0.73420
H5 H 0.07580 0.21430 0.74080
H6 H -0.07760 0.17840 0.73130
Cl1 Cl 0.33330 0.66670 0.80228(5)
O1 O 0.33330 0.66670 0.7365(2)
O2 O 0.3112(3) 0.7755(3) 0.82129(14)
N1A N -0.15455(18) -0.12274(17) 0.55679(7)
N1B N 0.12274(18) -0.03181(17) 0.55679(7)
N1I N -0.03181(18) -0.15455(17) 0.44321(7)
N1J N 0.15455(18) 0.12274(17) 0.44321(7)
N1K N -0.12274(18) 0.03181(17) 0.44321(7)
N2A N -0.12988(17) -0.11299(16) 0.61956(6)
N2B N 0.11299(17) -0.01689(16) 0.61956(6)
N2I N -0.01689(17) -0.12988(16) 0.38044(6)
N2J N 0.12988(17) 0.11299(16) 0.38044(6)
N2K N -0.11299(17) 0.01689(16) 0.38044(6)
C1I C 0.00000 0.00000 0.35891(13)
H1I H 0.00000 0.00000 0.31340
C2A C -0.2846(2) -0.2237(2) 0.55096(10)
C2B C 0.2237(2) -0.0609(2) 0.55096(10)
C2I C -0.0609(2) -0.2846(2) 0.44904(10)
C2J C 0.2846(2) 0.2237(2) 0.44904(10)
C2K C -0.2237(2) 0.0609(2) 0.44904(10)
H2A H -0.33090 -0.25420 0.51330
H2B H 0.25420 -0.07670 0.51330
H2I H -0.07670 -0.33090 0.48670
H2J H 0.33090 0.25420 0.48670
H2K H -0.25420 0.07670 0.48670
C3A C -0.3426(3) -0.2782(2) 0.60890(11)
C3B C 0.2782(3) -0.0644(2) 0.60890(11)
C3I C -0.0644(3) -0.3426(2) 0.39110(11)
C3J C 0.3426(3) 0.2782(2) 0.39110(11)
C3K C -0.2782(3) 0.0644(2) 0.39110(11)
H3A H -0.43220 -0.34890 0.61660
H3B H 0.34890 -0.08330 0.61660
H3I H -0.08330 -0.43220 0.38340
H3J H 0.43220 0.34890 0.38340
H3K H -0.34890 0.08330 0.38340
C4A C -0.24200(19) -0.20733(20) 0.65194(9)
C4B C 0.20733(19) -0.03467(20) 0.65194(9)
C4I C -0.03467(19) -0.2420(2) 0.34806(9)
C4J C 0.24200(19) 0.20733(20) 0.34806(9)
C4K C -0.20733(19) 0.03467(20) 0.34806(9)
C5A C -0.2419(3) -0.2251(3) 0.7207(1)
C5B C 0.2251(3) -0.0168(3) 0.7207(1)
C5I C -0.0168(3) -0.2419(3) 0.2793(1)
C5J C 0.2419(3) 0.2251(3) 0.2793(1)
C5K C -0.2251(3) 0.0168(3) 0.2793(1)
H4A H -0.33310 -0.29230 0.73420
H4B H 0.29230 -0.04080 0.73420
H4I H -0.04080 -0.33310 0.26580
H4J H 0.33310 0.29230 0.26580
H4K H -0.29230 0.04080 0.26580
H5A H -0.21430 -0.13850 0.74080
H5B H 0.13850 -0.07580 0.74080
H5I H -0.07580 -0.21430 0.25920
H5J H 0.21430 0.13850 0.25920
H5K H -0.13850 0.07580 0.25920
H6A H -0.17840 -0.25600 0.73130
H6B H 0.25600 0.07760 0.73130
H6I H 0.07760 -0.17840 0.26870
H6J H 0.17840 0.25600 0.26870
H6K H -0.25600 -0.07760 0.26870
O2A O 0.2245(3) 0.5357(3) 0.82129(14)
O2B O 0.4643(3) 0.6888(3) 0.82129(14)
#END
