
#######################################################################
#
#                 Cambridge Crystallographic Data Centre
#                                CCDC
#
#######################################################################
#
# If this CIF has been generated from an entry in the Cambridge
# Structural Database, then it will include bibliographic, chemical,
# crystal, experimental, refinement or atomic coordinate data resulting
# from the CCDC's data processing and validation procedures.
#
#######################################################################

data_CSD_CIF_QAXQUD03
_audit_creation_date 2012-06-19
_audit_creation_method CSD-ConQuest-V1
_database_code_CSD QAXQUD03
_database_code_depnum_ccdc_archive 'CCDC 875978'
_chemical_formula_sum 'C26 H32 Cl2 Fe1 N12 O8'
_chemical_formula_moiety
;
C26 H32 Fe1 N12 2+,2(Cl1 O4 1-)
;
_journal_coden_Cambridge 9
_journal_volume 51
_journal_year 2012
_journal_page_first 1084
_journal_name_full 'Inorg.Chem. '
loop_
_publ_author_name
"M.A.Goodman"
"A.Y.Nazarenko"
"B.J.Casavant"
"Zhanjie Li"
"W.W.Brennessel"
"M.J.DeMarco"
"Gen Long"
"M.S.Goodman"
_chemical_name_systematic
;
bis(tris(5-Methylpyrazolyl)methane)-iron(ii) diperchlorate
;
_cell_volume   2345.732
_exptl_crystal_colour 'light pink red'
_exptl_crystal_density_diffrn 1.63
_exptl_crystal_description 'block'
_diffrn_ambient_temperature 283
#These two values have been output from a single CSD field.
_refine_ls_R_factor_gt 0.0496
_refine_ls_wR_factor_gt 0.0496
_symmetry_cell_setting rhombohedral
_symmetry_space_group_name_H-M 'R -3'
_symmetry_Int_Tables_number 148
loop_
_symmetry_equiv_pos_site_id
_symmetry_equiv_pos_as_xyz
1 x,y,z
2 -y,x-y,z
3 -x+y,-x,z
4 2/3+x,1/3+y,1/3+z
5 2/3-y,1/3+x-y,1/3+z
6 2/3-x+y,1/3-x,1/3+z
7 1/3+x,2/3+y,2/3+z
8 1/3-y,2/3+x-y,2/3+z
9 1/3-x+y,2/3-x,2/3+z
10 -x,-y,-z
11 y,-x+y,-z
12 x-y,x,-z
13 -2/3-x,-1/3-y,-1/3-z
14 -2/3+y,-1/3-x+y,-1/3-z
15 -2/3+x-y,-1/3+x,-1/3-z
16 -1/3-x,-2/3-y,-2/3-z
17 -1/3+y,-2/3-x+y,-2/3-z
18 -1/3+x-y,-2/3+x,-2/3-z
_cell_length_a 11.1948(7)
_cell_length_b 11.1948(7)
_cell_length_c 21.613(3)
_cell_angle_alpha 90
_cell_angle_beta 90
_cell_angle_gamma 120
_cell_formula_units_Z 3
loop_
_atom_type_symbol
_atom_type_radius_bond
C 0.68
H 0.23
Cl 0.99
Fe 1.52
N 0.68
O 0.68
loop_
_atom_site_label
_atom_site_type_symbol
_atom_site_fract_x
_atom_site_fract_y
_atom_site_fract_z
Fe1 Fe 0.00000 0.00000 0.50000
N1 N 0.03359(19) 0.15665(18) 0.55812(7)
N2 N 0.01801(17) 0.13050(17) 0.62059(7)
C1 C 0.00000 0.00000 0.64166(14)
H1 H 0.00000 0.00000 0.68700
C2 C 0.0624(3) 0.2861(2) 0.55314(12)
H2 H 0.07900 0.33330 0.51590
C3 C 0.0648(3) 0.3427(2) 0.61099(12)
H3 H 0.08330 0.43190 0.61900
C4 C 0.0347(2) 0.2411(2) 0.65338(10)
C5 C 0.0163(3) 0.2397(3) 0.72166(11)
H4 H 0.03980 0.33040 0.73540
H5 H 0.07520 0.21200 0.74160
H6 H -0.07810 0.17590 0.73200
Cl1 Cl 0.33330 0.66670 0.80103(6)
O1 O 0.33330 0.66670 0.7360(2)
O2 O 0.3097(3) 0.7743(3) 0.81940(16)
N1A N -0.15665(19) -0.12306(18) 0.55812(7)
N1B N 0.12306(19) -0.03359(18) 0.55812(7)
N1I N -0.03359(19) -0.15665(18) 0.44188(7)
N1J N 0.15665(19) 0.12306(18) 0.44188(7)
N1K N -0.12306(19) 0.03359(18) 0.44188(7)
N2A N -0.13050(17) -0.11249(17) 0.62059(7)
N2B N 0.11249(17) -0.01801(17) 0.62059(7)
N2I N -0.01801(17) -0.13050(17) 0.37941(7)
N2J N 0.13050(17) 0.11249(17) 0.37941(7)
N2K N -0.11249(17) 0.01801(17) 0.37941(7)
C1I C 0.00000 0.00000 0.35834(14)
H1I H 0.00000 0.00000 0.31300
C2A C -0.2861(3) -0.2237(2) 0.55314(12)
C2B C 0.2237(3) -0.0624(2) 0.55314(12)
C2I C -0.0624(3) -0.2861(2) 0.44686(12)
C2J C 0.2861(3) 0.2237(2) 0.44686(12)
C2K C -0.2237(3) 0.0624(2) 0.44686(12)
H2A H -0.33330 -0.25430 0.51590
H2B H 0.25430 -0.07900 0.51590
H2I H -0.07900 -0.33330 0.48410
H2J H 0.33330 0.25430 0.48410
H2K H -0.25430 0.07900 0.48410
C3A C -0.3427(3) -0.2779(2) 0.61099(12)
C3B C 0.2779(3) -0.0648(2) 0.61099(12)
C3I C -0.0648(3) -0.3427(2) 0.38901(12)
C3J C 0.3427(3) 0.2779(2) 0.38901(12)
C3K C -0.2779(3) 0.0648(2) 0.38901(12)
H3A H -0.43190 -0.34860 0.61900
H3B H 0.34860 -0.08330 0.61900
H3I H -0.08330 -0.43190 0.38100
H3J H 0.43190 0.34860 0.38100
H3K H -0.34860 0.08330 0.38100
C4A C -0.2411(2) -0.2064(2) 0.65338(10)
C4B C 0.2064(2) -0.0347(2) 0.65338(10)
C4I C -0.0347(2) -0.2411(2) 0.34662(10)
C4J C 0.2411(2) 0.2064(2) 0.34662(10)
C4K C -0.2064(2) 0.0347(2) 0.34662(10)
C5A C -0.2397(3) -0.2234(3) 0.72166(11)
C5B C 0.2234(3) -0.0163(3) 0.72166(11)
C5I C -0.0163(3) -0.2397(3) 0.27834(11)
C5J C 0.2397(3) 0.2234(3) 0.27834(11)
C5K C -0.2234(3) 0.0163(3) 0.27834(11)
H4A H -0.33040 -0.29060 0.73540
H4B H 0.29060 -0.03980 0.73540
H4I H -0.03980 -0.33040 0.26460
H4J H 0.33040 0.29060 0.26460
H4K H -0.29060 0.03980 0.26460
H5A H -0.21200 -0.13680 0.74160
H5B H 0.13680 -0.07520 0.74160
H5I H -0.07520 -0.21200 0.25840
H5J H 0.21200 0.13680 0.25840
H5K H -0.13680 0.07520 0.25840
H6A H -0.17590 -0.25400 0.73200
H6B H 0.25400 0.07810 0.73200
H6I H 0.07810 -0.17590 0.26800
H6J H 0.17590 0.25400 0.26800
H6K H -0.25400 -0.07810 0.26800
O2A O 0.2257(3) 0.5354(3) 0.81940(16)
O2B O 0.4646(3) 0.6903(3) 0.81940(16)
#END
