
#######################################################################
#
#                 Cambridge Crystallographic Data Centre
#                                CCDC
#
#######################################################################
#
# If this CIF has been generated from an entry in the Cambridge
# Structural Database, then it will include bibliographic, chemical,
# crystal, experimental, refinement or atomic coordinate data resulting
# from the CCDC's data processing and validation procedures.
#
#######################################################################

data_CSD_CIF_QAXQUD01
_audit_creation_date 2012-06-19
_audit_creation_method CSD-ConQuest-V1
_database_code_CSD QAXQUD01
_database_code_depnum_ccdc_archive 'CCDC 875976'
_chemical_formula_sum 'C26 H32 Cl2 Fe1 N12 O8'
_chemical_formula_moiety
;
C26 H32 Fe1 N12 2+,2(Cl1 O4 1-)
;
_journal_coden_Cambridge 9
_journal_volume 51
_journal_year 2012
_journal_page_first 1084
_journal_name_full 'Inorg.Chem. '
loop_
_publ_author_name
"M.A.Goodman"
"A.Y.Nazarenko"
"B.J.Casavant"
"Zhanjie Li"
"W.W.Brennessel"
"M.J.DeMarco"
"Gen Long"
"M.S.Goodman"
_chemical_name_systematic
;
bis(tris(5-Methylpyrazolyl)methane)-iron(ii) diperchlorate
;
_cell_volume   2314.880
_exptl_crystal_colour 'pink red'
_exptl_crystal_density_diffrn 1.651
_exptl_crystal_description 'block'
_diffrn_ambient_temperature 243
#These two values have been output from a single CSD field.
_refine_ls_R_factor_gt 0.0464
_refine_ls_wR_factor_gt 0.0464
_symmetry_cell_setting rhombohedral
_symmetry_space_group_name_H-M 'R -3'
_symmetry_Int_Tables_number 148
loop_
_symmetry_equiv_pos_site_id
_symmetry_equiv_pos_as_xyz
1 x,y,z
2 -y,x-y,z
3 -x+y,-x,z
4 2/3+x,1/3+y,1/3+z
5 2/3-y,1/3+x-y,1/3+z
6 2/3-x+y,1/3-x,1/3+z
7 1/3+x,2/3+y,2/3+z
8 1/3-y,2/3+x-y,2/3+z
9 1/3-x+y,2/3-x,2/3+z
10 -x,-y,-z
11 y,-x+y,-z
12 x-y,x,-z
13 -2/3-x,-1/3-y,-1/3-z
14 -2/3+y,-1/3-x+y,-1/3-z
15 -2/3+x-y,-1/3+x,-1/3-z
16 -1/3-x,-2/3-y,-2/3-z
17 -1/3+y,-2/3-x+y,-2/3-z
18 -1/3+x-y,-2/3+x,-2/3-z
_cell_length_a 11.1522(12)
_cell_length_b 11.1522(12)
_cell_length_c 21.492(5)
_cell_angle_alpha 90
_cell_angle_beta 90
_cell_angle_gamma 120
_cell_formula_units_Z 3
loop_
_atom_type_symbol
_atom_type_radius_bond
C 0.68
H 0.23
Cl 0.99
Fe 1.52
N 0.68
O 0.68
loop_
_atom_site_label
_atom_site_type_symbol
_atom_site_fract_x
_atom_site_fract_y
_atom_site_fract_z
Fe1 Fe 0.00000 0.00000 0.50000
N1 N 0.03087(17) 0.15400(17) 0.55619(7)
N2 N 0.01619(17) 0.12978(17) 0.61919(6)
C1 C 0.00000 0.00000 0.64094(13)
H1 H 0.00000 0.00000 0.68700
C2 C 0.0602(2) 0.2841(2) 0.55002(9)
H2 H 0.07620 0.33060 0.51180
C3 C 0.0644(2) 0.3431(2) 0.60814(10)
H3 H 0.08370 0.43410 0.61570
C4 C 0.0348(2) 0.2428(2) 0.65151(9)
C5 C 0.0169(2) 0.2428(3) 0.7206(1)
H4 H 0.04030 0.33500 0.73420
H5 H 0.07730 0.21570 0.74100
H6 H -0.07860 0.17790 0.73140
Cl1 Cl 0.33330 0.66670 0.80270(5)
O1 O 0.33330 0.66670 0.7362(2)
O2 O 0.3120(3) 0.7762(3) 0.82224(13)
N1A N -0.15400(17) -0.12313(17) 0.55619(7)
N1B N 0.12313(17) -0.03087(17) 0.55619(7)
N1I N -0.03087(17) -0.15400(17) 0.44381(7)
N1J N 0.15400(17) 0.12313(17) 0.44381(7)
N1K N -0.12313(17) 0.03087(17) 0.44381(7)
N2A N -0.12978(17) -0.11359(17) 0.61919(6)
N2B N 0.11359(17) -0.01619(17) 0.61919(6)
N2I N -0.01619(17) -0.12978(17) 0.38081(6)
N2J N 0.12978(17) 0.11359(17) 0.38081(6)
N2K N -0.11359(17) 0.01619(17) 0.38081(6)
C1I C 0.00000 0.00000 0.35906(13)
H1I H 0.00000 0.00000 0.31300
C2A C -0.2841(2) -0.2239(2) 0.55002(9)
C2B C 0.2239(2) -0.0602(2) 0.55002(9)
C2I C -0.0602(2) -0.2841(2) 0.44998(9)
C2J C 0.2841(2) 0.2239(2) 0.44998(9)
C2K C -0.2239(2) 0.0602(2) 0.44998(9)
H2A H -0.33060 -0.25440 0.51180
H2B H 0.25440 -0.07620 0.51180
H2I H -0.07620 -0.33060 0.48820
H2J H 0.33060 0.25440 0.48820
H2K H -0.25440 0.07620 0.48820
C3A C -0.3431(2) -0.2787(2) 0.60814(10)
C3B C 0.2787(2) -0.0644(2) 0.60814(10)
C3I C -0.0644(2) -0.3431(2) 0.39186(10)
C3J C 0.3431(2) 0.2787(2) 0.39186(10)
C3K C -0.2787(2) 0.0644(2) 0.39186(10)
H3A H -0.43410 -0.35040 0.61570
H3B H 0.35040 -0.08370 0.61570
H3I H -0.08370 -0.43410 0.38430
H3J H 0.43410 0.35040 0.38430
H3K H -0.35040 0.08370 0.38430
C4A C -0.2428(2) -0.2080(2) 0.65151(9)
C4B C 0.2080(2) -0.0348(2) 0.65151(9)
C4I C -0.0348(2) -0.2428(2) 0.34849(9)
C4J C 0.2428(2) 0.2080(2) 0.34849(9)
C4K C -0.2080(2) 0.0348(2) 0.34849(9)
C5A C -0.2428(2) -0.2259(3) 0.7206(1)
C5B C 0.2259(2) -0.0169(3) 0.7206(1)
C5I C -0.0169(2) -0.2428(3) 0.2794(1)
C5J C 0.2428(2) 0.2259(3) 0.2794(1)
C5K C -0.2259(2) 0.0169(3) 0.2794(1)
H4A H -0.33500 -0.29470 0.73420
H4B H 0.29470 -0.04030 0.73420
H4I H -0.04030 -0.33500 0.26580
H4J H 0.33500 0.29470 0.26580
H4K H -0.29470 0.04030 0.26580
H5A H -0.21570 -0.13840 0.74100
H5B H 0.13840 -0.07730 0.74100
H5I H -0.07730 -0.21570 0.25900
H5J H 0.21570 0.13840 0.25900
H5K H -0.13840 0.07730 0.25900
H6A H -0.17790 -0.25650 0.73140
H6B H 0.25650 0.07860 0.73140
H6I H 0.07860 -0.17790 0.26860
H6J H 0.17790 0.25650 0.26860
H6K H -0.25650 -0.07860 0.26860
O2A O 0.2238(3) 0.5358(3) 0.82224(13)
O2B O 0.4642(3) 0.6880(3) 0.82224(13)
#END
