
#######################################################################
#
#                 Cambridge Crystallographic Data Centre
#                                CCDC
#
#######################################################################
#
# If this CIF has been generated from an entry in the Cambridge
# Structural Database, then it will include bibliographic, chemical,
# crystal, experimental, refinement or atomic coordinate data resulting
# from the CCDC's data processing and validation procedures.
#
#######################################################################

data_CSD_CIF_QEDXUS01
_audit_creation_date 2019-07-13
_audit_creation_method CSD-ConQuest-V1
_database_code_CSD QEDXUS01
_database_code_depnum_ccdc_archive 'CCDC 1907696'
_chemical_formula_sum 'C11 H10 Cr1 O3'
_chemical_formula_moiety
;
C11 H10 Cr1 O3
;
_journal_coden_Cambridge 36
_journal_volume 897
_journal_year 2019
_journal_page_first 217
_journal_name_full 'J.Organomet.Chem. '
loop_
_publ_author_name
"K.V.Zaitsev"
"I.P.Gloriozov"
"Y.F.Oprunenko"
"E.Kh Lermontova"
"A.V.Churakov"
_chemical_name_systematic
;
tricarbonyl-[1,4-dimethylbenzene]-chromium(0)
;
_cell_volume    521.154
_exptl_crystal_colour 'yellow'
_exptl_crystal_density_diffrn 1.543
_exptl_crystal_description 'plate'
_diffrn_ambient_temperature 150
#These two values have been output from a single CSD field.
_refine_ls_R_factor_gt 0.0371
_refine_ls_wR_factor_gt 0.0371
_symmetry_cell_setting triclinic
_symmetry_space_group_name_H-M 'P -1'
_symmetry_Int_Tables_number 2
loop_
_symmetry_equiv_pos_site_id
_symmetry_equiv_pos_as_xyz
1 x,y,z
2 -x,-y,-z
_cell_length_a 6.1501(5)
_cell_length_b 6.6866(5)
_cell_length_c 13.2857(10)
_cell_angle_alpha 80.989(3)
_cell_angle_beta 82.093(3)
_cell_angle_gamma 76.195(3)
_cell_formula_units_Z 2
loop_
_atom_type_symbol
_atom_type_radius_bond
C 0.68
H 0.23
Cr 1.39
O 0.68
loop_
_atom_site_label
_atom_site_type_symbol
_atom_site_fract_x
_atom_site_fract_y
_atom_site_fract_z
Cr1 Cr 0.67806(5) 0.47235(5) 0.25232(2)
O1 O 0.3176(3) 0.8611(2) 0.22763(15)
O2 O 0.8966(3) 0.6588(3) 0.39128(13)
O3 O 0.9398(3) 0.6733(3) 0.07420(14)
C1 C 0.8447(3) 0.1474(3) 0.30760(17)
H1 H 0.99140 0.09450 0.32860
C2 C 0.8118(4) 0.1590(3) 0.20483(17)
H2 H 0.93750 0.11730 0.15660
C3 C 0.5954(4) 0.2313(3) 0.17085(17)
C4 C 0.4156(4) 0.3013(3) 0.24347(17)
H3 H 0.26940 0.35580 0.22220
C5 C 0.4479(3) 0.2922(3) 0.34774(17)
H4 H 0.32330 0.33970 0.39540
C6 C 0.6616(3) 0.2138(3) 0.38123(16)
C7 C 0.6992(4) 0.1977(4) 0.49223(17)
H5 H 0.58180 0.30000 0.52590
H6 H 0.84710 0.22480 0.49670
H7 H 0.69320 0.05780 0.52630
C8 C 0.5599(5) 0.2287(4) 0.06124(19)
H8 H 0.55490 0.08790 0.05120
H9 H 0.68410 0.27240 0.01560
H10 H 0.41740 0.32430 0.04550
C9 C 0.4569(3) 0.7118(3) 0.23790(17)
C10 C 0.8127(4) 0.5887(3) 0.33630(17)
C11 C 0.8413(4) 0.5910(3) 0.14215(17)
#END
