
#######################################################################
#
#                 Cambridge Crystallographic Data Centre
#                                CCDC
#
#######################################################################
#
# If this CIF has been generated from an entry in the Cambridge
# Structural Database, then it will include bibliographic, chemical,
# crystal, experimental, refinement or atomic coordinate data resulting
# from the CCDC's data processing and validation procedures.
#
#######################################################################

data_CSD_CIF_QEFDOW
_audit_creation_date 2012-12-11
_audit_creation_method CSD-ConQuest-V1
_database_code_CSD QEFDOW
_database_code_depnum_ccdc_archive 'CCDC 883227'
_chemical_formula_sum 'C9 H9 Br3 Cl3 Fe1 N6'
_chemical_formula_moiety
;
C9 H9 Br3 Cl3 Fe1 N6
;
_journal_coden_Cambridge 580
_journal_volume 45
_journal_year 2012
_journal_page_first 55
_journal_name_full 'Polyhedron '
loop_
_publ_author_name
"E.V.Govor"
"I.Chakraborty"
"D.M.Pinero"
"P.Baran"
"Y.Sanakis"
"R.G.Raptis"
_chemical_name_systematic
;
Tribromo-tris(4-chloro-1H-pyrazole)-iron(iii)
;
_cell_volume    898.437
_exptl_crystal_colour 'black red'
_exptl_crystal_density_diffrn 2.23
_exptl_crystal_description 'cubic'
_diffrn_ambient_temperature 296
#These two values have been output from a single CSD field.
_refine_ls_R_factor_gt 0.0351
_refine_ls_wR_factor_gt 0.0351
_symmetry_cell_setting triclinic
_symmetry_space_group_name_H-M 'P -1'
_symmetry_Int_Tables_number 2
loop_
_symmetry_equiv_pos_site_id
_symmetry_equiv_pos_as_xyz
1 x,y,z
2 -x,-y,-z
_cell_length_a 6.952(8)
_cell_length_b 10.468(13)
_cell_length_c 12.599(15)
_cell_angle_alpha 78.558(12)
_cell_angle_beta 89.555(13)
_cell_angle_gamma 88.764(13)
_cell_formula_units_Z 2
loop_
_atom_type_symbol
_atom_type_radius_bond
C 0.68
H 0.23
Br 1.21
Cl 0.99
Fe 1.52
N 0.68
loop_
_atom_site_label
_atom_site_type_symbol
_atom_site_fract_x
_atom_site_fract_y
_atom_site_fract_z
Fe1 Fe 0.32759(6) 0.18829(4) 0.20225(3)
Br1 Br 0.57123(5) 0.05370(4) 0.32797(3)
Br2 Br 0.52523(5) 0.16770(4) 0.04146(3)
Br3 Br 0.07646(5) 0.32677(4) 0.09555(3)
Cl1 Cl 0.65219(17) 0.65244(12) 0.33714(11)
Cl2 Cl -0.2401(2) 0.31403(19) 0.53093(10)
Cl3 Cl 0.11907(14) -0.34697(9) 0.17982(9)
N1 N 0.4760(4) 0.3600(3) 0.2183(2)
N2 N 0.5836(4) 0.4256(3) 0.1370(2)
H1 H 0.60130 0.40210 0.07600
N3 N 0.1628(4) 0.2055(3) 0.3495(2)
N4 N 0.2031(5) 0.1348(3) 0.4488(2)
H2 H 0.29730 0.07950 0.46210
N5 N 0.1720(4) 0.0183(3) 0.1911(2)
N6 N -0.0090(4) 0.0168(3) 0.1509(3)
H3 H -0.08280 0.08470 0.13400
C1 C 0.4847(5) 0.4294(4) 0.2967(3)
H4 H 0.42300 0.40850 0.36350
C2 C 0.5978(5) 0.5357(4) 0.2640(3)
C3 C 0.6590(5) 0.5312(4) 0.1624(3)
H5 H 0.73840 0.59040 0.11890
C4 C 0.0802(6) 0.1603(4) 0.5238(3)
H6 H 0.08220 0.12350 0.59730
C5 C -0.0480(5) 0.2501(4) 0.4725(3)
C6 C 0.0072(5) 0.2766(4) 0.3643(3)
H7 H -0.05540 0.33550 0.30990
C7 C 0.2355(5) -0.1042(3) 0.2059(3)
H8 H 0.35650 -0.13330 0.23240
C8 C 0.0966(5) -0.1827(3) 0.1762(3)
C9 C -0.0579(5) -0.1020(4) 0.1408(3)
H9 H -0.17390 -0.12580 0.11500
#END
