
#######################################################################
#
#                 Cambridge Crystallographic Data Centre
#                                CCDC
#
#######################################################################
#
# If this CIF has been generated from an entry in the Cambridge
# Structural Database, then it will include bibliographic, chemical,
# crystal, experimental, refinement or atomic coordinate data resulting
# from the CCDC's data processing and validation procedures.
#
#######################################################################

data_CSD_CIF_QEGWOR
_audit_creation_date 2017-09-05
_audit_creation_method CSD-ConQuest-V1
_database_code_CSD QEGWOR
_database_code_depnum_ccdc_archive 'CCDC 1500348'
_chemical_formula_sum 'C14 H12 Cr1 F6 N3 O10'
_chemical_formula_moiety
;
C14 H10 Cr1 F6 N2 O6 1+,N1 O3 1-,H2 O1
;
_journal_coden_Cambridge 119
_journal_volume 1150
_journal_year 2017
_journal_page_first 307
_journal_name_full 'J.Mol.Struct. '
loop_
_publ_author_name
"Jie Chai"
"Yanfei Liu"
"Bin Liu"
"Binsheng Yang"
_chemical_name_systematic
;
diaqua-bis(5-(trifluoromethyl)pyridine-2-carboxylato)-chromium(iii) nitrate 
monohydrate
;
_cell_volume    496.555
_exptl_crystal_colour 'pink'
_exptl_crystal_density_diffrn 1.834
_exptl_crystal_description 'BLOCK'
_diffrn_ambient_temperature 293
#These two values have been output from a single CSD field.
_refine_ls_R_factor_gt 0.0501
_refine_ls_wR_factor_gt 0.0501
_symmetry_cell_setting triclinic
_symmetry_space_group_name_H-M 'P 1'
_symmetry_Int_Tables_number 1
loop_
_symmetry_equiv_pos_site_id
_symmetry_equiv_pos_as_xyz
1 x,y,z
_cell_length_a 6.244
_cell_length_b 8.406
_cell_length_c 9.575
_cell_angle_alpha 82.21
_cell_angle_beta 89.11
_cell_angle_gamma 85.76
_cell_formula_units_Z 1
loop_
_atom_type_symbol
_atom_type_radius_bond
C 0.68
H 0.23
Cr 1.39
F 0.64
N 0.68
O 0.68
loop_
_atom_site_label
_atom_site_type_symbol
_atom_site_fract_x
_atom_site_fract_y
_atom_site_fract_z
C1 C 0.7275(12) 0.5058(9) 0.7946(8)
C2 C 0.5733(14) 0.5802(9) 0.8964(8)
C3 C 0.6021(13) 0.7213(8) 0.9494(9)
H1 H 0.71730 0.78250 0.92140
C4 C 0.4538(16) 0.7669(9) 1.0449(8)
H2 H 0.47070 0.86060 1.08390
C5 C 0.2828(15) 0.6814(11) 1.0852(9)
C6 C 0.2525(13) 0.5440(9) 1.0216(8)
H3 H 0.13330 0.48500 1.04350
C7 C 0.1269(19) 0.7183(12) 1.1955(10)
C8 C 0.0758(14) 0.0855(10) 0.8578(9)
C9 C 0.2329(13) 0.0154(9) 0.7591(8)
C10 C 0.1926(14) -0.1195(11) 0.6979(8)
H4 H 0.06850 -0.17240 0.72060
C11 C 0.3428(14) -0.1759(11) 0.6003(9)
H5 H 0.32330 -0.26840 0.55990
C12 C 0.5198(15) -0.0877(9) 0.5674(9)
C13 C 0.5455(14) 0.0511(10) 0.6301(9)
H6 H 0.66400 0.10960 0.60460
C14 C 0.6764(15) -0.1424(12) 0.4556(10)
Cr1 Cr 0.4052(2) 0.29641(19) 0.82522(17)
F1 F -0.0531(13) 0.6690(13) 1.1865(9)
F2 F 0.0945(17) 0.8821(10) 1.1909(10)
F3 F 0.2008(13) 0.6799(12) 1.3206(6)
F4 F 0.6176(13) -0.0654(9) 0.3291(7)
F5 F 0.8708(10) -0.0982(13) 0.4720(8)
F6 F 0.6833(15) -0.2902(9) 0.4503(10)
N1 N 0.4043(11) 0.4989(7) 0.9260(7)
N2 N 0.4121(11) 0.1012(8) 0.7218(7)
O1 O 0.2493(8) 0.4266(7) 0.6656(6)
H7 H 0.13460 0.46480 0.69390
H8 H 0.27080 0.37840 0.59370
O2 O 0.5625(10) 0.1672(6) 0.9880(6)
H9 H 0.54730 0.21400 1.05760
H10 H 0.69300 0.15600 0.95170
O3 O 0.6816(9) 0.3765(7) 0.7552(6)
O4 O 0.9017(10) 0.5688(7) 0.7615(7)
O5 O 0.1416(9) 0.2143(6) 0.9025(6)
O6 O -0.0844(9) 0.0193(8) 0.8890(7)
N3 N 0.7058(13) 0.3123(8) 0.2665(7)
O7 O 0.5614(15) 0.3109(10) 0.2142(9)
O8 O 0.8668(15) 0.3155(13) 0.1835(9)
O9 O 0.7463(14) 0.3246(10) 0.3918(6)
O10 O 0.244(2) 0.2996(11) 0.4331(9)
#END
