
#######################################################################
#
#                 Cambridge Crystallographic Data Centre
#                                CCDC
#
#######################################################################
#
# If this CIF has been generated from an entry in the Cambridge
# Structural Database, then it will include bibliographic, chemical,
# crystal, experimental, refinement or atomic coordinate data resulting
# from the CCDC's data processing and validation procedures.
#
#######################################################################

data_CSD_CIF_QEMNAY
_audit_creation_date 2007-01-05
_audit_creation_method CSD-ConQuest-V1
_database_code_CSD QEMNAY
_database_code_depnum_ccdc_archive 'CCDC 253223'
_chemical_formula_sum 'C15 H10 Cr1 O3'
_chemical_formula_moiety
;
C15 H10 Cr1 O3
;
_journal_coden_Cambridge 316
_journal_volume 324
_journal_year 2006
_journal_page_first 667
_journal_name_full 'Chem.Phys. '
loop_
_publ_author_name
"Xiaohui Tian"
"Wei Ru"
"Juhua Zhong"
"Jiaping Lin"
"Chenyan Li"
"Xili Luo"
_chemical_name_systematic
;
(\h^6^-Acenaphthene)-tricarbonyl-chromium
;
_chemical_melting_point 413.15
_cell_volume    625.980
_exptl_crystal_colour 'deep red-orange'
_exptl_crystal_density_diffrn 1.54
_exptl_special_details
;
Melting point range 413.15-415.15K

;
_exptl_crystal_preparation 'dichloromethane/hexane'
_diffrn_ambient_temperature 293
#These two values have been output from a single CSD field.
_refine_ls_R_factor_gt 0.0517
_refine_ls_wR_factor_gt 0.0517
_symmetry_cell_setting monoclinic
_symmetry_space_group_name_H-M 'P 21'
_symmetry_Int_Tables_number 4
loop_
_symmetry_equiv_pos_site_id
_symmetry_equiv_pos_as_xyz
1 x,y,z
2 -x,1/2+y,-z
_cell_length_a 6.5012(8)
_cell_length_b 12.5969(16)
_cell_length_c 7.6482(10)
_cell_angle_alpha 90
_cell_angle_beta 91.968(3)
_cell_angle_gamma 90
_cell_formula_units_Z 2
loop_
_atom_type_symbol
_atom_type_radius_bond
C 0.68
H 0.23
Cr 1.35
O 0.68
loop_
_atom_site_label
_atom_site_type_symbol
_atom_site_fract_x
_atom_site_fract_y
_atom_site_fract_z
Cr1 Cr 0.09893(14) 0.2344(5) 0.49814(12)
O1 O -0.1018(7) 0.224(2) 0.8374(6)
O2 O 0.3955(17) 0.3968(7) 0.6361(16)
O3 O 0.3940(17) 0.0726(8) 0.6293(15)
C1 C -0.0222(9) 0.234(2) 0.7041(9)
C2 C 0.2850(19) 0.3296(12) 0.5834(15)
C3 C 0.270(2) 0.1329(10) 0.573(2)
C4 C -0.0288(17) 0.3584(15) 0.2944(19)
H1 H -0.03700 0.43180 0.30610
C5 C -0.180(2) 0.2894(18) 0.360(2)
H2 H -0.29520 0.32500 0.39790
C6 C -0.192(3) 0.183(2) 0.380(3)
H3 H -0.28960 0.14470 0.44020
C7 C -0.018(3) 0.1405(13) 0.285(3)
C8 C 0.1329(13) 0.2102(13) 0.2153(13)
C9 C 0.121(3) 0.3125(16) 0.217(3)
C10 C 0.276(4) 0.3891(19) 0.143(3)
H4 H 0.27350 0.46260 0.15280
C11 C 0.422(4) 0.331(2) 0.058(4)
H5 H 0.52220 0.36820 0.00020
C12 C 0.4326(17) 0.216(2) 0.0510(16)
H6 H 0.54240 0.18280 -0.00210
C13 C 0.2907(16) 0.1586(11) 0.1182(14)
C14 C 0.253(2) 0.0526(12) 0.133(2)
H7 H 0.35980 0.01870 0.20430
H8 H 0.24780 0.01940 0.01840
C15 C 0.045(2) 0.0420(11) 0.2188(17)
H9 H -0.05760 0.01630 0.13350
H10 H 0.05550 -0.00920 0.31340
#END
