
#######################################################################
#
#                 Cambridge Crystallographic Data Centre
#                                CCDC
#
#######################################################################
#
# If this CIF has been generated from an entry in the Cambridge
# Structural Database, then it will include bibliographic, chemical,
# crystal, experimental, refinement or atomic coordinate data resulting
# from the CCDC's data processing and validation procedures.
#
#######################################################################

data_CSD_CIF_QEMWEN
_audit_creation_date 2018-01-13
_audit_creation_method CSD-ConQuest-V1
_database_code_CSD QEMWEN
_database_code_depnum_ccdc_archive 'CCDC 1812398'
_chemical_formula_sum 'C22 H24 Mn1 N10 O4'
_chemical_formula_moiety
;
C22 H24 Mn1 N10 O4
;
_journal_coeditor_code "yf3129"
_journal_coden_Cambridge 1777
_journal_volume 74
_journal_year 2018
_journal_page_first 139
_journal_name_full 'Acta Crystallogr.,Sect.C:Cryst.Struct.Chem. '
loop_
_publ_author_name
"X.-Y.Lin"
"Q.-Q.Zheng"
"L.-Z.Gong"
"Y.-M.Liu"
"M.-Y.Liu"
"X.-Z.Liu"
_chemical_name_systematic
;
bis(methanol)-bis[3-phenyl-N-(1H-tetrazol-5-yl)prop-2-enamidato]-manganese(ii)
;
_cell_volume    613.405
_exptl_crystal_colour 'colorless'
_exptl_crystal_density_diffrn 1.482
_exptl_crystal_description 'block'
_diffrn_ambient_temperature 293
#These two values have been output from a single CSD field.
_refine_ls_R_factor_gt 0.055
_refine_ls_wR_factor_gt 0.055
_symmetry_cell_setting triclinic
_symmetry_space_group_name_H-M 'P -1'
_symmetry_Int_Tables_number 2
loop_
_symmetry_equiv_pos_site_id
_symmetry_equiv_pos_as_xyz
1 x,y,z
2 -x,-y,-z
_cell_length_a 5.9328(12)
_cell_length_b 10.245(2)
_cell_length_c 10.853(2)
_cell_angle_alpha 105.33(3)
_cell_angle_beta 103.20(3)
_cell_angle_gamma 94.00(3)
_cell_formula_units_Z 1
loop_
_atom_type_symbol
_atom_type_radius_bond
C 0.68
H 0.23
Mn 1.61
N 0.68
O 0.68
loop_
_atom_site_label
_atom_site_type_symbol
_atom_site_fract_x
_atom_site_fract_y
_atom_site_fract_z
Mn1 Mn 1.00000 0.50000 0.50000
O1 O 0.8453(4) 0.4037(2) 0.6214(2)
O2 O 0.6896(4) 0.3986(2) 0.3315(2)
H1 H 0.572(4) 0.369(4) 0.351(4)
N1 N 1.3099(5) 0.2705(3) 0.3871(3)
N2 N 1.1742(5) 0.0904(3) 0.4302(3)
N3 N 1.1535(4) 0.3104(2) 0.4585(3)
N4 N 0.9138(5) 0.1828(2) 0.5528(3)
H2 H 0.87230 0.10130 0.55410
N5 N 1.3223(5) 0.1407(3) 0.3703(3)
C1 C 0.7089(8) 0.3000(4) 0.2171(4)
H3 H 0.55700 0.26900 0.15680
H4 H 0.81020 0.34000 0.17550
H5 H 0.77250 0.22400 0.24130
C2 C 1.0766(5) 0.1965(3) 0.4818(3)
C3 C 0.5350(6) 0.3112(3) 0.7578(3)
H6 H 0.54340 0.40190 0.75670
C4 C 0.3852(6) 0.2679(3) 0.8341(3)
C5 C 0.8115(5) 0.2815(3) 0.6190(3)
C6 C 0.1333(7) 0.3244(5) 0.9799(4)
H7 H 0.05840 0.38910 1.02700
C7 C 0.6586(6) 0.2326(3) 0.6907(3)
H8 H 0.64830 0.14100 0.68870
C8 C 0.2713(6) 0.3610(4) 0.9041(4)
H9 H 0.28720 0.45080 0.90060
C9 C 0.3548(8) 0.1346(4) 0.8402(5)
H10 H 0.42920 0.06910 0.79350
C10 C 0.2163(10) 0.0986(4) 0.9142(5)
H11 H 0.19560 0.00840 0.91620
C11 C 0.1081(9) 0.1933(5) 0.9850(5)
H12 H 0.01730 0.16820 1.03670
O1A O 1.1547(4) 0.5963(2) 0.3786(2)
O2A O 1.3104(4) 0.6014(2) 0.6685(2)
H1A H 1.428(4) 0.631(4) 0.649(4)
N1A N 0.6901(5) 0.7295(3) 0.6129(3)
N2A N 0.8258(5) 0.9096(3) 0.5698(3)
N3A N 0.8465(4) 0.6896(2) 0.5415(3)
N4A N 1.0862(5) 0.8172(2) 0.4472(3)
H2A H 1.12770 0.89870 0.44590
N5A N 0.6777(5) 0.8593(3) 0.6297(3)
C1A C 1.2911(8) 0.7000(4) 0.7829(4)
H3A H 1.44300 0.73100 0.84320
H4A H 1.18980 0.66000 0.82450
H5A H 1.22750 0.77600 0.75870
C2A C 0.9234(5) 0.8035(3) 0.5182(3)
C3A C 1.4650(6) 0.6888(3) 0.2422(3)
H6A H 1.45660 0.59810 0.24330
C4A C 1.6148(6) 0.7321(3) 0.1659(3)
C5A C 1.1885(5) 0.7185(3) 0.3810(3)
C6A C 1.8667(7) 0.6756(5) 0.0201(4)
H7A H 1.94160 0.61090 -0.02700
C7A C 1.3414(6) 0.7674(3) 0.3093(3)
H8A H 1.35170 0.85900 0.31130
C8A C 1.7287(6) 0.6390(4) 0.0959(4)
H9A H 1.71280 0.54920 0.09940
C9A C 1.6452(8) 0.8654(4) 0.1598(5)
H10A H 1.57080 0.93090 0.20650
C10A C 1.7837(10) 0.9014(4) 0.0858(5)
H11A H 1.80440 0.99160 0.08380
C11A C 1.8919(9) 0.8067(5) 0.0150(5)
H12A H 1.98270 0.83180 -0.03670
#END
