
#######################################################################
#
#                 Cambridge Crystallographic Data Centre
#                                CCDC
#
#######################################################################
#
# If this CIF has been generated from an entry in the Cambridge
# Structural Database, then it will include bibliographic, chemical,
# crystal, experimental, refinement or atomic coordinate data resulting
# from the CCDC's data processing and validation procedures.
#
#######################################################################

data_CSD_CIF_QEQTUE
_audit_creation_date 2018-01-17
_audit_creation_method CSD-ConQuest-V1
_database_code_CSD QEQTUE
_database_code_depnum_ccdc_archive 'CCDC 1582325'
_chemical_formula_sum 'C33 H40 Fe1 N5 O3 S1'
_chemical_formula_moiety
;
C32 H38 Fe1 N4 O2 1+,C1 N1 S1 1-,H2 O1
;
_journal_coden_Cambridge 580
_journal_volume 146
_journal_year 2018
_journal_page_first 81
_journal_name_full 'Polyhedron '
loop_
_publ_author_name
"T.Basak"
"K.Ghosh"
"S.Chattopadhyay"
_chemical_name_systematic
;
bis(1-({[3-(amino)-2,2-dimethylpropyl]imino}methyl)naphthalen-2-olato)-iron(ii
i) thiocyanate monohydrate
;
_cell_volume    804.446
_exptl_crystal_colour 'green'
_exptl_crystal_density_diffrn 1.326
_exptl_crystal_description 'BLOCK'
_diffrn_ambient_temperature 296
_diffrn_special_details
;
twin

;
_refine_special_details
;
The SQUEEZE/PLATON program has been used to model some disorder.

;
#These two values have been output from a single CSD field.
_refine_ls_R_factor_gt 0.0684
_refine_ls_wR_factor_gt 0.0684
_symmetry_cell_setting triclinic
_symmetry_space_group_name_H-M 'P 1'
_symmetry_Int_Tables_number 1
loop_
_symmetry_equiv_pos_site_id
_symmetry_equiv_pos_as_xyz
1 x,y,z
_cell_length_a 9.3084(14)
_cell_length_b 9.6506(15)
_cell_length_c 10.2381(15)
_cell_angle_alpha 91.898(8)
_cell_angle_beta 98.651(8)
_cell_angle_gamma 117.041(7)
_cell_formula_units_Z 1
loop_
_atom_type_symbol
_atom_type_radius_bond
C 0.68
H 0.23
Fe 1.52
N 0.68
O 0.68
S 1.02
loop_
_atom_site_label
_atom_site_type_symbol
_atom_site_fract_x
_atom_site_fract_y
_atom_site_fract_z
Fe1 Fe 0.49954(13) 0.45761(13) 0.06801(12)
N1 N 0.7142(9) 0.6425(9) 0.1543(8)
H1 H 0.79190 0.61230 0.16000
H2 H 0.73810 0.71650 0.09970
N2 N 0.2868(9) 0.2730(9) -0.0185(7)
H3 H 0.26410 0.19910 0.03620
H4 H 0.20880 0.30280 -0.02260
N3 N 0.6132(9) 0.346(1) 0.0097(8)
O1 O 0.4892(7) 0.3579(7) 0.2239(7)
O2 O 0.5101(7) 0.5548(8) -0.0880(7)
C1 C 0.0116(12) 0.6146(14) -0.1190(12)
H5 H 0.00290 0.59520 -0.03140
N4 N 0.3768(10) 0.5552(10) 0.1289(9)
C2 C 0.2698(12) 0.1982(12) -0.1528(10)
H6 H 0.27610 0.27100 -0.21750
H7 H 0.16310 0.10660 -0.17610
C3 C 0.4060(14) 0.1488(14) -0.1582(12)
C4 C 0.3781(13) 0.0855(13) -0.3075(10)
H8 H 0.39080 0.16770 -0.36230
H9 H 0.45710 0.05000 -0.31860
H10 H 0.26940 -0.00020 -0.33320
C5 C 0.3863(15) 0.0201(15) -0.0711(13)
H11 H 0.27640 -0.06410 -0.09440
H12 H 0.46280 -0.01780 -0.08400
H13 H 0.40720 0.06060 0.02050
C6 C 0.5773(12) 0.2926(14) -0.1317(10)
H14 H 0.65870 0.26410 -0.15430
H15 H 0.57740 0.37440 -0.18430
C7 C 0.7099(11) 0.3132(12) 0.0867(11)
H16 H 0.77220 0.27570 0.04910
C8 C 0.7290(12) 0.3306(11) 0.2279(10)
C9 C 0.8656(11) 0.3079(11) 0.310(1)
C10 C 0.9902(13) 0.3033(12) 0.2572(11)
H17 H 0.99920 0.32330 0.16980
C11 C 1.0987(14) 0.2701(14) 0.3312(16)
H18 H 1.18070 0.26360 0.29370
C12 C 1.0913(14) 0.2452(13) 0.4625(14)
H19 H 1.16940 0.22400 0.51270
C13 C 0.9758(14) 0.2510(16) 0.5168(14)
H20 H 0.97330 0.23210 0.60510
C14 C 0.8572(12) 0.2841(14) 0.4491(12)
C15 C 0.7284(14) 0.2953(15) 0.5001(12)
H21 H 0.72300 0.28390 0.58930
C16 C 0.6131(14) 0.3222(12) 0.4237(11)
H22 H 0.53170 0.32880 0.46210
C17 C 0.6137(11) 0.3404(11) 0.2862(9)
C18 C 0.3940(12) 0.5799(10) -0.1530(11)
C19 C 0.2629(12) 0.5826(12) -0.0955(10)
C20 C 0.1444(13) 0.6100(13) -0.1712(13)
C21 C -0.1062(13) 0.6473(16) -0.1954(12)
H23 H -0.18810 0.65330 -0.15730
C22 C -0.0993(15) 0.6708(18) -0.3293(15)
H24 H -0.17640 0.69230 -0.38070
C23 C 0.0271(15) 0.6613(16) -0.3851(14)
H25 H 0.03150 0.67300 -0.47440
C24 C 0.1489(13) 0.6332(12) -0.3016(11)
C25 C 0.2773(15) 0.6320(14) -0.3580(13)
H26 H 0.27800 0.64620 -0.44740
C26 C 0.3963(13) 0.6117(14) -0.2896(12)
H27 H 0.48220 0.61790 -0.32930
C27 C 0.2838(10) 0.5984(12) 0.0486(10)
H28 H 0.22730 0.64220 0.08710
C28 C 0.4289(11) 0.6337(10) 0.2683(8)
H29 H 0.42340 0.55660 0.32850
H30 H 0.35090 0.66960 0.28560
C29 C 0.5998(10) 0.7716(12) 0.3003(11)
C30 C 0.6118(13) 0.8937(11) 0.2056(11)
H31 H 0.59230 0.84840 0.11570
H32 H 0.53130 0.92760 0.21500
H33 H 0.71950 0.98180 0.22640
C31 C 0.6304(15) 0.8430(15) 0.4403(13)
H34 H 0.73850 0.93040 0.46120
H35 H 0.55060 0.87800 0.44920
H36 H 0.62180 0.76620 0.50020
C32 C 0.7260(11) 0.7156(13) 0.2884(10)
H37 H 0.83450 0.80430 0.31430
H38 H 0.71600 0.64020 0.35140
S1 S 0.1557(7) 0.8359(8) 0.2631(6)
C33 C 0.0820(12) 0.9091(13) 0.1602(11)
N5 N -0.011(2) 0.9428(18) 0.0595(17)
#END
