
#######################################################################
#
#                 Cambridge Crystallographic Data Centre
#                                CCDC
#
#######################################################################
#
# If this CIF has been generated from an entry in the Cambridge
# Structural Database, then it will include bibliographic, chemical,
# crystal, experimental, refinement or atomic coordinate data resulting
# from the CCDC's data processing and validation procedures.
#
#######################################################################

data_CSD_CIF_QERLOO
_audit_creation_date 2001-05-23
_audit_creation_method CSD-ConQuest-V1
_database_code_CSD QERLOO
_database_code_depnum_ccdc_archive 'CCDC 148835'
_chemical_formula_sum 'C11 H11 B1 F4 Fe1 O5'
_chemical_formula_moiety
;
C11 H11 Fe1 O5 1+,B1 F4 1-
;
_journal_coden_Cambridge 36
_journal_volume 617
_journal_year 2001
_journal_page_first 346
_journal_name_full 'J.Organomet.Chem. '
loop_
_publ_author_name
"R.Schobert"
_chemical_name_systematic
;
(+-)-E-(\h^3^-3-(Methoxycarbonyl)-2,5-hexadiene-O)-tricarbonyl-iron(ii) 
tetrafluoroborate
;
_cell_volume    720.099
_exptl_crystal_colour 'yellow'
_exptl_crystal_density_diffrn 1.687
_exptl_crystal_preparation 'dichloromethane'
_diffrn_ambient_temperature 153
#These two values have been output from a single CSD field.
_refine_ls_R_factor_gt 0.0448
_refine_ls_wR_factor_gt 0.0448
_symmetry_cell_setting triclinic
_symmetry_space_group_name_H-M 'P -1'
_symmetry_Int_Tables_number 2
loop_
_symmetry_equiv_pos_site_id
_symmetry_equiv_pos_as_xyz
1 x,y,z
2 -x,-y,-z
_cell_length_a 7.9287(17)
_cell_length_b 9.322(2)
_cell_length_c 10.237(2)
_cell_angle_alpha 107.329(3)
_cell_angle_beta 93.870(3)
_cell_angle_gamma 90.963(4)
_cell_formula_units_Z 2
loop_
_atom_type_symbol
_atom_type_radius_bond
C 0.68
H 0.23
B 0.83
F 0.64
Fe 1.34
O 0.68
loop_
_atom_site_label
_atom_site_type_symbol
_atom_site_fract_x
_atom_site_fract_y
_atom_site_fract_z
Fe1 Fe 0.70741(4) 0.18843(3) -0.16274(3)
C1 C 0.7597(3) 0.0704(3) -0.3693(3)
H1 H 0.826(4) -0.016(4) -0.394(3)
H2 H 0.793(4) 0.150(4) -0.401(3)
C2 C 0.5919(3) 0.0438(3) -0.3444(2)
H3 H 0.559(4) -0.056(4) -0.337(4)
C3 C 0.4743(3) 0.1566(3) -0.2936(2)
H4 H 0.375(4) 0.123(4) -0.260(3)
C4 C 0.4581(3) 0.3014(3) -0.3253(2)
C5 C 0.6140(3) 0.3963(3) -0.3002(2)
O1 O 0.7351(2) 0.36953(18) -0.22859(16)
O2 O 0.6168(2) 0.51040(19) -0.34910(17)
C6 C 0.7687(4) 0.6083(3) -0.3126(3)
H5 H 0.861(5) 0.556(4) -0.362(4)
H6 H 0.802(5) 0.635(4) -0.211(4)
H7 H 0.742(5) 0.696(4) -0.341(4)
C7 C 0.3122(3) 0.3596(3) -0.3574(2)
H8 H 0.317(4) 0.458(4) -0.370(3)
C8 C 0.1391(3) 0.2894(3) -0.3684(3)
H9 H 0.138(4) 0.193(4) -0.351(3)
H10 H 0.075(5) 0.290(5) -0.465(4)
H11 H 0.072(5) 0.358(4) -0.304(4)
C9 C 0.5989(3) 0.3033(3) -0.0160(2)
O3 O 0.5255(3) 0.3739(2) 0.0686(2)
C10 C 0.6934(3) 0.0296(3) -0.0982(3)
O4 O 0.6871(3) -0.0700(2) -0.0566(2)
C11 C 0.9314(3) 0.2221(3) -0.0977(3)
O5 O 1.0689(3) 0.2467(3) -0.0587(2)
B1 B 0.8061(4) 0.2013(4) 0.2838(3)
F1 F 0.8887(4) 0.0805(3) 0.3017(3)
F2 F 0.8083(4) 0.3062(3) 0.4105(2)
F3 F 0.8756(4) 0.2661(5) 0.1976(3)
F4 F 0.6440(3) 0.1545(3) 0.2292(3)
#END
