
#######################################################################
#
#                 Cambridge Crystallographic Data Centre
#                                CCDC
#
#######################################################################
#
# If this CIF has been generated from an entry in the Cambridge
# Structural Database, then it will include bibliographic, chemical,
# crystal, experimental, refinement or atomic coordinate data resulting
# from the CCDC's data processing and validation procedures.
#
#######################################################################

data_CSD_CIF_QETLAC
_audit_creation_date 2001-06-22
_audit_creation_method CSD-ConQuest-V1
_database_code_CSD QETLAC
_database_code_depnum_ccdc_archive 'CCDC 147065'
_chemical_formula_sum 'C4 H12 Cl2 Mn1 N8 O10 S2'
_chemical_formula_moiety
;
C4 H12 Mn1 N8 O2 S2 2+,2(Cl1 O4 1-)
;
_journal_coden_Cambridge 155
_journal_volume 311
_journal_year 2000
_journal_page_first 95
_journal_name_full 'Inorg.Chim.Acta '
loop_
_publ_author_name
"R.M.McCarrick"
"M.J.Eltzroth"
"P.J.Squattrito"
_chemical_name_systematic
;
cis-\D-Diaqua-bis(4-amino-1,2,4-triazole-5-thione)-manganese(ii) diperchlorate
;
_cell_volume    841.585
_exptl_crystal_colour 'colorless'
_exptl_crystal_density_diffrn 2.06
_exptl_special_details
;
Absolute configuration
isostructural with the zinc analogue

;
_exptl_crystal_description 'block'
_diffrn_ambient_temperature ?
_diffrn_special_details
;
The study was carried out at room temperature,in the range 283-303K

;
#These two values have been output from a single CSD field.
_refine_ls_R_factor_gt 0.019
_refine_ls_wR_factor_gt 0.019
_symmetry_cell_setting monoclinic
_symmetry_space_group_name_H-M 'C 2'
_symmetry_Int_Tables_number 5
loop_
_symmetry_equiv_pos_site_id
_symmetry_equiv_pos_as_xyz
1 x,y,z
2 -x,y,-z
3 1/2+x,1/2+y,z
4 1/2-x,1/2+y,-z
_cell_length_a 17.035(1)
_cell_length_b 9.101(2)
_cell_length_c 5.496(4)
_cell_angle_alpha 90
_cell_angle_beta 99.00(2)
_cell_angle_gamma 90
_cell_formula_units_Z 2
loop_
_atom_type_symbol
_atom_type_radius_bond
C 0.68
H 0.23
Cl 0.99
Mn 1.35
N 0.68
O 0.68
S 1.02
loop_
_atom_site_label
_atom_site_type_symbol
_atom_site_fract_x
_atom_site_fract_y
_atom_site_fract_z
Mn1 Mn 0.00000 -0.27290 0.50000
Cl1 Cl 0.10423(2) 0.2288(1) 0.75748(8)
S1 S 0.12563(3) -0.2800(1) 0.82909(8)
O1 O 0.0526(1) -0.1080(2) 0.2933(4)
O2 O 0.18740(9) 0.2469(3) 0.8558(3)
O3 O 0.09440(9) 0.2181(3) 0.4938(2)
O4 O 0.0622(1) 0.3547(3) 0.8256(4)
O5 O 0.0763(2) 0.0969(3) 0.8603(4)
N1 N 0.0760(1) -0.4524(3) 0.3257(4)
N2 N 0.15501(10) -0.4632(2) 0.4539(3)
N3 N 0.2543(1) -0.4351(2) 0.7312(4)
N4 N 0.2797(2) -0.5259(3) 0.5590(5)
C1 C 0.1789(1) -0.3940(3) 0.6733(4)
C2 C 0.2176(2) -0.5414(3) 0.3918(5)
H1 H 0.082(1) -0.409(3) 0.168(4)
H2 H 0.056(1) -0.536(3) 0.339(4)
H3 H 0.287(1) -0.409(3) 0.855(5)
H4 H 0.217(2) -0.585(3) 0.242(5)
H5 H 0.02850 -0.02810 0.25490
H6 H 0.095(2) -0.086(3) 0.346(5)
S1A S -0.12563(3) -0.2800(1) 0.17091(8)
C1A C -0.1789(1) -0.3940(3) 0.3267(4)
N2A N -0.15501(10) -0.4632(2) 0.5461(3)
N1A N -0.0760(1) -0.4524(3) 0.6743(4)
O1A O -0.0526(1) -0.1080(2) 0.7067(4)
H5A H -0.02850 -0.02810 0.74510
H6A H -0.095(2) -0.086(3) 0.654(5)
H1A H -0.082(1) -0.409(3) 0.832(4)
H2A H -0.056(1) -0.536(3) 0.661(4)
C2A C -0.2176(2) -0.5414(3) 0.6082(5)
N4A N -0.2797(2) -0.5259(3) 0.4410(5)
N3A N -0.2543(1) -0.4351(2) 0.2688(4)
H3A H -0.287(1) -0.409(3) 0.145(5)
H4A H -0.217(2) -0.585(3) 0.758(5)
#END
