
#######################################################################
#
#                 Cambridge Crystallographic Data Centre
#                                CCDC
#
#######################################################################
#
# If this CIF has been generated from an entry in the Cambridge
# Structural Database, then it will include bibliographic, chemical,
# crystal, experimental, refinement or atomic coordinate data resulting
# from the CCDC's data processing and validation procedures.
#
#######################################################################

data_CSD_CIF_QIFDAK
_audit_creation_date 2001-06-05
_audit_creation_method CSD-ConQuest-V1
_database_code_CSD QIFDAK
_database_code_depnum_ccdc_archive 'CCDC 147133'
_chemical_formula_sum 'C14 H12 B1 Mn1 O4'
_chemical_formula_moiety
;
C14 H12 B1 Mn1 O4
;
_journal_coden_Cambridge 4
_journal_volume 122
_journal_year 2000
_journal_page_first 9435
_journal_name_full 'J.Am.Chem.Soc. '
loop_
_publ_author_name
"S.Schlecht"
"J.F.Hartwig"
_chemical_name_systematic
;
Dicarbonyl-(catecholborane-B,H)-(\h^5^-methylcyclopentadienyl)-manganese
;
_cell_volume    655.109
_exptl_crystal_colour 'yellow'
_exptl_crystal_density_diffrn 1.571
_exptl_crystal_preparation 'pentane'
_diffrn_ambient_temperature 183.15
#These two values have been output from a single CSD field.
_refine_ls_R_factor_gt 0.03
_refine_ls_wR_factor_gt 0.03
_symmetry_cell_setting triclinic
_symmetry_space_group_name_H-M 'P -1'
_symmetry_Int_Tables_number 2
loop_
_symmetry_equiv_pos_site_id
_symmetry_equiv_pos_as_xyz
1 x,y,z
2 -x,-y,-z
_cell_length_a 7.7712(4)
_cell_length_b 9.5508(4)
_cell_length_c 9.7226(4)
_cell_angle_alpha 101.005(3)
_cell_angle_beta 108.881(2)
_cell_angle_gamma 97.727(2)
_cell_formula_units_Z 2
loop_
_atom_type_symbol
_atom_type_radius_bond
C 0.68
H 0.23
B 0.83
Mn 1.35
O 0.68
loop_
_atom_site_label
_atom_site_type_symbol
_atom_site_fract_x
_atom_site_fract_y
_atom_site_fract_z
Mn1 Mn 0.11546(3) 0.23478(2) 0.21183(2)
O1 O 0.1063(2) -0.0554(1) 0.2720(2)
O2 O 0.5213(2) 0.3118(1) 0.3546(1)
O3 O 0.3250(2) 0.1323(1) -0.0056(1)
O4 O 0.2208(1) 0.3438(1) -0.0323(1)
C1 C 0.1116(2) 0.0571(2) 0.2459(2)
C2 C 0.3617(2) 0.2799(2) 0.2962(2)
C3 C 0.3863(2) 0.1877(2) -0.1068(2)
C4 C 0.4890(2) 0.1308(2) -0.1863(2)
C5 C 0.5306(2) 0.2099(2) -0.2831(2)
C6 C 0.4731(2) 0.3398(2) -0.2950(2)
C7 C 0.3686(2) 0.3965(2) -0.2137(2)
C8 C 0.3254(2) 0.3158(2) -0.1213(2)
C9 C -0.0478(2) 0.2825(2) 0.3496(2)
C10 C -0.1630(2) 0.2451(2) 0.1945(2)
C11 C -0.0988(2) 0.3484(2) 0.1258(2)
C12 C 0.0570(2) 0.4492(2) 0.2357(2)
C13 C 0.0894(2) 0.4078(2) 0.3736(2)
C14 C -0.0719(3) 0.2053(2) 0.4658(2)
B1 B 0.2196(2) 0.2292(2) 0.0390(2)
H1 H 0.068(2) 0.158(2) 0.043(2)
H2 H 0.534(3) 0.040(2) -0.175(2)
H3 H 0.589(2) 0.173(2) -0.340(2)
H4 H 0.503(3) 0.390(2) -0.357(2)
H5 H 0.328(3) 0.484(2) -0.226(2)
H6 H -0.257(3) 0.170(2) 0.145(2)
H7 H -0.151(2) 0.350(2) 0.017(2)
H8 H 0.120(3) 0.534(2) 0.213(2)
H9 H 0.177(2) 0.458(2) 0.465(2)
H10 H -0.130(3) 0.097(2) 0.429(2)
H11 H -0.135(3) 0.251(2) 0.513(3)
H12 H 0.059(3) 0.208(2) 0.545(2)
#END
