
#######################################################################
#
#                 Cambridge Crystallographic Data Centre
#                                CCDC
#
#######################################################################
#
# If this CIF has been generated from an entry in the Cambridge
# Structural Database, then it will include bibliographic, chemical,
# crystal, experimental, refinement or atomic coordinate data resulting
# from the CCDC's data processing and validation procedures.
#
#######################################################################

data_CSD_CIF_QIFDIS
_audit_creation_date 2001-06-05
_audit_creation_method CSD-ConQuest-V1
_database_code_CSD QIFDIS
_database_code_depnum_ccdc_archive 'CCDC 147135'
_chemical_formula_sum 'C20 H30 B1 Mn1 O2'
_chemical_formula_moiety
;
C20 H30 B1 Mn1 O2
;
_journal_coden_Cambridge 4
_journal_volume 122
_journal_year 2000
_journal_page_first 9435
_journal_name_full 'J.Am.Chem.Soc. '
loop_
_publ_author_name
"S.Schlecht"
"J.F.Hartwig"
_chemical_name_systematic
;
Dicarbonyl-(\h^5^-methylcyclopentadienyl)-(dicyclohexylborane-B,H)-manganese
;
_cell_volume    963.757
_exptl_crystal_colour 'red'
_exptl_crystal_density_diffrn 1.269
_exptl_crystal_preparation 'pentane/toluene'
_diffrn_ambient_temperature 183.15
#These two values have been output from a single CSD field.
_refine_ls_R_factor_gt 0.037
_refine_ls_wR_factor_gt 0.037
_symmetry_cell_setting triclinic
_symmetry_space_group_name_H-M 'P -1'
_symmetry_Int_Tables_number 2
loop_
_symmetry_equiv_pos_site_id
_symmetry_equiv_pos_as_xyz
1 x,y,z
2 -x,-y,-z
_cell_length_a 6.7421(3)
_cell_length_b 9.3350(3)
_cell_length_c 16.1767(5)
_cell_angle_alpha 95.464(3)
_cell_angle_beta 90.115(2)
_cell_angle_gamma 107.928(2)
_cell_formula_units_Z 2
loop_
_atom_type_symbol
_atom_type_radius_bond
C 0.68
H 0.23
B 0.83
Mn 1.35
O 0.68
loop_
_atom_site_label
_atom_site_type_symbol
_atom_site_fract_x
_atom_site_fract_y
_atom_site_fract_z
Mn1 Mn 0.21380(5) 0.34920(4) 0.13825(2)
O1 O 0.3503(3) 0.6203(2) 0.0490(1)
O2 O 0.6323(3) 0.3795(2) 0.2039(1)
C1 C 0.2968(4) 0.5162(3) 0.0873(1)
C2 C 0.4673(4) 0.3739(3) 0.1803(1)
C3 C 0.0915(4) 0.2246(3) 0.0202(1)
C4 C 0.2142(4) 0.1519(3) 0.0595(2)
C5 C 0.1222(5) 0.1083(3) 0.1364(2)
C6 C -0.0534(4) 0.1557(3) 0.1444(1)
C7 C -0.0725(4) 0.2289(3) 0.0733(1)
C8 C 0.1156(5) 0.2862(4) -0.0646(2)
C9 C 0.1877(3) 0.3300(2) 0.3365(1)
C10 C 0.3679(4) 0.3397(2) 0.3966(1)
C11 C 0.3010(4) 0.2331(3) 0.4646(1)
C12 C 0.1197(4) 0.2619(3) 0.5121(1)
C13 C -0.0622(4) 0.2511(3) 0.4542(2)
C14 C 0.0045(4) 0.3567(3) 0.3862(1)
C15 C 0.3481(3) 0.6209(2) 0.2986(1)
C16 C 0.1957(4) 0.7089(2) 0.2782(1)
C17 C 0.2741(4) 0.8742(3) 0.3124(2)
C18 C 0.4888(4) 0.9523(3) 0.2806(2)
C19 C 0.6416(4) 0.8703(3) 0.3015(2)
C20 C 0.5655(4) 0.7036(2) 0.2688(1)
B1 B 0.2482(4) 0.4461(3) 0.2679(2)
H1 H 0.124(3) 0.425(2) 0.208(1)
H2 H 0.33730 0.13470 0.03850
H3 H 0.17230 0.05610 0.17510
H4 H -0.14480 0.14150 0.18970
H5 H -0.17820 0.27350 0.06320
H6 H 0.07870 0.37690 -0.06130
H7 H 0.25630 0.30670 -0.08060
H8 H 0.02680 0.21340 -0.10460
H9 H 0.14150 0.23050 0.30880
H10 H 0.47430 0.31390 0.36610
H11 H 0.42100 0.44050 0.42210
H12 H 0.25920 0.13140 0.43990
H13 H 0.41570 0.24870 0.50230
H14 H 0.07490 0.18890 0.55080
H15 H 0.16560 0.36040 0.54110
H16 H -0.16710 0.27770 0.48530
H17 H -0.11680 0.15000 0.42920
H18 H 0.04610 0.45820 0.41100
H19 H -0.11110 0.34080 0.34890
H20 H 0.36010 0.62770 0.35750
H21 H 0.06510 0.66300 0.30160
H22 H 0.17830 0.70310 0.21960
H23 H 0.28240 0.88070 0.37140
H24 H 0.17910 0.92360 0.29570
H25 H 0.53730 1.05360 0.30570
H26 H 0.47890 0.95240 0.22200
H27 H 0.77130 0.91670 0.27750
H28 H 0.66020 0.87830 0.36020
H29 H 0.56050 0.69590 0.20980
H30 H 0.66140 0.65620 0.28710
#END
