
#######################################################################
#
#                 Cambridge Crystallographic Data Centre
#                                CCDC
#
#######################################################################
#
# If this CIF has been generated from an entry in the Cambridge
# Structural Database, then it will include bibliographic, chemical,
# crystal, experimental, refinement or atomic coordinate data resulting
# from the CCDC's data processing and validation procedures.
#
#######################################################################

data_CSD_CIF_QIGRAZ
_audit_creation_date 2001-06-05
_audit_creation_method CSD-ConQuest-V1
_database_code_CSD QIGRAZ
_database_code_depnum_ccdc_archive 'CCDC 161278'
_chemical_formula_sum 'C7 H13 Co1 N6'
_chemical_formula_moiety
;
C7 H13 Co1 N6
;
_journal_coden_Cambridge 1147
_journal_volume 1
_journal_year 2001
_journal_page_first 143
_journal_name_full 'Cryst.Growth Des. '
loop_
_publ_author_name
"Hyungphil Chun"
"I.Bernal"
_chemical_name_systematic
;
fac-(Diethylenetriamine-N,N',N'')-tricyano-cobalt(iii)
;
_cell_volume    543.922
_exptl_crystal_colour 'pale brown'
_exptl_crystal_density_diffrn 1.467
_exptl_crystal_description 'prism'
_exptl_crystal_preparation 'water'
_diffrn_ambient_temperature ?
_diffrn_special_details
;
The study was carried out at room temperature,in the range 283-303K

;
#These two values have been output from a single CSD field.
_refine_ls_R_factor_gt 0.0257
_refine_ls_wR_factor_gt 0.0257
_symmetry_cell_setting monoclinic
_symmetry_space_group_name_H-M 'P 21/m'
_symmetry_Int_Tables_number 11
loop_
_symmetry_equiv_pos_site_id
_symmetry_equiv_pos_as_xyz
1 x,y,z
2 x,1/2-y,z
3 -x,-y,-z
4 -x,-1/2+y,-z
_cell_length_a 6.499(3)
_cell_length_b 12.666(4)
_cell_length_c 7.348(3)
_cell_angle_alpha 90
_cell_angle_beta 115.94(3)
_cell_angle_gamma 90
_cell_formula_units_Z 2
loop_
_atom_type_symbol
_atom_type_radius_bond
C 0.68
H 0.23
Co 1.33
N 0.68
loop_
_atom_site_label
_atom_site_type_symbol
_atom_site_fract_x
_atom_site_fract_y
_atom_site_fract_z
Co1 Co 0.87614(6) 0.25000 0.52211(6)
N1 N 0.6943(4) 0.1359(2) 0.5670(3)
H1 H 0.7280(51) 0.0746(22) 0.5174(43)
H2 H 0.5618(45) 0.1462(21) 0.5083(39)
N2 N 1.0527(5) 0.25000 0.8188(4)
H3 H 1.1804(62) 0.25000 0.8424(52)
N3 N 0.5479(5) 0.25000 0.0773(4)
N4 N 1.1897(4) 0.0920(2) 0.4631(4)
C1 C 0.7555(5) 0.1215(2) 0.7841(4)
H4 H 0.7222(49) 0.0527(23) 0.8121(45)
H5 H 0.6557(42) 0.1679(21) 0.8201(38)
C2 C 1.0042(5) 0.1502(2) 0.9000(4)
H6 H 1.0470(42) 0.161(2) 1.0389(42)
H7 H 1.1124(49) 0.0949(23) 0.8848(44)
C3 C 0.6783(5) 0.25000 0.2437(5)
C4 C 1.0681(4) 0.1495(2) 0.4862(3)
N1A N 0.6943(4) 0.3641(2) 0.5670(3)
H1A H 0.7280(51) 0.4254(22) 0.5174(43)
H2A H 0.5618(45) 0.3538(21) 0.5083(39)
C1A C 0.7555(5) 0.3785(2) 0.7841(4)
H4A H 0.7222(49) 0.4473(23) 0.8121(45)
H5A H 0.6557(42) 0.3321(21) 0.8201(38)
C2A C 1.0042(5) 0.3498(2) 0.9000(4)
H6A H 1.0470(42) 0.339(2) 1.0389(42)
H7A H 1.1124(49) 0.4051(23) 0.8848(44)
C4A C 1.0681(4) 0.3505(2) 0.4862(3)
N4A N 1.1897(4) 0.4080(2) 0.4631(4)
#END
