
#######################################################################
#
#                 Cambridge Crystallographic Data Centre
#                                CCDC
#
#######################################################################
#
# If this CIF has been generated from an entry in the Cambridge
# Structural Database, then it will include bibliographic, chemical,
# crystal, experimental, refinement or atomic coordinate data resulting
# from the CCDC's data processing and validation procedures.
#
#######################################################################

data_CSD_CIF_QIGRIH
_audit_creation_date 2001-06-05
_audit_creation_method CSD-ConQuest-V1
_database_code_CSD QIGRIH
_database_code_depnum_ccdc_archive 'CCDC 161280'
_chemical_formula_sum 'C9 H17 Co1 N6'
_chemical_formula_moiety
;
C9 H17 Co1 N6
;
_journal_coden_Cambridge 1147
_journal_volume 1
_journal_year 2001
_journal_page_first 143
_journal_name_full 'Cryst.Growth Des. '
loop_
_publ_author_name
"Hyungphil Chun"
"I.Bernal"
_chemical_name_systematic
;
mer-(N-(2-Aminoethyl)-N'-methylpropane-1,3-diamine-N,N',N'')-tricyano-cobalt(i
ii)
;
_cell_volume    611.925
_exptl_crystal_colour 'yellow'
_exptl_crystal_density_diffrn 1.456
_exptl_crystal_description 'needle'
_exptl_crystal_preparation 'water'
_diffrn_ambient_temperature ?
_diffrn_special_details
;
The study was carried out at room temperature,in the range 283-303K

;
#These two values have been output from a single CSD field.
_refine_ls_R_factor_gt 0.0694
_refine_ls_wR_factor_gt 0.0694
_symmetry_cell_setting triclinic
_symmetry_space_group_name_H-M 'P -1'
_symmetry_Int_Tables_number 2
loop_
_symmetry_equiv_pos_site_id
_symmetry_equiv_pos_as_xyz
1 x,y,z
2 -x,-y,-z
_cell_length_a 6.594(2)
_cell_length_b 7.217(3)
_cell_length_c 14.305(3)
_cell_angle_alpha 77.61(2)
_cell_angle_beta 78.56(2)
_cell_angle_gamma 68.17(3)
_cell_formula_units_Z 2
loop_
_atom_type_symbol
_atom_type_radius_bond
C 0.68
H 0.23
Co 1.33
N 0.68
loop_
_atom_site_label
_atom_site_type_symbol
_atom_site_fract_x
_atom_site_fract_y
_atom_site_fract_z
Co1 Co 0.25843(11) 0.04549(12) 0.28112(5)
N1 N 0.4050(8) -0.0491(7) 0.3976(3)
H1 H 0.5232(8) -0.0101(7) 0.3881(3)
H2 H 0.3119(8) 0.0070(7) 0.4473(3)
N2 N 0.3686(8) -0.2471(7) 0.2679(3)
H3 H 0.2563(8) -0.2938(7) 0.2950(3)
N3 N 0.1006(8) 0.1333(7) 0.1631(3)
H4 H -0.0277(8) 0.1078(7) 0.1831(3)
N4 N 0.6676(9) 0.1065(10) 0.1549(4)
N5 N 0.1308(10) 0.4638(9) 0.3324(5)
N6 N -0.1684(9) 0.0114(10) 0.4003(4)
C1 C 0.4748(11) -0.2691(10) 0.4216(5)
H5 H 0.3535(11) -0.3094(10) 0.4584(5)
H6 H 0.5952(11) -0.3193(10) 0.4602(5)
C2 C 0.5477(11) -0.3535(10) 0.3288(5)
H7 H 0.6829(11) -0.3317(10) 0.2968(5)
H8 H 0.5741(11) -0.4976(10) 0.3411(5)
C3 C 0.4409(11) -0.3077(10) 0.1707(5)
H9 H 0.4800(11) -0.4529(10) 0.1766(5)
H10 H 0.5709(11) -0.2736(10) 0.1414(5)
C4 C 0.2588(12) -0.2017(11) 0.1059(5)
H11 H 0.3027(12) -0.2593(11) 0.0466(5)
H12 H 0.1257(12) -0.2272(11) 0.1382(5)
C5 C 0.2088(10) 0.0223(10) 0.0812(4)
H13 H 0.3454(10) 0.0476(10) 0.0558(4)
H14 H 0.1145(10) 0.0751(10) 0.0305(4)
C6 C 0.0339(12) 0.3523(11) 0.1258(5)
H15 H -0.0371(12) 0.4273(11) 0.1783(5)
H16 H -0.0665(12) 0.3858(11) 0.0795(5)
H17 H 0.1619(12) 0.3860(11) 0.0955(5)
C7 C 0.5168(9) 0.0813(9) 0.2025(4)
C8 C 0.1746(9) 0.3090(9) 0.3103(4)
C9 C -0.0053(9) 0.0226(9) 0.3570(4)
#END
