
#######################################################################
#
#                 Cambridge Crystallographic Data Centre
#                                CCDC
#
#######################################################################
#
# If this CIF has been generated from an entry in the Cambridge
# Structural Database, then it will include bibliographic, chemical,
# crystal, experimental, refinement or atomic coordinate data resulting
# from the CCDC's data processing and validation procedures.
#
#######################################################################

data_CSD_CIF_QIGRON
_audit_creation_date 2001-06-05
_audit_creation_method CSD-ConQuest-V1
_database_code_CSD QIGRON
_database_code_depnum_ccdc_archive 'CCDC 161281'
_chemical_formula_sum 'C5 H15 Cl3 Co1 N3'
_chemical_formula_moiety
;
C5 H15 Cl3 Co1 N3
;
_journal_coden_Cambridge 1147
_journal_volume 1
_journal_year 2001
_journal_page_first 143
_journal_name_full 'Cryst.Growth Des. '
loop_
_publ_author_name
"Hyungphil Chun"
"I.Bernal"
_chemical_name_systematic
;
mer-(N-(2-Aminoethyl)propane-1,3-diamine-N,N',N'')-trichloro-cobalt(iii)
;
_cell_volume   1074.031
_exptl_crystal_colour 'dark brown'
_exptl_crystal_density_diffrn 1.747
_exptl_crystal_description 'irregular'
_exptl_crystal_preparation 'concentrated HCl solution'
_diffrn_ambient_temperature ?
_diffrn_special_details
;
The study was carried out at room temperature,in the range 283-303K

;
#These two values have been output from a single CSD field.
_refine_ls_R_factor_gt 0.069
_refine_ls_wR_factor_gt 0.069
_symmetry_cell_setting orthorhombic
_symmetry_space_group_name_H-M 'P 21 21 21'
_symmetry_Int_Tables_number 19
loop_
_symmetry_equiv_pos_site_id
_symmetry_equiv_pos_as_xyz
1 x,y,z
2 1/2-x,-y,1/2+z
3 -x,1/2+y,1/2-z
4 1/2+x,1/2-y,-z
_cell_length_a 9.057(4)
_cell_length_b 17.702(7)
_cell_length_c 6.699(3)
_cell_angle_alpha 90
_cell_angle_beta 90
_cell_angle_gamma 90
_cell_formula_units_Z 4
loop_
_atom_type_symbol
_atom_type_radius_bond
C 0.68
H 0.23
Cl 0.99
Co 1.33
N 0.68
loop_
_atom_site_label
_atom_site_type_symbol
_atom_site_fract_x
_atom_site_fract_y
_atom_site_fract_z
Co1 Co 0.0947(2) 0.13001(12) 0.0338(3)
Cl1 Cl -0.1318(4) 0.1345(2) -0.1039(6)
Cl2 Cl 0.2000(4) 0.1353(3) -0.2748(6)
Cl3 Cl 0.3223(4) 0.1283(3) 0.1766(6)
N1 N 0.0924(14) 0.2386(7) 0.0523(22)
H1 H 0.1805(14) 0.2571(7) 0.0140(22)
H2 H 0.0230(14) 0.2573(7) -0.0301(22)
N2 N 0.0065(12) 0.1313(8) 0.3037(17)
H3 H 0.0836(12) 0.1254(8) 0.3894(17)
N3 N 0.0970(14) 0.0191(7) 0.0135(21)
H4 H 0.1017(14) 0.0073(7) -0.1171(21)
H5 H 0.1815(14) 0.0028(7) 0.0695(21)
C1 C 0.0601(22) 0.2628(9) 0.2635(33)
H6 H 0.0186(22) 0.3133(9) 0.2658(33)
H7 H 0.1496(22) 0.2625(9) 0.3431(33)
C2 C -0.0518(18) 0.205(1) 0.3445(29)
H8 H -0.0651(18) 0.2118(10) 0.4870(29)
H9 H -0.1466(18) 0.2114(10) 0.2794(29)
C3 C -0.0974(19) 0.0699(9) 0.3524(23)
H10 H -0.1866(19) 0.0773(9) 0.2746(23)
H11 H -0.1243(19) 0.0744(9) 0.4921(23)
C4 C -0.0440(21) -0.0082(10) 0.3171(28)
H12 H -0.1136(21) -0.0436(10) 0.3752(28)
H13 H 0.0500(21) -0.0149(10) 0.3842(28)
C5 C -0.0257(19) -0.0258(10) 0.1019(26)
H14 H -0.1168(19) -0.0147(10) 0.0317(26)
H15 H -0.0051(19) -0.0793(10) 0.0860(26)
#END
