
#######################################################################
#
#                 Cambridge Crystallographic Data Centre
#                                CCDC
#
#######################################################################
#
# If this CIF has been generated from an entry in the Cambridge
# Structural Database, then it will include bibliographic, chemical,
# crystal, experimental, refinement or atomic coordinate data resulting
# from the CCDC's data processing and validation procedures.
#
#######################################################################

data_CSD_CIF_QIHQUT
_audit_creation_date 2001-06-05
_audit_creation_method CSD-ConQuest-V1
_database_code_CSD QIHQUT
_database_code_depnum_ccdc_archive 'CCDC 161364'
_database_code_depnum_ccdc_journal 1267/480
_chemical_formula_sum 'C14 H20 Mn1 N2 O14'
_chemical_formula_moiety
;
C14 H16 Mn1 N2 O12,2(H2 O1)
;
_journal_coden_Cambridge 1267
_journal_volume 216
_journal_year 2001
_journal_page_first 86
_journal_name_full 'Z.Kristallogr.-New Cryst.Struct. '
loop_
_publ_author_name
"O.Kristiansson"
_chemical_name_systematic
;
tetraaquabis(4-nitrobenzoato)manganese(ii) dihydrate
;
_cell_volume    502.179
_exptl_crystal_colour 'colorless'
_exptl_crystal_density_diffrn 1.638
_exptl_special_details
;
isostructural with the Ni and Co analogues

;
_exptl_crystal_description 'plate'
_diffrn_ambient_temperature ?
_diffrn_special_details
;
The study was carried out at room temperature,in the range 283-303K

;
#These two values have been output from a single CSD field.
_refine_ls_R_factor_gt 0.0277
_refine_ls_wR_factor_gt 0.0277
_symmetry_cell_setting triclinic
_symmetry_space_group_name_H-M 'P -1'
_symmetry_Int_Tables_number 2
loop_
_symmetry_equiv_pos_site_id
_symmetry_equiv_pos_as_xyz
1 x,y,z
2 -x,-y,-z
_cell_length_a 7.3302(6)
_cell_length_b 7.3884(6)
_cell_length_c 10.6470(9)
_cell_angle_alpha 92.707(1)
_cell_angle_beta 91.985(2)
_cell_angle_gamma 119.100(1)
_cell_formula_units_Z 1
loop_
_atom_type_symbol
_atom_type_radius_bond
C 0.68
H 0.23
Mn 1.35
N 0.68
O 0.68
loop_
_atom_site_label
_atom_site_type_symbol
_atom_site_fract_x
_atom_site_fract_y
_atom_site_fract_z
Mn1 Mn 0.00000 0.00000 0.00000
C1 C 0.1841(2) 0.1753(2) 0.27500(14)
C2 C 0.3432(2) 0.2114(2) 0.38163(13)
C3 C 0.5356(2) 0.2280(2) 0.35918(14)
H1 H 0.56860 0.21590 0.27670
C4 C 0.6801(2) 0.2626(2) 0.45818(14)
H2 H 0.81000 0.27530 0.44360
C5 C 0.6238(2) 0.2774(2) 0.57868(13)
C6 C 0.4338(2) 0.2592(2) 0.60506(14)
H3 H 0.40080 0.26880 0.68780
C7 C 0.2924(2) 0.2264(2) 0.50497(14)
H4 H 0.16300 0.21430 0.52040
N1 N 0.7746(2) 0.3094(2) 0.68482(12)
O1 O 0.1353(2) 0.2881(2) -0.09484(16)
O2 O 0.2233(2) -0.0648(2) -0.09740(12)
O3 O 0.22222(16) 0.13638(17) 0.16431(9)
O4 O 0.02645(19) 0.1846(2) 0.30254(11)
O5 O 0.7269(2) 0.3248(3) 0.79131(12)
O6 O 0.9397(2) 0.3179(2) 0.66243(11)
H5 H 0.069(3) 0.287(3) -0.1522(19)
H6 H 0.210(4) 0.402(3) -0.064(2)
H7 H 0.161(3) -0.112(3) -0.1702(18)
H8 H 0.256(4) -0.150(3) -0.074(2)
O7 O 0.5836(2) 0.3049(2) 0.03592(13)
H9 H 0.544(3) 0.266(3) -0.0341(17)
H10 H 0.481(3) 0.261(3) 0.0761(19)
O1A O -0.1353(2) -0.2881(2) 0.09484(16)
H5A H -0.069(3) -0.287(3) 0.1522(19)
H6A H -0.210(4) -0.402(3) 0.064(2)
O2A O -0.2233(2) 0.0648(2) 0.09740(12)
H7A H -0.161(3) 0.112(3) 0.1702(18)
H8A H -0.256(4) 0.150(3) 0.074(2)
O3A O -0.22222(16) -0.13638(17) -0.16431(9)
C1A C -0.1841(2) -0.1753(2) -0.27500(14)
C2A C -0.3432(2) -0.2114(2) -0.38163(13)
C3A C -0.5356(2) -0.2280(2) -0.35918(14)
H1A H -0.56860 -0.21590 -0.27670
C4A C -0.6801(2) -0.2626(2) -0.45818(14)
H2A H -0.81000 -0.27530 -0.44360
C5A C -0.6238(2) -0.2774(2) -0.57868(13)
C6A C -0.4338(2) -0.2592(2) -0.60506(14)
H3A H -0.40080 -0.26880 -0.68780
C7A C -0.2924(2) -0.2264(2) -0.50497(14)
H4A H -0.16300 -0.21430 -0.52040
N1A N -0.7746(2) -0.3094(2) -0.68482(12)
O5A O -0.7269(2) -0.3248(3) -0.79131(12)
O6A O -0.9397(2) -0.3179(2) -0.66243(11)
O4A O -0.02645(19) -0.1846(2) -0.30254(11)
#END
