
#######################################################################
#
#                 Cambridge Crystallographic Data Centre
#                                CCDC
#
#######################################################################
#
# If this CIF has been generated from an entry in the Cambridge
# Structural Database, then it will include bibliographic, chemical,
# crystal, experimental, refinement or atomic coordinate data resulting
# from the CCDC's data processing and validation procedures.
#
#######################################################################

data_CSD_CIF_QIJYOA
_audit_creation_date 2018-11-03
_audit_creation_method CSD-ConQuest-V1
_database_code_CSD QIJYOA
_database_code_depnum_ccdc_archive 'CCDC 1057919'
_chemical_formula_sum 'C32 H36 Co1 N2 O6'
_chemical_formula_moiety
;
C32 H36 Co1 N2 O6
;
_journal_coden_Cambridge 155
_journal_volume 486
_journal_year 2019
_journal_page_first 283
_journal_name_full 'Inorg.Chim.Acta '
loop_
_publ_author_name
"P.Rajakannu"
"D.Kaleeswaran"
"S.Banerjee"
"R.J.Butcher"
"R.Murugavel"
_chemical_name_systematic
;
bis((pyridin-2-yl)methanol)-bis(2,4,6-trimethylbenzoato)-cobalt(ii)
;
_cell_volume    747.906
_exptl_crystal_colour 'purple'
_exptl_crystal_density_diffrn 1.34
_exptl_crystal_description 'Prism'
_diffrn_ambient_temperature 150
#These two values have been output from a single CSD field.
_refine_ls_R_factor_gt 0.036
_refine_ls_wR_factor_gt 0.036
_symmetry_cell_setting triclinic
_symmetry_space_group_name_H-M 'P -1'
_symmetry_Int_Tables_number 2
loop_
_symmetry_equiv_pos_site_id
_symmetry_equiv_pos_as_xyz
1 x,y,z
2 -x,-y,-z
_cell_length_a 7.4980(16)
_cell_length_b 8.684(2)
_cell_length_c 11.754(3)
_cell_angle_alpha 86.028(10)
_cell_angle_beta 79.815(8)
_cell_angle_gamma 83.818(1)
_cell_formula_units_Z 1
loop_
_atom_type_symbol
_atom_type_radius_bond
C 0.68
H 0.23
Co 1.26
N 0.68
O 0.68
loop_
_atom_site_label
_atom_site_type_symbol
_atom_site_fract_x
_atom_site_fract_y
_atom_site_fract_z
C1 C 0.8244(3) -0.2187(2) 1.18655(18)
C2 C 0.6632(3) -0.2497(2) 1.27851(18)
C3 C 0.5210(3) -0.3222(2) 1.24988(18)
C4 C 0.5226(3) -0.3683(3) 1.12791(19)
H1 H 0.41150 -0.41710 1.12520
H2 H 0.62930 -0.44180 1.10440
H3 H 0.52790 -0.27590 1.07510
C5 C 0.3742(3) -0.3506(2) 1.3370(2)
H4 H 0.27580 -0.39830 1.31800
C6 C 0.3668(3) -0.3117(3) 1.4500(2)
C7 C 0.2123(4) -0.3523(3) 1.5446(2)
H5 H 0.23130 -0.31580 1.61820
H6 H 0.20840 -0.46510 1.55140
H7 H 0.09700 -0.30250 1.52540
C8 C 0.5088(3) -0.2359(3) 1.4746(2)
H8 H 0.50410 -0.20560 1.55130
C9 C 0.6571(3) -0.2031(3) 1.3909(2)
C10 C 0.8080(4) -0.1191(3) 1.4205(2)
H9 H 0.78060 -0.09570 1.50250
H10 H 0.81770 -0.02220 1.37280
H11 H 0.92340 -0.18490 1.40530
C11 C 1.3154(3) 0.0435(2) 1.12828(19)
H12 H 1.36770 -0.05390 1.09980
C12 C 1.4121(3) 0.1227(3) 1.1906(2)
H13 H 1.52860 0.08060 1.20530
C13 C 1.3358(3) 0.2645(3) 1.23121(19)
H14 H 1.39990 0.32190 1.27390
C14 C 1.1648(3) 0.3225(2) 1.20923(18)
H15 H 1.11020 0.41990 1.23650
C15 C 1.0754(3) 0.2358(2) 1.14692(17)
C16 C 0.8874(3) 0.2892(2) 1.1217(2)
H16 H 0.79570 0.26010 1.18900
H17 H 0.87460 0.40370 1.11060
Co1 Co 1.00000 0.00000 1.00000
N1 N 1.1498(2) 0.09897(19) 1.10624(15)
O1 O 0.83066(19) -0.08041(16) 1.14559(13)
O2 O 0.9402(2) -0.32990(17) 1.15672(14)
O3 O 0.85242(19) 0.22298(16) 1.02113(14)
H18 H 0.914(5) 0.261(4) 0.964(3)
C1A C 1.1756(3) 0.2187(2) 0.81345(18)
C2A C 1.3368(3) 0.2497(2) 0.72149(18)
C3A C 1.4790(3) 0.3222(2) 0.75012(18)
C4A C 1.4774(3) 0.3683(3) 0.87209(19)
H1A H 1.58850 0.41710 0.87480
H2A H 1.37070 0.44180 0.89560
H3A H 1.47210 0.27590 0.92490
C5A C 1.6258(3) 0.3506(2) 0.6630(2)
H4A H 1.72420 0.39830 0.68200
C6A C 1.6332(3) 0.3117(3) 0.5500(2)
C7A C 1.7877(4) 0.3523(3) 0.4554(2)
H5A H 1.76870 0.31580 0.38180
H6A H 1.79160 0.46510 0.44860
H7A H 1.90300 0.30250 0.47460
C8A C 1.4912(3) 0.2359(3) 0.5254(2)
H8A H 1.49590 0.20560 0.44870
C9A C 1.3429(3) 0.2031(3) 0.6091(2)
C10A C 1.1920(4) 0.1191(3) 0.5795(2)
H9A H 1.21940 0.09570 0.49750
H10A H 1.18230 0.02220 0.62720
H11A H 1.07660 0.18490 0.59470
C11A C 0.6846(3) -0.0435(2) 0.87172(19)
H12A H 0.63230 0.05390 0.90020
C12A C 0.5879(3) -0.1227(3) 0.8094(2)
H13A H 0.47140 -0.08060 0.79470
C13A C 0.6642(3) -0.2645(3) 0.76879(19)
H14A H 0.60010 -0.32190 0.72610
C14A C 0.8352(3) -0.3225(2) 0.79077(18)
H15A H 0.88980 -0.41990 0.76350
C15A C 0.9246(3) -0.2358(2) 0.85308(17)
C16A C 1.1126(3) -0.2892(2) 0.8783(2)
H16A H 1.20430 -0.26010 0.81100
H17A H 1.12540 -0.40370 0.88940
N1A N 0.8502(2) -0.09897(19) 0.89376(15)
O1A O 1.16934(19) 0.08041(16) 0.85441(13)
O2A O 1.0598(2) 0.32990(17) 0.84328(14)
O3A O 1.14758(19) -0.22298(16) 0.97887(14)
H18A H 1.086(5) -0.261(4) 1.036(3)
#END
