
#######################################################################
#
#                 Cambridge Crystallographic Data Centre
#                                CCDC
#
#######################################################################
#
# If this CIF has been generated from an entry in the Cambridge
# Structural Database, then it will include bibliographic, chemical,
# crystal, experimental, refinement or atomic coordinate data resulting
# from the CCDC's data processing and validation procedures.
#
#######################################################################

data_CSD_CIF_QIRWEV
_audit_creation_date 2013-10-31
_audit_creation_method CSD-ConQuest-V1
_database_code_CSD QIRWEV
_database_code_depnum_ccdc_archive 'CCDC 924636'
_chemical_formula_sum 'C14 H26 Cl3 Cr1 N4'
_chemical_formula_moiety
;
C14 H26 Cl3 Cr1 N4
;
_journal_coden_Cambridge 29
_journal_volume 639
_journal_year 2013
_journal_page_first 2269
_journal_name_full 'Z.Anorg.Allg.Chem. '
loop_
_publ_author_name
"S.Schaefer"
"A.Beitat"
"J.Becker"
"C.Wuertele"
_chemical_name_systematic
;
Trichloro-(N-(2-(dimethylamino)ethyl)-N',N'-dimethyl-N-((pyridin-2-yl)methyl)e
thane-1,2-diamine)-chromium(iii)
;
_cell_volume    929.579
_exptl_crystal_colour 'green'
_exptl_crystal_density_diffrn 1.46
_exptl_crystal_description 'block'
_diffrn_ambient_temperature 190
#These two values have been output from a single CSD field.
_refine_ls_R_factor_gt 0.0517
_refine_ls_wR_factor_gt 0.0517
_symmetry_cell_setting triclinic
_symmetry_space_group_name_H-M 'P -1'
_symmetry_Int_Tables_number 2
loop_
_symmetry_equiv_pos_site_id
_symmetry_equiv_pos_as_xyz
1 x,y,z
2 -x,-y,-z
_cell_length_a 7.1750(14)
_cell_length_b 8.7870(18)
_cell_length_c 16.225(3)
_cell_angle_alpha 97.88(3)
_cell_angle_beta 93.92(3)
_cell_angle_gamma 112.27(3)
_cell_formula_units_Z 2
loop_
_atom_type_symbol
_atom_type_radius_bond
C 0.68
H 0.23
Cl 0.99
Cr 1.39
N 0.68
loop_
_atom_site_label
_atom_site_type_symbol
_atom_site_fract_x
_atom_site_fract_y
_atom_site_fract_z
C1 C 0.1481(5) 0.7496(4) 0.46893(19)
C2 C 0.0140(6) 0.7064(4) 0.5270(2)
C3 C -0.1874(6) 0.6057(5) 0.5003(2)
C4 C -0.2504(5) 0.5550(4) 0.4148(2)
C5 C -0.1112(5) 0.6006(4) 0.35915(19)
C6 C -0.1708(5) 0.5405(4) 0.2662(2)
C7 C -0.0406(5) 0.5692(5) 0.1307(2)
C8 C -0.2550(6) 0.4796(5) 0.0830(2)
C9 C -0.2783(8) 0.1951(5) 0.0663(3)
C10 C -0.5786(7) 0.2546(7) 0.0681(3)
C11 C -0.0690(5) 0.8096(4) 0.2203(2)
C12 C 0.1229(5) 0.9592(4) 0.2172(2)
C13 C 0.4746(6) 1.1113(5) 0.2747(3)
C14 C 0.2237(7) 1.0593(5) 0.3670(2)
Cl1 Cl 0.23947(13) 0.45884(10) 0.28235(5)
Cl2 Cl 0.56914(12) 0.84981(11) 0.38314(5)
Cl3 Cl 0.43396(12) 0.75516(11) 0.17012(5)
Cr1 Cr 0.27280(7) 0.73599(6) 0.28951(3)
H1 H 0.293(5) 0.823(4) 0.485(2)
H2 H 0.053(6) 0.737(5) 0.577(3)
H3 H -0.268(6) 0.574(5) 0.539(2)
H4 H -0.375(5) 0.501(4) 0.396(2)
H5 H -0.171(5) 0.434(4) 0.251(2)
H6 H -0.301(5) 0.533(4) 0.2513(18)
H7 H 0.018(6) 0.484(5) 0.134(2)
H8 H 0.021(5) 0.646(4) 0.101(2)
H9 H -0.340(6) 0.541(5) 0.098(2)
H10 H -0.256(6) 0.475(5) 0.022(3)
H11 H -0.636(7) 0.332(6) 0.091(3)
H12 H -0.599(6) 0.256(5) 0.013(3)
H13 H -0.637(8) 0.142(7) 0.078(3)
H14 H -0.280(7) 0.178(6) 0.008(3)
H15 H -0.368(8) 0.073(7) 0.074(3)
H16 H -0.131(8) 0.230(6) 0.083(3)
H17 H -0.183(6) 0.791(5) 0.176(2)
H18 H -0.133(5) 0.829(4) 0.269(2)
H19 H 0.173(5) 0.944(4) 0.170(2)
H20 H 0.098(6) 1.065(5) 0.222(2)
H21 H 0.522(6) 1.070(5) 0.233(3)
H22 H 0.451(6) 1.213(6) 0.269(3)
H23 H 0.570(7) 1.141(5) 0.321(3)
H24 H 0.224(6) 1.163(5) 0.361(2)
H25 H 0.327(6) 1.070(4) 0.416(2)
H26 H 0.103(6) 0.998(5) 0.374(2)
N1 N 0.0875(4) 0.6968(3) 0.38550(16)
N2 N -0.0242(4) 0.6556(3) 0.21951(16)
N3 N 0.2780(4) 0.9841(3) 0.28907(17)
N4 N -0.3649(5) 0.3120(4) 0.10088(18)
#END
