
#######################################################################
#
#                 Cambridge Crystallographic Data Centre
#                                CCDC
#
#######################################################################
#
# If this CIF has been generated from an entry in the Cambridge
# Structural Database, then it will include bibliographic, chemical,
# crystal, experimental, refinement or atomic coordinate data resulting
# from the CCDC's data processing and validation procedures.
#
#######################################################################

data_CSD_CIF_QITFAC
_audit_creation_date 2014-03-18
_audit_creation_method CSD-ConQuest-V1
_database_code_CSD QITFAC
_database_code_depnum_ccdc_archive 'CCDC 921621'
_chemical_formula_sum 'C10 H14 Cl1 Mn1 N1 O6'
_chemical_formula_moiety
;
C10 H12 Cl1 Mn1 N1 O5,H2 O1
;
_journal_coden_Cambridge 923
_journal_volume 44
_journal_year 2014
_journal_page_first 848
_journal_name_full 'Synth.React.Inorg.,Met.-Org.,Nano-Met.Chem. '
loop_
_publ_author_name
"Gang-Hong Pan"
"Jing-Niu Tang"
"Xian-Hong Yin"
"Wen-Jia Xu"
"Zhong-Jing Huang"
_chemical_name_systematic
;
Triaqua-chloro-(quinoline-2-carboxylato)-manganese(ii) monohydrate
;
_cell_volume    664.461
_exptl_crystal_density_diffrn 1.673
_diffrn_ambient_temperature 296
#These two values have been output from a single CSD field.
_refine_ls_R_factor_gt 0.0252
_refine_ls_wR_factor_gt 0.0252
_symmetry_cell_setting triclinic
_symmetry_space_group_name_H-M 'P -1'
_symmetry_Int_Tables_number 2
loop_
_symmetry_equiv_pos_site_id
_symmetry_equiv_pos_as_xyz
1 x,y,z
2 -x,-y,-z
_cell_length_a 6.788(3)
_cell_length_b 8.269(4)
_cell_length_c 12.050(2)
_cell_angle_alpha 81.28
_cell_angle_beta 84.225(1)
_cell_angle_gamma 86.55
_cell_formula_units_Z 2
loop_
_atom_type_symbol
_atom_type_radius_bond
C 0.68
H 0.23
Cl 0.99
Mn 1.61
N 0.68
O 0.68
loop_
_atom_site_label
_atom_site_type_symbol
_atom_site_fract_x
_atom_site_fract_y
_atom_site_fract_z
Mn1 Mn 0.26219(4) 0.17026(3) 0.83419(2)
Cl1 Cl 0.58137(7) 0.29751(5) 0.76586(4)
N1 N 0.2581(2) 0.04453(16) 0.67802(11)
O1 O 0.3206(2) -0.33362(14) 0.85088(11)
O2 O 0.3561(2) -0.08141(14) 0.88542(10)
O3 O 0.29005(19) 0.18734(14) 1.01594(10)
H1 H 0.26910 0.28550 1.02880
H2 H 0.39610 0.14930 1.04420
O4 O 0.11376(19) 0.41063(14) 0.81276(11)
H3 H 0.18780 0.48650 0.82080
H4 H 0.00100 0.42740 0.84770
O5 O -0.0519(2) 0.09610(16) 0.87955(12)
H5 H -0.13890 0.15830 0.84640
H6 H -0.10700 0.00990 0.91250
C1 C 0.2344(2) 0.1131(2) 0.56877(14)
C2 C 0.2017(3) 0.2842(2) 0.54259(15)
H7 H 0.19230 0.34930 0.59960
C3 C 0.1839(3) 0.3544(2) 0.43384(16)
H8 H 0.16340 0.46730 0.41710
C4 C 0.1962(3) 0.2572(3) 0.34652(16)
H9 H 0.18370 0.30660 0.27280
C5 C 0.2259(3) 0.0928(2) 0.36909(15)
H10 H 0.23280 0.03020 0.31080
C6 C 0.2467(2) 0.0147(2) 0.48111(14)
C7 C 0.3031(3) -0.2211(2) 0.61813(15)
H11 H 0.32500 -0.33340 0.63780
C8 C 0.2903(2) -0.11584(19) 0.70055(14)
C9 C 0.3231(3) -0.18324(19) 0.82165(14)
C10 C 0.2826(3) -0.1550(2) 0.50895(15)
H12 H 0.29230 -0.22200 0.45310
O6 O 0.2428(2) 0.50569(15) 0.06558(11)
H13 H 0.33740 0.52110 0.10350
H14 H 0.26670 0.55580 -0.00100
#END
