
#######################################################################
#
#                 Cambridge Crystallographic Data Centre
#                                CCDC
#
#######################################################################
#
# If this CIF has been generated from an entry in the Cambridge
# Structural Database, then it will include bibliographic, chemical,
# crystal, experimental, refinement or atomic coordinate data resulting
# from the CCDC's data processing and validation procedures.
#
#######################################################################

data_CSD_CIF_QIVSOG
_audit_creation_date 2019-03-05
_audit_creation_method CSD-ConQuest-V1
_database_code_CSD QIVSOG
_database_code_depnum_ccdc_archive 'CCDC 1485253'
_chemical_formula_sum 'C13 H14 Cl2 Mn1 N2 O1'
_chemical_formula_moiety
;
C13 H14 Cl2 Mn1 N2 O1
;
_journal_coden_Cambridge 1564
_journal_volume 81
_journal_year 2016
_journal_page_first 1129
_journal_name_full 'ChemPlusChem '
loop_
_publ_author_name
"T.K.Michaelos"
"H.M.C.Lant"
"L.S.Sharninghausen"
"S.M.Craig"
"F.S.Menges"
"B.Q.Mercado"
"G.W.Brudvig"
"R.H.Crabtree"
_chemical_name_systematic
;
(2-(2,2'-bipyridin-6-yl)propan-2-ol)-dichloro-manganese
;
_cell_volume    733.065
_exptl_crystal_colour 'pale yellow'
_exptl_crystal_density_diffrn 1.541
_exptl_crystal_description 'Plate'
_diffrn_ambient_temperature 93
#These two values have been output from a single CSD field.
_refine_ls_R_factor_gt 0.0274
_refine_ls_wR_factor_gt 0.0274
_symmetry_cell_setting triclinic
_symmetry_space_group_name_H-M 'P -1'
_symmetry_Int_Tables_number 2
loop_
_symmetry_equiv_pos_site_id
_symmetry_equiv_pos_as_xyz
1 x,y,z
2 -x,-y,-z
_cell_length_a 8.3926(4)
_cell_length_b 9.1246(4)
_cell_length_c 9.7686(6)
_cell_angle_alpha 92.777(7)
_cell_angle_beta 99.656(7)
_cell_angle_gamma 95.067(7)
_cell_formula_units_Z 2
loop_
_atom_type_symbol
_atom_type_radius_bond
C 0.68
H 0.23
Cl 0.99
Mn 1.61
N 0.68
O 0.68
loop_
_atom_site_label
_atom_site_type_symbol
_atom_site_fract_x
_atom_site_fract_y
_atom_site_fract_z
Mn1 Mn 0.62751(3) 0.26164(3) 0.67829(2)
Cl1 Cl 0.68641(5) 0.20952(4) 0.45318(4)
Cl2 Cl 0.79224(5) 0.16690(4) 0.86728(4)
O1 O 0.40169(14) 0.11930(13) 0.65870(13)
H1 H 0.383(3) 0.0284(13) 0.621(2)
N1 N 0.72569(16) 0.49910(15) 0.70484(14)
N2 N 0.44609(15) 0.38477(14) 0.75948(13)
C1 C 0.8694(2) 0.54948(18) 0.67341(18)
H2 H 0.93030 0.48190 0.63240
C2 C 0.9330(2) 0.69527(19) 0.69790(18)
H3 H 1.03620 0.72690 0.67610
C3 C 0.8424(2) 0.79382(19) 0.75497(19)
H4 H 0.88250 0.89480 0.77260
C4 C 0.6924(2) 0.74416(18) 0.78625(17)
H5 H 0.62750 0.81100 0.82330
C5 C 0.63861(19) 0.59547(17) 0.76253(16)
C6 C 0.48354(19) 0.52926(17) 0.79898(16)
C7 C 0.3845(2) 0.60555(18) 0.87143(16)
H6 H 0.41170 0.70710 0.89930
C8 C 0.2451(2) 0.53054(18) 0.90239(17)
H7 H 0.17630 0.58060 0.95260
C9 C 0.20617(19) 0.38300(18) 0.86027(17)
H8 H 0.11070 0.33070 0.88040
C10 C 0.31080(19) 0.31262(17) 0.78721(16)
C11 C 0.27611(19) 0.15080(17) 0.73703(16)
C12 C 0.2838(2) 0.05364(19) 0.85982(18)
H9 H 0.39120 0.07170 0.91860
H10 H 0.26470 -0.05020 0.82550
H11 H 0.20040 0.07680 0.91450
C13 C 0.1124(2) 0.1238(2) 0.64104(18)
H12 H 0.11100 0.18780 0.56320
H13 H 0.02610 0.14590 0.69290
H14 H 0.09460 0.02040 0.60520
#END
