
#######################################################################
#
#                 Cambridge Crystallographic Data Centre
#                                CCDC
#
#######################################################################
#
# If this CIF has been generated from an entry in the Cambridge
# Structural Database, then it will include bibliographic, chemical,
# crystal, experimental, refinement or atomic coordinate data resulting
# from the CCDC's data processing and validation procedures.
#
#######################################################################

data_CSD_CIF_QIXDIM
_audit_creation_date 2014-03-19
_audit_creation_method CSD-ConQuest-V1
_database_code_CSD QIXDIM
_database_code_depnum_ccdc_archive 'CCDC 972761'
_chemical_formula_sum 'C12 H17 Cl2 Fe1 N3 O1'
_chemical_formula_moiety
;
C12 H17 Cl2 Fe1 N3 O1
;
_journal_coden_Cambridge 222
_journal_volume 43
_journal_year 2014
_journal_page_first 6769
_journal_name_full 'Dalton Trans. '
loop_
_publ_author_name
"M.A.H.Moelands"
"D.J.Schamhart"
"E.Folkertsma"
"M.Lutz"
"A.L.Spek"
"R.J.M.K.Gebbink"
_chemical_name_systematic
;
Dichloro-(1-((6-methylpyridin-2-yl)methyl)prolinamide)-iron(ii)
;
_cell_volume    732.236
_exptl_crystal_colour 'yellow'
_exptl_crystal_density_diffrn 1.569
_exptl_special_details
;
Absolute configuration

;
_exptl_crystal_description 'block'
_diffrn_ambient_temperature 150
#These two values have been output from a single CSD field.
_refine_ls_R_factor_gt 0.0154
_refine_ls_wR_factor_gt 0.0154
_symmetry_cell_setting monoclinic
_symmetry_space_group_name_H-M 'P 21'
_symmetry_Int_Tables_number 4
loop_
_symmetry_equiv_pos_site_id
_symmetry_equiv_pos_as_xyz
1 x,y,z
2 -x,1/2+y,-z
_cell_length_a 8.89008(11)
_cell_length_b 8.19097(10)
_cell_length_c 10.05615(16)
_cell_angle_alpha 90
_cell_angle_beta 90.575(1)
_cell_angle_gamma 90
_cell_formula_units_Z 2
loop_
_atom_type_symbol
_atom_type_radius_bond
C 0.68
H 0.23
Cl 0.99
Fe 1.52
N 0.68
O 0.68
loop_
_atom_site_label
_atom_site_type_symbol
_atom_site_fract_x
_atom_site_fract_y
_atom_site_fract_z
Fe1 Fe 0.729265(18) 0.51369(2) 0.778996(17)
Cl1 Cl 0.79478(4) 0.71686(4) 0.63044(4)
Cl2 Cl 0.81008(4) 0.60103(5) 0.99230(3)
O1 O 0.86888(12) 0.31196(13) 0.81389(12)
N1 N 0.48960(12) 0.54266(13) 0.80305(11)
N2 N 0.63012(13) 0.30897(14) 0.65253(11)
N3 N 0.91635(16) 0.04423(16) 0.79216(16)
H1 H 0.976(2) 0.048(3) 0.851(2)
H2 H 0.895(2) -0.045(3) 0.755(2)
C1 C 0.40762(15) 0.40931(17) 0.77197(13)
C2 C 0.25403(16) 0.40094(19) 0.78994(14)
H3 H 0.19890 0.30700 0.76310
C3 C 0.18238(15) 0.5319(2) 0.84765(14)
H4 H 0.07760 0.52750 0.86510
C4 C 0.26507(16) 0.66992(19) 0.87995(14)
H5 H 0.21720 0.76120 0.91960
C5 C 0.41872(15) 0.67428(17) 0.85401(13)
C6 C 0.49363(16) 0.26232(17) 0.72525(15)
H6 H 0.52240 0.19460 0.80300
H7 H 0.42810 0.19570 0.66650
C7 C 0.73637(16) 0.17058(17) 0.64130(15)
H8 H 0.68030 0.06480 0.64290
C8 C 0.8143(2) 0.1923(3) 0.50656(18)
H9 H 0.92470 0.20050 0.51880
H10 H 0.79180 0.09890 0.44710
C9 C 0.7508(2) 0.3499(2) 0.44885(16)
H11 H 0.81610 0.44400 0.47130
H12 H 0.73970 0.34240 0.35100
C10 C 0.59890(17) 0.36498(19) 0.51481(14)
H13 H 0.56300 0.47940 0.51370
H14 H 0.52300 0.29460 0.47040
C11 C 0.84598(15) 0.17893(17) 0.75717(15)
C12 C 0.50823(17) 0.82674(18) 0.87761(16)
H15 H 0.58860 0.80450 0.94250
H16 H 0.44220 0.91240 0.91200
H17 H 0.55240 0.86300 0.79380
#END
