
#######################################################################
#
#                 Cambridge Crystallographic Data Centre
#                                CCDC
#
#######################################################################
#
# If this CIF has been generated from an entry in the Cambridge
# Structural Database, then it will include bibliographic, chemical,
# crystal, experimental, refinement or atomic coordinate data resulting
# from the CCDC's data processing and validation procedures.
#
#######################################################################

data_CSD_CIF_QIXDEI
_audit_creation_date 2014-03-19
_audit_creation_method CSD-ConQuest-V1
_database_code_CSD QIXDEI
_database_code_depnum_ccdc_archive 'CCDC 972760'
_chemical_formula_sum 'C13 H18 Cl2 Fe1 N4 O1'
_chemical_formula_moiety
;
C13 H18 Cl2 Fe1 N4 O1
;
_journal_coden_Cambridge 222
_journal_volume 43
_journal_year 2014
_journal_page_first 6769
_journal_name_full 'Dalton Trans. '
loop_
_publ_author_name
"M.A.H.Moelands"
"D.J.Schamhart"
"E.Folkertsma"
"M.Lutz"
"A.L.Spek"
"R.J.M.K.Gebbink"
_chemical_name_systematic
;
Acetonitrile-dichloro-(1-((pyridin-2-yl)methyl)prolinamide)-iron(ii)
;
_cell_volume    402.305
_exptl_crystal_colour 'yellow'
_exptl_crystal_density_diffrn 1.54
_exptl_special_details
;
Absolute configuration

;
_exptl_crystal_description 'needle'
_diffrn_ambient_temperature 110
#These two values have been output from a single CSD field.
_refine_ls_R_factor_gt 0.0215
_refine_ls_wR_factor_gt 0.0215
_symmetry_cell_setting triclinic
_symmetry_space_group_name_H-M 'P 1'
_symmetry_Int_Tables_number 1
loop_
_symmetry_equiv_pos_site_id
_symmetry_equiv_pos_as_xyz
1 x,y,z
_cell_length_a 6.8899(1)
_cell_length_b 7.4891(1)
_cell_length_c 9.0561(1)
_cell_angle_alpha 113.7230(8)
_cell_angle_beta 92.0237(7)
_cell_angle_gamma 107.1842(6)
_cell_formula_units_Z 1
loop_
_atom_type_symbol
_atom_type_radius_bond
C 0.68
H 0.23
Cl 0.99
Fe 1.52
N 0.68
O 0.68
loop_
_atom_site_label
_atom_site_type_symbol
_atom_site_fract_x
_atom_site_fract_y
_atom_site_fract_z
Fe1 Fe 0.54923(2) 0.42853(2) 0.51635(2)
Cl1 Cl 0.76063(7) 0.48676(7) 0.76958(5)
Cl2 Cl 0.28145(7) 0.12870(7) 0.49769(6)
O1 O 0.7627(2) 0.7067(2) 0.53037(16)
N1 N 0.3755(2) 0.4437(2) 0.31224(19)
N2 N 0.3883(2) 0.6529(2) 0.63994(18)
N3 N 0.8469(3) 1.0510(3) 0.6284(2)
H1 H 0.818(3) 1.152(4) 0.669(3)
H2 H 0.950(4) 1.061(4) 0.590(3)
N4 N 0.7054(2) 0.2342(2) 0.35141(19)
C1 C 0.2223(3) 0.5200(3) 0.3539(2)
C2 C 0.0951(3) 0.5371(3) 0.2419(2)
H3 H -0.01140 0.59340 0.27510
C3 C 0.1255(3) 0.4710(3) 0.0808(2)
H4 H 0.03840 0.47820 0.00130
C4 C 0.2853(3) 0.3942(3) 0.0379(2)
H5 H 0.31010 0.34810 -0.07150
C5 C 0.4080(3) 0.3860(3) 0.1573(2)
H6 H 0.52020 0.33730 0.12850
C6 C 0.1897(3) 0.5800(3) 0.5284(2)
H7 H 0.12860 0.69150 0.56160
H8 H 0.09200 0.45910 0.53700
C7 C 0.5167(3) 0.8640(3) 0.6626(2)
H9 H 0.43730 0.91000 0.59880
C8 C 0.5470(3) 1.0095(3) 0.8459(2)
H10 H 0.67810 1.02520 0.90640
H11 H 0.54590 1.14810 0.86200
C9 C 0.3609(3) 0.8975(3) 0.9002(2)
H12 H 0.38550 0.94150 1.02000
H13 H 0.23450 0.92060 0.86890
C10 C 0.3472(3) 0.6737(3) 0.8057(2)
H14 H 0.45130 0.64210 0.85990
H15 H 0.20830 0.57850 0.79790
C11 C 0.7205(3) 0.8678(3) 0.6020(2)
C12 C 0.7622(3) 0.1030(3) 0.2786(2)
C13 C 0.8379(5) -0.0647(5) 0.1884(3)
H16 H 0.98790 -0.01790 0.22130
H17 H 0.80400 -0.10630 0.07070
H18 H 0.77280 -0.18310 0.21220
#END
