
#######################################################################
#
#                 Cambridge Crystallographic Data Centre
#                                CCDC
#
#######################################################################
#
# If this CIF has been generated from an entry in the Cambridge
# Structural Database, then it will include bibliographic, chemical,
# crystal, experimental, refinement or atomic coordinate data resulting
# from the CCDC's data processing and validation procedures.
#
#######################################################################

data_CSD_CIF_QOGXUF01
_audit_creation_date 2001-12-11
_audit_creation_method CSD-ConQuest-V1
_database_code_CSD QOGXUF01
_chemical_formula_sum 'C12 H48 Cd2 Mn2 N12 Sn2 Te8'
_chemical_formula_moiety
;
(C6 H24 Mn1 N6 2+)2n,n(Cd2 Sn2 Te8 4-)
;
_journal_coden_Cambridge 1096
_journal_volume 12
_journal_year 2000
_journal_page_first 762
_journal_name_full 'Chem.Mater. '
loop_
_publ_author_name
"Zhen Chen"
"Ru-Ji Wang"
"Jing Li"
_chemical_name_systematic
;
catena-(bis(tris(Ethylenediamine)-manganese) 
bis(\m~3~-tellurido)-tetrakis(\m~2~-tellurido)-bis(tellurido)-di-cadmium-di-ti
n)
;
_cell_volume   1089.725
_exptl_crystal_colour 'dark red'
_exptl_crystal_density_diffrn 2.977
_exptl_crystal_description 'prism'
_diffrn_ambient_temperature 294
#These two values have been output from a single CSD field.
_refine_ls_R_factor_gt 0.0293
_refine_ls_wR_factor_gt 0.0293
_symmetry_cell_setting triclinic
_symmetry_space_group_name_H-M 'P 1'
_symmetry_Int_Tables_number 1
loop_
_symmetry_equiv_pos_site_id
_symmetry_equiv_pos_as_xyz
1 x,y,z
_cell_length_a 9.134(2)
_cell_length_b 10.085(3)
_cell_length_c 12.691(3)
_cell_angle_alpha 73.52(2)
_cell_angle_beta 86.05(2)
_cell_angle_gamma 76.43(2)
_cell_formula_units_Z 1
loop_
_atom_type_symbol
_atom_type_radius_bond
C 0.68
H 0.23
Cd 1.69
Mn 1.35
N 0.68
Sn 1.46
Te 1.47
loop_
_atom_site_label
_atom_site_type_symbol
_atom_site_fract_x
_atom_site_fract_y
_atom_site_fract_z
Sn1 Sn 0.37928(8) 0.10344(7) -0.18952(6)
Sn2 Sn 0.84026(8) 0.44530(8) -0.63744(7)
Cd1 Cd 0.59630(9) 0.31258(9) -0.40775(7)
Cd2 Cd 0.09567(9) 0.29758(8) -0.40227(8)
Mn1 Mn 0.4328(2) 0.1216(2) 0.2311(2)
Mn2 Mn -0.0111(2) -0.2643(2) -0.2082(2)
Te1 Te 0.45438(9) -0.16126(8) -0.05733(7)
Te2 Te 0.07936(8) 0.22635(8) -0.17122(7)
Te3 Te 0.56896(9) 0.27318(8) -0.18080(7)
Te4 Te 0.39854(7) 0.13110(7) -0.41549(6)
Te5 Te 0.55413(9) 0.56333(8) -0.57991(8)
Te6 Te 0.88512(8) 0.17816(7) -0.48125(7)
Te7 Te 0.05175(9) 0.55623(8) -0.56654(8)
Te8 Te 0.87784(11) 0.40663(13) -0.83892(8)
N1 N 0.5224(13) 0.2873(12) 0.1012(13)
N2 N 0.341(3) 0.3243(11) 0.2676(11)
N3 N 0.5961(10) -0.0570(18) 0.1878(14)
N4 N 0.6369(14) 0.0862(11) 0.3417(12)
N5 N 0.3002(12) 0.0031(19) 0.3558(12)
N6 N 0.2518(14) 0.0984(14) 0.1365(13)
N7 N 0.1718(9) -0.4278(9) -0.2611(9)
N8 N 0.1631(10) -0.1370(9) -0.2863(8)
N9 N 0.0779(11) -0.3159(9) -0.0350(8)
N10 N -0.1469(11) -0.0825(11) -0.1503(6)
N11 N -0.1827(10) -0.4020(9) -0.1572(7)
N12 N -0.1468(8) -0.2087(10) -0.3671(8)
C1 C 0.400(2) 0.4166(15) 0.0747(8)
C2 C 0.360(2) 0.4537(11) 0.1824(9)
C3 C 0.7494(10) -0.0669(15) 0.2260(8)
C4 C 0.7354(14) -0.0532(11) 0.3419(8)
C5 C 0.1658(14) -0.024(2) 0.3162(9)
C6 C 0.1955(19) -0.0282(16) 0.1989(10)
C7 C 0.3019(13) -0.3732(10) -0.3153(19)
C8 C 0.2681(16) -0.2148(10) -0.3523(12)
C9 C 0.0232(12) -0.1917(13) 0.0088(11)
C10 C -0.1326(13) -0.1084(15) -0.0314(8)
C11 C -0.2550(12) -0.4034(9) -0.2574(8)
C12 C -0.2887(10) -0.2577(10) -0.3394(10)
H1 H 0.54650 0.25900 0.03980
H2 H 0.60580 0.30160 0.12590
H3 H 0.36050 0.32250 0.33660
H4 H 0.24090 0.33530 0.26140
H5 H 0.59760 -0.04740 0.11500
H6 H 0.56950 -0.13880 0.22320
H7 H 0.60570 0.08640 0.41050
H8 H 0.68770 0.15540 0.31580
H9 H 0.27410 0.04420 0.41080
H10 H 0.35990 -0.08310 0.38410
H11 H 0.28560 0.08510 0.07110
H12 H 0.17390 0.17430 0.12580
H13 H 0.13270 -0.46890 -0.30350
H14 H 0.21260 -0.49590 -0.20130
H15 H 0.21240 -0.11940 -0.23450
H16 H 0.11860 -0.05360 -0.33260
H17 H 0.17920 -0.34020 -0.03510
H18 H 0.04320 -0.38900 0.00940
H19 H -0.24470 -0.06900 -0.16630
H20 H -0.11590 -0.00320 -0.18630
H21 H -0.25350 -0.36590 -0.11370
H22 H -0.13720 -0.49070 -0.11970
H23 H -0.09380 -0.25210 -0.41520
H24 H -0.16700 -0.11440 -0.39840
H25 H 0.31650 0.40510 0.04080
H26 H 0.43860 0.49180 0.02650
H27 H 0.44240 0.47260 0.21240
H28 H 0.28010 0.53630 0.17030
H29 H 0.78460 0.01130 0.17930
H30 H 0.82050 -0.15170 0.22410
H31 H 0.69230 -0.12710 0.38700
H32 H 0.83140 -0.06190 0.37100
H33 H 0.08790 0.05890 0.31100
H34 H 0.13260 -0.10230 0.36400
H35 H 0.27570 -0.10890 0.20310
H36 H 0.10900 -0.04410 0.17130
H37 H 0.31850 -0.39870 -0.38240
H38 H 0.39270 -0.41210 -0.27440
H39 H 0.36340 -0.19330 -0.34960
H40 H 0.23730 -0.17940 -0.42700
H41 H 0.09160 -0.13130 -0.01570
H42 H 0.02320 -0.21860 0.08680
H43 H -0.20430 -0.15990 0.00630
H44 H -0.15370 -0.01970 -0.01470
H45 H -0.34560 -0.43560 -0.23910
H46 H -0.18860 -0.46750 -0.29080
H47 H -0.33470 -0.26030 -0.40360
H48 H -0.35670 -0.19370 -0.30680
Te6* Te -0.11488(8) 0.17816(7) -0.48125(7)
Cd2* Cd 1.09567(9) 0.29758(8) -0.40227(8)
Te7* Te 1.05175(9) 0.55623(8) -0.56654(8)
Sn2* Sn -0.15974(8) 0.44530(8) -0.63744(7)
#END
