
#######################################################################
#
#                 Cambridge Crystallographic Data Centre
#                                CCDC
#
#######################################################################
#
# If this CIF has been generated from an entry in the Cambridge
# Structural Database, then it will include bibliographic, chemical,
# crystal, experimental, refinement or atomic coordinate data resulting
# from the CCDC's data processing and validation procedures.
#
#######################################################################

data_CSD_CIF_QOHFAW
_audit_creation_date 2014-08-13
_audit_creation_method CSD-ConQuest-V1
_database_code_CSD QOHFAW
_database_code_depnum_ccdc_archive 'CCDC 719381'
_chemical_formula_sum 'C18 H20 Mn1 N6 O8'
_chemical_formula_moiety
;
C18 H20 Mn1 N6 O8
;
_journal_coden_Cambridge 1287
_journal_volume 26
_journal_year 2014
_journal_page_first 257
_journal_name_full 'Asian J.Chem. '
loop_
_publ_author_name
"Xiaoping Gan"
"Mingjie Chu"
"Jianguo Yao"
"Wenqian Geng"
"Xiuli Zhang"
"Yupeng Tian And Hongping Zhou"
_chemical_name_systematic
;
tetraaqua-bis(4-(1H-1,2,4-triazol-1-yl)benzoato)-manganese(ii)
;
_cell_volume    500.130
_exptl_crystal_colour 'colorless'
_exptl_crystal_density_diffrn 1.671
_exptl_crystal_description 'needle'
_diffrn_ambient_temperature 298
#These two values have been output from a single CSD field.
_refine_ls_R_factor_gt 0.0373
_refine_ls_wR_factor_gt 0.0373
_symmetry_cell_setting triclinic
_symmetry_space_group_name_H-M 'P -1'
_symmetry_Int_Tables_number 2
loop_
_symmetry_equiv_pos_site_id
_symmetry_equiv_pos_as_xyz
1 x,y,z
2 -x,-y,-z
_cell_length_a 6.153(5)
_cell_length_b 7.047(5)
_cell_length_c 12.257(5)
_cell_angle_alpha 80.366(5)
_cell_angle_beta 87.997(5)
_cell_angle_gamma 72.673(5)
_cell_formula_units_Z 1
loop_
_atom_type_symbol
_atom_type_radius_bond
C 0.68
H 0.23
Mn 1.61
N 0.68
O 0.68
loop_
_atom_site_label
_atom_site_type_symbol
_atom_site_fract_x
_atom_site_fract_y
_atom_site_fract_z
Mn1 Mn 0.50000 0.50000 0.00000
O1 O 0.6525(3) 0.0220(3) 0.87359(15)
O2 O 0.2017(4) 0.7624(3) -0.01996(18)
O3 O 0.6923(4) 0.6906(3) 0.05403(19)
N1 N 0.3887(4) 0.4453(4) 0.17625(18)
N2 N 0.4096(4) 0.3569(3) 0.35525(17)
O4 O 0.9860(4) -0.0695(4) 0.79276(17)
C1 C 0.4938(4) 0.2783(4) 0.4660(2)
N3 N 0.1820(4) 0.4374(4) 0.33048(19)
C2 C 0.6685(5) 0.1097(4) 0.6772(2)
C3 C 0.7761(5) 0.0140(4) 0.7899(2)
C4 C 0.3479(5) 0.2585(4) 0.5517(2)
H1 H 0.19140 0.30080 0.53890
C5 C 0.1812(5) 0.4875(5) 0.2231(2)
H2 H 0.04740 0.54780 0.18170
C6 C 0.4358(5) 0.1750(4) 0.6578(2)
H3 H 0.33740 0.16280 0.71610
C7 C 0.8100(5) 0.1373(5) 0.5904(2)
H4 H 0.96650 0.09730 0.60320
C8 C 0.7258(5) 0.2229(5) 0.4848(2)
H5 H 0.82370 0.24280 0.42740
C9 C 0.5266(5) 0.3617(4) 0.2624(2)
H6 H 0.68420 0.31270 0.25860
H7 H 0.122(5) 0.818(5) -0.085(3)
H8 H 0.216(6) 0.847(5) 0.012(3)
H9 H 0.603(6) 0.766(5) 0.088(3)
H10 H 0.722(5) 0.763(5) 0.000(3)
O1A O 0.3475(3) 0.9780(3) -0.87359(15)
O2A O 0.7983(4) 0.2376(3) 0.01996(18)
O3A O 0.3077(4) 0.3094(3) -0.05403(19)
N1A N 0.6113(4) 0.5547(4) -0.17625(18)
N2A N 0.5904(4) 0.6431(3) -0.35525(17)
O4A O 0.0140(4) 1.0695(4) -0.79276(17)
C1A C 0.5062(4) 0.7217(4) -0.4660(2)
N3A N 0.8180(4) 0.5626(4) -0.33048(19)
C2A C 0.3315(5) 0.8903(4) -0.6772(2)
C3A C 0.2239(5) 0.9860(4) -0.7899(2)
C4A C 0.6521(5) 0.7415(4) -0.5517(2)
H1A H 0.80860 0.69920 -0.53890
C5A C 0.8188(5) 0.5125(5) -0.2231(2)
H2A H 0.95260 0.45220 -0.18170
C6A C 0.5642(5) 0.8250(4) -0.6578(2)
H3A H 0.66260 0.83720 -0.71610
C7A C 0.1900(5) 0.8627(5) -0.5904(2)
H4A H 0.03350 0.90270 -0.60320
C8A C 0.2742(5) 0.7771(5) -0.4848(2)
H5A H 0.17630 0.75720 -0.42740
C9A C 0.4734(5) 0.6383(4) -0.2624(2)
H6A H 0.31580 0.68730 -0.25860
H7A H 0.878(5) 0.182(5) 0.085(3)
H8A H 0.784(6) 0.153(5) -0.012(3)
H9A H 0.397(6) 0.234(5) -0.088(3)
H10A H 0.278(5) 0.237(5) 0.000(3)
#END
