
#######################################################################
#
#                 Cambridge Crystallographic Data Centre
#                                CCDC
#
#######################################################################
#
# If this CIF has been generated from an entry in the Cambridge
# Structural Database, then it will include bibliographic, chemical,
# crystal, experimental, refinement or atomic coordinate data resulting
# from the CCDC's data processing and validation procedures.
#
#######################################################################

data_CSD_CIF_QOKMUY
_audit_creation_date 2001-08-09
_audit_creation_method CSD-ConQuest-V1
_database_code_CSD QOKMUY
_database_code_depnum_ccdc_archive 'CCDC 144591'
_chemical_formula_sum 'C13 H13 Cr1 N1 O5 S1'
_chemical_formula_moiety
;
C13 H13 Cr1 N1 O5 S1
;
_journal_coden_Cambridge 36
_journal_volume 620
_journal_year 2001
_journal_page_first 165
_journal_name_full 'J.Organomet.Chem. '
loop_
_publ_author_name
"H.Fischer"
"F.Kirchbauer"
"A.Fruh"
"M.M.Abd-Elzaher"
"G.Roth"
"C.C.Karl"
"M.Dede"
_chemical_name_systematic
;
Pentacarbonyl(1-(4,5-dihydro-2-methylthiazolium)-2-methyl-1-propenyl)chromate
;
_chemical_melting_point 381.15
_cell_volume    767.203
_exptl_crystal_colour 'yellow'
_exptl_crystal_density_diffrn 1.503
_exptl_crystal_description 'plate'
_exptl_crystal_preparation 'diethyl ether'
_diffrn_ambient_temperature 239
#These two values have been output from a single CSD field.
_refine_ls_R_factor_gt 0.056
_refine_ls_wR_factor_gt 0.056
_symmetry_cell_setting triclinic
_symmetry_space_group_name_H-M 'P -1'
_symmetry_Int_Tables_number 2
loop_
_symmetry_equiv_pos_site_id
_symmetry_equiv_pos_as_xyz
1 x,y,z
2 -x,-y,-z
_cell_length_a 8.936(3)
_cell_length_b 9.470(3)
_cell_length_c 9.888(3)
_cell_angle_alpha 88.82(2)
_cell_angle_beta 71.76(2)
_cell_angle_gamma 75.32(1)
_cell_formula_units_Z 2
loop_
_atom_type_symbol
_atom_type_radius_bond
C 0.68
H 0.23
Cr 1.35
N 0.68
O 0.68
S 1.02
loop_
_atom_site_label
_atom_site_type_symbol
_atom_site_fract_x
_atom_site_fract_y
_atom_site_fract_z
Cr1 Cr 0.1028(1) 0.1951(1) 0.2318(1)
C1 C -0.0862(5) 0.3424(4) 0.2403(5)
O1 O -0.2070(4) 0.4251(3) 0.2473(4)
C2 C 0.1988(5) 0.2153(5) 0.0348(5)
O2 O 0.2568(5) 0.2299(4) -0.0823(3)
C3 C 0.2761(5) 0.0344(4) 0.2361(5)
O3 O 0.3746(4) -0.0656(3) 0.2408(4)
C4 C 0.0094(6) 0.1854(5) 0.4282(5)
O4 O -0.0517(5) 0.1751(4) 0.5466(4)
C5 C 0.0037(5) 0.0570(4) 0.1968(5)
O5 O -0.0563(4) -0.0312(3) 0.1766(4)
C6 C 0.2366(5) 0.3483(4) 0.2595(4)
C7 C 0.2494(5) 0.4798(5) 0.2093(5)
C8 C 0.1509(6) 0.5588(5) 0.1213(6)
C9 C 0.3663(6) 0.5615(5) 0.2332(7)
N1 N 0.3422(4) 0.2950(3) 0.3475(3)
C10 C 0.4933(5) 0.2230(4) 0.3031(4)
C11 C 0.5875(5) 0.1862(5) 0.1506(5)
S1 S 0.5815(2) 0.1683(2) 0.4343(1)
C12 C 0.3912(7) 0.2493(6) 0.5713(5)
C13 C 0.2762(7) 0.3248(9) 0.5021(5)
H1 H 0.0788(6) 0.5032(5) 0.1103(6)
H2 H 0.0880(6) 0.6529(5) 0.1677(6)
H3 H 0.2222(6) 0.5714(5) 0.0291(6)
H4 H 0.4268(6) 0.5061(5) 0.2903(7)
H5 H 0.4403(6) 0.5741(5) 0.1424(7)
H6 H 0.3061(6) 0.6555(5) 0.2810(7)
H7 H 0.5192(5) 0.2251(5) 0.0934(5)
H8 H 0.6791(5) 0.2279(5) 0.1262(5)
H9 H 0.6256(5) 0.0818(5) 0.1332(5)
H10 H 0.4072(7) 0.3154(6) 0.6346(5)
H11 H 0.3507(7) 0.1741(6) 0.6259(5)
H12 H 0.1764(7) 0.2953(9) 0.5371(5)
H13 H 0.2519(7) 0.4281(9) 0.5236(5)
#END
