
#######################################################################
#
#                 Cambridge Crystallographic Data Centre
#                                CCDC
#
#######################################################################
#
# If this CIF has been generated from an entry in the Cambridge
# Structural Database, then it will include bibliographic, chemical,
# crystal, experimental, refinement or atomic coordinate data resulting
# from the CCDC's data processing and validation procedures.
#
#######################################################################

data_CSD_CIF_QOKYIY
_audit_creation_date 2001-08-09
_audit_creation_method CSD-ConQuest-V1
_database_code_CSD QOKYIY
_database_code_depnum_ccdc_archive 'CCDC 136751'
_chemical_formula_sum 'C15 H13 Cl1 Fe1 N2 O4'
_chemical_formula_moiety
;
C15 H13 Cl1 Fe1 N2 O4
;
_journal_coden_Cambridge 580
_journal_volume 20
_journal_year 2001
_journal_page_first 215
_journal_name_full 'Polyhedron '
loop_
_publ_author_name
"C.Alvarez-Toledano"
"R.Gutierrez-Perez"
"R.A.Toscano"
"M.Moya-Cabrera"
"T.Haquet"
"M.C.Ortega"
"A.Cabrera"
_chemical_name_systematic
;
Tricarbonyl-(\h^2^-1-(dimethylhydrazono)-4-(2-chlorophenyl)but-3-en-2-one-N)-i
ron(0)
;
_chemical_melting_point 383.15
_cell_volume    811.719
_exptl_crystal_colour 'orange'
_exptl_crystal_density_diffrn 1.541
_exptl_crystal_description 'prism'
_diffrn_ambient_temperature ?
_diffrn_special_details
;
The study was carried out at room temperature,in the range 283-303K

;
#These two values have been output from a single CSD field.
_refine_ls_R_factor_gt 0.0479
_refine_ls_wR_factor_gt 0.0479
_symmetry_cell_setting triclinic
_symmetry_space_group_name_H-M 'P -1'
_symmetry_Int_Tables_number 2
loop_
_symmetry_equiv_pos_site_id
_symmetry_equiv_pos_as_xyz
1 x,y,z
2 -x,-y,-z
_cell_length_a 7.119(1)
_cell_length_b 10.372(1)
_cell_length_c 11.325(1)
_cell_angle_alpha 98.52(1)
_cell_angle_beta 98.13(1)
_cell_angle_gamma 96.11(1)
_cell_formula_units_Z 2
loop_
_atom_type_symbol
_atom_type_radius_bond
C 0.68
H 0.23
Cl 0.99
Fe 1.34
N 0.68
O 0.68
loop_
_atom_site_label
_atom_site_type_symbol
_atom_site_fract_x
_atom_site_fract_y
_atom_site_fract_z
Fe1 Fe 0.37770(6) 0.27014(4) 0.30156(4)
Cl1 Cl -0.09464(18) 0.15642(10) 0.01069(9)
O1 O 0.1216(5) 0.1697(3) 0.5685(3)
C1 C 0.2332(5) 0.0546(3) 0.4047(3)
H1 H 0.19650 -0.03280 0.41910
C2 C 0.1637(5) 0.1699(4) 0.4672(3)
C3 C 0.1578(5) 0.2814(3) 0.4014(3)
H2 H 0.14570 0.36570 0.44570
C4 C 0.0801(4) 0.2540(3) 0.2754(3)
H3 H 0.02110 0.16470 0.25000
C5 C -0.0205(4) 0.3468(3) 0.2106(3)
C6 C -0.1069(5) 0.3123(3) 0.0903(3)
C7 C -0.2041(6) 0.3979(4) 0.0279(4)
H4 H -0.26010 0.37090 -0.05560
C8 C -0.2192(6) 0.5202(4) 0.0863(5)
H5 H -0.28780 0.57910 0.04440
C9 C -0.1356(6) 0.5592(4) 0.2062(5)
H6 H -0.14440 0.64590 0.24690
C10 C -0.0394(5) 0.4741(3) 0.2672(4)
H7 H 0.01610 0.50230 0.35060
N1 N 0.3475(4) 0.0779(2) 0.3289(2)
N2 N 0.4251(5) -0.0200(2) 0.2669(3)
C11 C 0.3817(8) -0.1520(3) 0.2927(4)
H8 H 0.25520 -0.16360 0.31290
H9 H 0.38910 -0.21490 0.22270
H10 H 0.47300 -0.16490 0.35940
C12 C 0.6112(7) 0.0087(4) 0.2350(4)
H11 H 0.62790 0.09730 0.21940
H12 H 0.70720 -0.00100 0.30060
H13 H 0.62320 -0.05100 0.16390
C13 C 0.4019(5) 0.4392(3) 0.2914(4)
O2 O 0.4220(5) 0.5484(2) 0.2855(4)
C14 C 0.4023(5) 0.2304(3) 0.1439(3)
O3 O 0.4095(5) 0.2095(3) 0.0429(2)
C15 C 0.6005(5) 0.3026(3) 0.4052(3)
O4 O 0.7402(4) 0.3265(4) 0.4717(3)
#END
