
#######################################################################
#
#                 Cambridge Crystallographic Data Centre
#                                CCDC
#
#######################################################################
#
# If this CIF has been generated from an entry in the Cambridge
# Structural Database, then it will include bibliographic, chemical,
# crystal, experimental, refinement or atomic coordinate data resulting
# from the CCDC's data processing and validation procedures.
#
#######################################################################

data_CSD_CIF_QOKYOE
_audit_creation_date 2001-08-09
_audit_creation_method CSD-ConQuest-V1
_database_code_CSD QOKYOE
_database_code_depnum_ccdc_archive 'CCDC 136752'
_chemical_formula_sum 'C16 H16 Fe1 N2 O5'
_chemical_formula_moiety
;
C16 H16 Fe1 N2 O5
;
_journal_coden_Cambridge 580
_journal_volume 20
_journal_year 2001
_journal_page_first 215
_journal_name_full 'Polyhedron '
loop_
_publ_author_name
"C.Alvarez-Toledano"
"R.Gutierrez-Perez"
"R.A.Toscano"
"M.Moya-Cabrera"
"T.Haquet"
"M.C.Ortega"
"A.Cabrera"
_chemical_name_systematic
;
Tricarbonyl-(\h^2^-1-(dimethylhydrazono)-4-(4-methoxyphenyl)but-3-en-2-one-N)-
iron(0)
;
_chemical_melting_point 346.15
_cell_volume    841.418
_exptl_crystal_colour 'red'
_exptl_crystal_density_diffrn 1.469
_exptl_crystal_description 'plate'
_diffrn_ambient_temperature ?
_diffrn_special_details
;
The study was carried out at room temperature,in the range 283-303K

;
#These two values have been output from a single CSD field.
_refine_ls_R_factor_gt 0.0455
_refine_ls_wR_factor_gt 0.0455
_symmetry_cell_setting triclinic
_symmetry_space_group_name_H-M 'P -1'
_symmetry_Int_Tables_number 2
loop_
_symmetry_equiv_pos_site_id
_symmetry_equiv_pos_as_xyz
1 x,y,z
2 -x,-y,-z
_cell_length_a 7.399(1)
_cell_length_b 10.339(2)
_cell_length_c 12.049(2)
_cell_angle_alpha 110.07(1)
_cell_angle_beta 92.73(1)
_cell_angle_gamma 101.55(1)
_cell_formula_units_Z 2
loop_
_atom_type_symbol
_atom_type_radius_bond
C 0.68
H 0.23
Fe 1.34
N 0.68
O 0.68
loop_
_atom_site_label
_atom_site_type_symbol
_atom_site_fract_x
_atom_site_fract_y
_atom_site_fract_z
Fe1 Fe 0.11113(7) 0.27174(5) 0.18209(4)
O1 O 0.3438(4) 0.3086(3) -0.0934(2)
C1 C 0.2617(5) 0.4676(3) 0.0778(3)
H1 H 0.29780 0.54950 0.06070
C2 C 0.3158(4) 0.3349(3) 0.0109(3)
C3 C 0.3263(4) 0.2433(3) 0.0782(3)
H2 H 0.28450 0.14570 0.04140
C4 C 0.4018(4) 0.3045(3) 0.2020(3)
H3 H 0.39180 0.39620 0.24430
C5 C 0.4938(4) 0.2328(3) 0.2671(3)
C6 C 0.5758(5) 0.3101(3) 0.3841(3)
H4 H 0.57090 0.40460 0.41820
C7 C 0.6641(5) 0.2503(4) 0.4509(3)
H5 H 0.71720 0.30420 0.52890
C8 C 0.6731(5) 0.1089(4) 0.4012(3)
C9 C 0.5963(5) 0.0309(4) 0.2846(3)
H6 H 0.60440 -0.06280 0.25000
C10 C 0.5073(5) 0.0923(3) 0.2192(3)
H7 H 0.45510 0.03820 0.14110
N1 N 0.1608(4) 0.4623(2) 0.1617(2)
N2 N 0.1126(4) 0.5811(3) 0.2372(2)
C11 C 0.1746(8) 0.7121(4) 0.2150(4)
H8 H 0.13430 0.78730 0.27290
H9 H 0.12220 0.69980 0.13660
H10 H 0.30790 0.73520 0.22060
C12 C -0.0747(6) 0.5601(4) 0.2681(3)
H11 H -0.10720 0.47190 0.28060
H12 H -0.15930 0.55830 0.20430
H13 H -0.08220 0.63620 0.33960
C13 C 0.0719(5) 0.0983(3) 0.1841(3)
O2 O 0.0404(4) -0.0133(3) 0.1865(3)
C14 C 0.1053(4) 0.3406(3) 0.3415(3)
O3 O 0.1146(4) 0.3751(3) 0.4420(2)
C15 C -0.1090(5) 0.2225(3) 0.0902(3)
O4 O -0.2489(4) 0.1924(3) 0.0318(2)
O5 O 0.7639(5) 0.0596(3) 0.4744(3)
C16 C 0.7618(7) -0.0868(5) 0.4324(5)
H14 H 0.85430 -0.10360 0.48100
H15 H 0.78840 -0.11610 0.35140
H16 H 0.64140 -0.13970 0.43620
#END
