
#######################################################################
#
#                 Cambridge Crystallographic Data Centre
#                                CCDC
#
#######################################################################
#
# If this CIF has been generated from an entry in the Cambridge
# Structural Database, then it will include bibliographic, chemical,
# crystal, experimental, refinement or atomic coordinate data resulting
# from the CCDC's data processing and validation procedures.
#
#######################################################################

data_CSD_CIF_QONTIW
_audit_creation_date 2001-08-17
_audit_creation_method CSD-ConQuest-V1
_database_code_CSD QONTIW
_database_code_depnum_ccdc_archive 'CCDC 145288'
_chemical_formula_sum 'C9 H3 Cr1 F2 N1 O6'
_chemical_formula_moiety
;
C9 H3 Cr1 F2 N1 O6
;
_journal_coden_Cambridge 1220
_journal_volume 7
_journal_year 2001
_journal_page_first 881
_journal_name_full 'Chem.-Eur.J. '
loop_
_publ_author_name
"M.Balbo-Block"
"C.Bartel"
"D.Lentz"
"D.Preugschat"
_chemical_name_systematic
;
Pentacarbonyl-(E-1,2-difluoro-2-methoxy-ethenylisocyanide)-chromium
;
_cell_volume    597.599
_exptl_crystal_colour 'yellow'
_exptl_crystal_density_diffrn 1.729
_exptl_crystal_description 'prism'
_exptl_crystal_preparation 'pentane'
_diffrn_ambient_temperature 153
#These two values have been output from a single CSD field.
_refine_ls_R_factor_gt 0.0235
_refine_ls_wR_factor_gt 0.0235
_symmetry_cell_setting triclinic
_symmetry_space_group_name_H-M 'P -1'
_symmetry_Int_Tables_number 2
loop_
_symmetry_equiv_pos_site_id
_symmetry_equiv_pos_as_xyz
1 x,y,z
2 -x,-y,-z
_cell_length_a 6.4969(4)
_cell_length_b 9.6269(6)
_cell_length_c 10.2481(6)
_cell_angle_alpha 81.115(1)
_cell_angle_beta 78.061(1)
_cell_angle_gamma 73.314(1)
_cell_formula_units_Z 2
loop_
_atom_type_symbol
_atom_type_radius_bond
C 0.68
H 0.23
Cr 1.35
F 0.64
N 0.68
O 0.68
loop_
_atom_site_label
_atom_site_type_symbol
_atom_site_fract_x
_atom_site_fract_y
_atom_site_fract_z
Cr1 Cr 0.58985(3) 0.697607(17) 0.723142(16)
C1 C 0.54308(18) 0.52460(12) 0.68046(11)
C2 C 0.68725(18) 0.59488(12) 0.88362(12)
C3 C 0.29866(19) 0.75164(12) 0.81853(11)
C4 C 0.4855(2) 0.80291(12) 0.56524(11)
C5 C 0.8830(2) 0.64862(13) 0.62713(12)
C6 C 0.64303(17) 0.87208(12) 0.76800(11)
C7 C 0.72904(18) 1.09446(12) 0.82232(11)
C8 C 0.89556(19) 1.14442(12) 0.75710(12)
C9 C 1.1459(2) 1.24879(19) 0.81210(17)
O1 O 0.51287(16) 0.42125(10) 0.65601(10)
O2 O 0.74407(17) 0.53456(10) 0.9801(1)
O3 O 0.12390(15) 0.78527(12) 0.87409(10)
O4 O 0.41985(18) 0.86549(10) 0.47253(9)
O5 O 1.05780(17) 0.62143(14) 0.57140(12)
O6 O 0.93301(15) 1.26641(10) 0.77807(10)
N1 N 0.67791(17) 0.97565(11) 0.7952(1)
F1 F 0.58982(13) 1.16482(10) 0.92244(8)
F2 F 1.03390(14) 1.07131(9) 0.65967(9)
H1 H 1.259(3) 1.219(2) 0.739(2)
H2 H 1.160(4) 1.177(3) 0.892(2)
H3 H 1.143(4) 1.342(3) 0.831(2)
#END
