
#######################################################################
#
#                 Cambridge Crystallographic Data Centre
#                                CCDC
#
#######################################################################
#
# If this CIF has been generated from an entry in the Cambridge
# Structural Database, then it will include bibliographic, chemical,
# crystal, experimental, refinement or atomic coordinate data resulting
# from the CCDC's data processing and validation procedures.
#
#######################################################################

data_CSD_CIF_QOYGUG
_audit_creation_date 2001-08-28
_audit_creation_method CSD-ConQuest-V1
_database_code_CSD QOYGUG
_database_code_depnum_ccdc_archive 'CCDC 166501'
_chemical_formula_sum 'C14 H36 Mn1 N10 O18'
_chemical_formula_moiety
;
C14 H24 Mn1 N10 O12,6(H2 O1)
;
_journal_coeditor_code "IUCr NA0116"
_journal_coden_Cambridge 622
_journal_volume 57
_journal_year 2001
_journal_page_first 317
_journal_name_full 'Acta Crystallogr.,Sect.B:Struct.Sci. '
loop_
_publ_author_name
"J.N.Low"
"J.M.Moreno Sanchez"
"P.Arranz Mascaros"
"M.L.Godino Salido"
"R.Lopez Garzon"
"J.Cobo Domingo"
"C.Glidewell"
_chemical_name_systematic
;
Tetraaqua-bis(N-(6-amino-3,4-dihydro-3-methyl-5-nitroso-4-oxopyrimidin-2-yl)gl
ycinato)-manganese(ii) hexahydrate
;
_cell_volume    700.804
_exptl_crystal_colour 'red'
_exptl_crystal_density_diffrn 1.629
_exptl_special_details
;
air-sensitive

;
_exptl_crystal_description 'plate'
_diffrn_ambient_temperature 150
#These two values have been output from a single CSD field.
_refine_ls_R_factor_gt 0.04
_refine_ls_wR_factor_gt 0.04
_symmetry_cell_setting triclinic
_symmetry_space_group_name_H-M 'P -1'
_symmetry_Int_Tables_number 2
loop_
_symmetry_equiv_pos_site_id
_symmetry_equiv_pos_as_xyz
1 x,y,z
2 -x,-y,-z
_cell_length_a 7.4476(3)
_cell_length_b 8.2351(4)
_cell_length_c 12.6372(5)
_cell_angle_alpha 105.258(2)
_cell_angle_beta 92.153(3)
_cell_angle_gamma 108.94(2)
_cell_formula_units_Z 1
loop_
_atom_type_symbol
_atom_type_radius_bond
C 0.68
H 0.23
Mn 1.35
N 0.68
O 0.68
loop_
_atom_site_label
_atom_site_type_symbol
_atom_site_fract_x
_atom_site_fract_y
_atom_site_fract_z
Mn1 Mn 0.50000 0.00000 0.50000
N1 N 0.1453(2) 0.1486(2) 0.91956(13)
C1 C -0.0347(3) 0.0625(2) 0.87141(15)
N2 N -0.0704(2) -0.0790(2) 0.78329(13)
C2 C 0.0819(3) -0.1344(3) 0.73489(16)
C3 C 0.1847(2) -0.0280(2) 0.65941(14)
O1 O 0.32251(18) -0.07366(18) 0.62267(11)
O2 O 0.13010(19) 0.08985(18) 0.63825(11)
C4 C -0.3836(3) 0.0089(3) 0.84736(17)
N3 N -0.1892(2) 0.1080(2) 0.90783(13)
C5 C -0.1650(3) 0.2478(3) 1.00356(15)
O3 O -0.3040(2) 0.2836(2) 1.03735(12)
C6 C 0.0298(3) 0.3443(3) 1.05824(15)
N4 N 0.0466(2) 0.4789(2) 1.14923(13)
O4 O 0.2152(2) 0.5711(2) 1.20237(12)
C7 C 0.1810(3) 0.2877(3) 1.01120(15)
N5 N 0.3591(2) 0.3701(2) 1.05951(14)
O5 O 0.4172(2) 0.23277(18) 0.52434(12)
O6 O 0.2367(2) -0.1481(2) 0.37756(12)
O7 O 0.3797(2) 0.36643(19) 0.35193(13)
O8 O 0.1927(3) 0.5302(3) 0.5202(2)
O9 O 0.6924(3) 0.5341(2) 0.25271(16)
H1 H -0.18990 -0.14110 0.75330
H2 H 0.02710 -0.26270 0.69190
H3 H 0.17740 -0.12320 0.79550
H4 H -0.38150 0.00220 0.76890
H5 H -0.47040 0.07120 0.87790
H6 H -0.42820 -0.11270 0.85510
H7 H 0.45080 0.33380 1.03170
H8 H 0.38670 0.46170 1.11970
H9 H 0.2982(17) 0.206(3) 0.5541(16)
H10 H 0.402(3) 0.275(3) 0.4621(13)
H11 H 0.121(2) -0.121(3) 0.377(2)
H12 H 0.210(4) -0.266(2) 0.328(2)
H13 H 0.494(3) 0.434(3) 0.329(3)
H14 H 0.323(4) 0.449(3) 0.392(3)
H15 H 0.067(3) 0.511(5) 0.488(4)
H16 H 0.258(5) 0.6570(12) 0.550(3)
H17 H 0.762(3) 0.480(3) 0.2016(19)
H18 H 0.769(3) 0.6574(13) 0.286(2)
O1A O 0.67749(18) 0.07366(18) 0.37733(11)
C3A C 0.8153(2) 0.0280(2) 0.34059(14)
C2A C 0.9181(3) 0.1344(3) 0.26511(16)
N2A N 1.0704(2) 0.0790(2) 0.21671(13)
C1A C 1.0347(3) -0.0625(2) 0.12859(15)
N1A N 0.8547(2) -0.1486(2) 0.08044(13)
C7A C 0.8190(3) -0.2877(3) -0.01120(15)
C6A C 0.9702(3) -0.3443(3) -0.05824(15)
C5A C 1.1650(3) -0.2478(3) -0.00356(15)
N3A N 1.1892(2) -0.1080(2) 0.09217(13)
C4A C 1.3836(3) -0.0089(3) 0.15264(17)
H4A H 1.38150 -0.00220 0.23110
H5A H 1.47040 -0.07120 0.12210
H6A H 1.42820 0.11270 0.14490
O3A O 1.3040(2) -0.2836(2) -0.03735(12)
N4A N 0.9534(2) -0.4789(2) -0.14923(13)
O4A O 0.7848(2) -0.5711(2) -0.20237(12)
N5A N 0.6409(2) -0.3701(2) -0.05951(14)
H7A H 0.54920 -0.33380 -0.03170
H8A H 0.61330 -0.46170 -0.11970
H1A H 1.18990 0.14110 0.24670
H2A H 0.97290 0.26270 0.30810
H3A H 0.82260 0.12320 0.20450
O2A O 0.86990(19) -0.08985(18) 0.36175(11)
O5A O 0.5828(2) -0.23277(18) 0.47566(12)
H9A H 0.7018(17) -0.206(3) 0.4459(16)
H10A H 0.598(3) -0.275(3) 0.5379(13)
O6A O 0.7633(2) 0.1481(2) 0.62244(12)
H11A H 0.879(2) 0.121(3) 0.623(2)
H12A H 0.790(4) 0.266(2) 0.672(2)
#END
