
#######################################################################
#
#                 Cambridge Crystallographic Data Centre
#                                CCDC
#
#######################################################################
#
# If this CIF has been generated from an entry in the Cambridge
# Structural Database, then it will include bibliographic, chemical,
# crystal, experimental, refinement or atomic coordinate data resulting
# from the CCDC's data processing and validation procedures.
#
#######################################################################

data_CSD_CIF_QOYWEJ
_audit_creation_date 2019-11-20
_audit_creation_method CSD-ConQuest-V1
_database_code_CSD QOYWEJ
_database_code_depnum_ccdc_archive 'CCDC 1896810'
_chemical_formula_sum 'C7 H15 Co1 N1 O10'
_chemical_formula_moiety
;
C7 H11 Co1 N1 O8,2(H2 O1)
;
_journal_coden_Cambridge 155
_journal_volume 498
_journal_year 2019
_journal_page_first 119108
_journal_name_full 'Inorg.Chim.Acta '
loop_
_publ_author_name
"S.M.Nashre-ul-Islam"
"D.Dutta"
"P.Sharma"
"A.K.Verma"
"A.Frontera"
"M.K.Bhattacharyya"
_chemical_name_systematic
;
tetra-aqua-(pyridine-2,5-dicarboxylato)-cobalt(ii) dihydrate
;
_cell_volume    612.560
_exptl_crystal_colour 'red'
_exptl_crystal_density_diffrn 1.801
_exptl_crystal_description 'Block'
_diffrn_ambient_temperature 293
#These two values have been output from a single CSD field.
_refine_ls_R_factor_gt 0.0229
_refine_ls_wR_factor_gt 0.0229
_symmetry_cell_setting triclinic
_symmetry_space_group_name_H-M 'P -1'
_symmetry_Int_Tables_number 2
loop_
_symmetry_equiv_pos_site_id
_symmetry_equiv_pos_as_xyz
1 x,y,z
2 -x,-y,-z
_cell_length_a 7.0788(2)
_cell_length_b 8.3640(2)
_cell_length_c 11.4416(4)
_cell_angle_alpha 107.115(2)
_cell_angle_beta 99.326(2)
_cell_angle_gamma 102.718(1)
_cell_formula_units_Z 2
loop_
_atom_type_symbol
_atom_type_radius_bond
C 0.68
H 0.23
Co 1.26
N 0.68
O 0.68
loop_
_atom_site_label
_atom_site_type_symbol
_atom_site_fract_x
_atom_site_fract_y
_atom_site_fract_z
H1 H -0.10310 -0.34910 0.04970
H2 H -0.00280 -0.44500 0.12700
Co1 Co 0.19684(3) -0.10237(3) 0.21421(2)
O1 O 0.19053(19) -0.07150(16) 0.04100(12)
O2 O 0.32771(19) 0.09715(18) -0.05875(12)
O3 O 0.8734(2) 0.67547(17) 0.54261(13)
O4 O 0.7764(2) 0.46179(17) 0.61748(13)
O5 O -0.0425(2) -0.33558(17) 0.12933(13)
O6 O -0.0191(2) 0.02844(19) 0.26166(15)
O7 O 0.2303(3) -0.1398(2) 0.38443(16)
O8 O 0.4111(2) -0.2467(2) 0.18105(18)
N1 N 0.4187(2) 0.14079(19) 0.26411(14)
C1 C 0.3120(3) 0.0622(2) 0.03826(17)
C2 C 0.4465(3) 0.1863(2) 0.16349(17)
C3 C 0.5884(3) 0.3364(2) 0.17407(19)
H3 H 0.60640 0.36420 0.10290
C4 C 0.7034(3) 0.4444(2) 0.29292(18)
H4 H 0.80070 0.54520 0.30210
C5 C 0.6730(3) 0.4021(2) 0.39776(17)
C6 C 0.7841(3) 0.5220(2) 0.52975(18)
C7 C 0.5296(3) 0.2473(2) 0.37848(17)
H5 H 0.50970 0.21640 0.44820
H6 H 0.226(4) -0.239(4) 0.390(3)
H7 H -0.104(4) 0.009(3) 0.207(2)
H8 H 0.497(5) -0.230(4) 0.249(3)
H9 H 0.021(4) 0.138(4) 0.314(3)
H10 H 0.238(5) -0.069(4) 0.449(3)
H11 H 0.477(4) -0.228(4) 0.137(3)
H12 H 0.13200 0.41190 0.22270
O9 O 0.0804(2) 0.3760(2) 0.12890(14)
H13 H 0.003(4) 0.294(3) 0.109(2)
O10 O 0.2508(2) 0.1261(2) 0.59555(16)
H14 H 0.171(4) 0.101(4) 0.632(3)
H15 H 0.200(4) 0.187(4) 0.564(3)
#END
