
#######################################################################
#
#                 Cambridge Crystallographic Data Centre
#                                CCDC
#
#######################################################################
#
# If this CIF has been generated from an entry in the Cambridge
# Structural Database, then it will include bibliographic, chemical,
# crystal, experimental, refinement or atomic coordinate data resulting
# from the CCDC's data processing and validation procedures.
#
#######################################################################

data_CSD_CIF_QUWDIW
_audit_creation_date 2010-08-29
_audit_creation_method CSD-ConQuest-V1
_database_code_CSD QUWDIW
_database_code_depnum_ccdc_archive 'CCDC 766452'
_chemical_formula_sum 'C13 H14 Cl4 Co1 N2 Se2'
_chemical_formula_moiety
;
C12 H12 Cl2 Co1 N2 Se2,C1 H2 Cl2
;
_journal_coden_Cambridge 1078
_journal_year 2010
_journal_name_full 'CSD Communication(Private Communication) '
loop_
_publ_author_name
"C.Thone"
"F.Vancea"
"P.G.Jones"
_chemical_name_systematic
;
Dichloro-(1,2-bis(2-pyridylmethyl)diselane-N,N')-cobalt(ii) dichloromethane 
solvate
;
_cell_volume    912.216
_exptl_crystal_colour 'blue'
_exptl_crystal_density_diffrn 2.028
_exptl_special_details
;
contribution from Institut fur Anorganische und Analytische Chemie, 
Technische Universitat Braunschweig, Postfach 3329, 38023 Braunschweig, 
Germany
;
_exptl_crystal_description 'tablet'
_diffrn_ambient_temperature 133
#These two values have been output from a single CSD field.
_refine_ls_R_factor_gt 0.0328
_refine_ls_wR_factor_gt 0.0328
_symmetry_cell_setting triclinic
_symmetry_space_group_name_H-M 'P -1'
_symmetry_Int_Tables_number 2
loop_
_symmetry_equiv_pos_site_id
_symmetry_equiv_pos_as_xyz
1 x,y,z
2 -x,-y,-z
_cell_length_a 8.6450(8)
_cell_length_b 9.1800(8)
_cell_length_c 13.0893(12)
_cell_angle_alpha 78.711(3)
_cell_angle_beta 84.575(3)
_cell_angle_gamma 63.575(3)
_cell_formula_units_Z 2
loop_
_atom_type_symbol
_atom_type_radius_bond
C 0.68
H 0.23
Cl 0.99
Co 1.26
N 0.68
Se 1.22
loop_
_atom_site_label
_atom_site_type_symbol
_atom_site_fract_x
_atom_site_fract_y
_atom_site_fract_z
Co1 Co 0.08954(5) 0.62047(4) 0.18925(3)
Cl1 Cl -0.0419(1) 0.77309(8) 0.03607(5)
Cl2 Cl -0.07455(9) 0.49409(8) 0.27233(5)
Se1 Se 0.29203(4) 0.41871(4) 0.38551(2)
Se2 Se 0.53736(4) 0.46184(4) 0.35657(2)
C1 C 0.1297(4) 0.6215(3) 0.4352(2)
H1 H 0.01300 0.62530 0.44020
H2 H 0.16350 0.61790 0.50610
C2 C 0.5069(4) 0.5504(3) 0.2053(2)
H3 H 0.40500 0.65930 0.19480
H4 H 0.60940 0.56720 0.17750
N1 N 0.0878(3) 0.7993(3) 0.26455(17)
C3 C 0.0608(4) 0.9462(3) 0.2062(2)
H5 H 0.03380 0.96480 0.13480
C4 C 0.0703(4) 1.0712(4) 0.2449(2)
H6 H 0.04900 1.17380 0.20110
C5 C 0.1116(4) 1.0445(4) 0.3487(2)
H7 H 0.12140 1.12740 0.37730
C6 C 0.1381(4) 0.8940(4) 0.4100(2)
H8 H 0.16780 0.87240 0.48120
C7 C 0.1213(4) 0.7757(3) 0.3671(2)
N2 N 0.3205(3) 0.4611(3) 0.13135(17)
C8 C 0.2987(4) 0.3646(3) 0.0738(2)
H9 H 0.18460 0.38100 0.06270
C9 C 0.4350(4) 0.2434(3) 0.0304(2)
H10 H 0.41500 0.17780 -0.00980
C10 C 0.6006(4) 0.2192(4) 0.0464(2)
H11 H 0.69680 0.13530 0.01830
C11 C 0.6248(4) 0.3187(4) 0.1038(2)
H12 H 0.73810 0.30460 0.11470
C12 C 0.4831(4) 0.4393(3) 0.1456(2)
Cl3 Cl 0.52167(15) 0.93324(14) 0.23278(7)
Cl4 Cl 0.67796(14) 0.98473(13) 0.40083(9)
C13 C 0.5988(4) 0.8586(4) 0.3601(2)
H13 H 0.69250 0.74510 0.36410
H14 H 0.50450 0.85370 0.40760
#END
