
#######################################################################
#
#                 Cambridge Crystallographic Data Centre
#                                CCDC
#
#######################################################################
#
# If this CIF has been generated from an entry in the Cambridge
# Structural Database, then it will include bibliographic, chemical,
# crystal, experimental, refinement or atomic coordinate data resulting
# from the CCDC's data processing and validation procedures.
#
#######################################################################

data_CSD_CIF_QUXXAJ
_audit_creation_date 2010-08-24
_audit_creation_method CSD-ConQuest-V1
_database_code_CSD QUXXAJ
_database_code_depnum_ccdc_archive 'CCDC 786480'
_chemical_formula_sum 'C12 H24 Co1 N2 O8'
_chemical_formula_moiety
;
C12 H24 Co1 N2 O8
;
_journal_coeditor_code "IUCr CV2723"
_journal_coden_Cambridge 1370
_journal_volume 66
_journal_year 2010
_journal_page_first m848
_journal_name_full 'Acta Crystallogr.,Sect.E:Struct.Rep.Online '
loop_
_publ_author_name
"Jiong-Peng Zhao"
"Fu-Chen Liu"
_chemical_name_systematic
;
bis[N,N-bis(2-hydroxyethyl)glycinato]-cobalt(ii)
;
_cell_volume    790.970
_exptl_crystal_colour 'red'
_exptl_crystal_density_diffrn 1.609
_exptl_crystal_description 'block'
_diffrn_ambient_temperature 293
#These two values have been output from a single CSD field.
_refine_ls_R_factor_gt 0.0569
_refine_ls_wR_factor_gt 0.0569
_symmetry_cell_setting monoclinic
_symmetry_space_group_name_H-M 'P 21/c'
_symmetry_Int_Tables_number 14
loop_
_symmetry_equiv_pos_site_id
_symmetry_equiv_pos_as_xyz
1 x,y,z
2 -x,1/2+y,1/2-z
3 -x,-y,-z
4 x,-1/2-y,-1/2+z
_cell_length_a 9.932(2)
_cell_length_b 11.388(2)
_cell_length_c 7.4477(15)
_cell_angle_alpha 90
_cell_angle_beta 110.12(3)
_cell_angle_gamma 90
_cell_formula_units_Z 2
loop_
_atom_type_symbol
_atom_type_radius_bond
C 0.68
H 0.23
Co 1.26
N 0.68
O 0.68
loop_
_atom_site_label
_atom_site_type_symbol
_atom_site_fract_x
_atom_site_fract_y
_atom_site_fract_z
Co1 Co 0.50000 0.50000 0.50000
O1 O 0.0043(3) 0.3365(3) 0.0259(4)
H1 H -0.08460 0.32110 -0.00730
O2 O 0.5173(3) 0.4447(3) 0.7743(4)
H2 H 0.57460 0.38830 0.82180
O3 O 0.2823(3) 0.7874(2) 0.5700(4)
O4 O 0.4555(3) 0.6656(2) 0.5703(4)
N1 N 0.2727(3) 0.4762(2) 0.4479(5)
C1 C 0.0483(4) 0.3862(4) 0.2103(6)
H3 H 0.03770 0.32990 0.30220
H4 H -0.00900 0.45500 0.21180
C2 C 0.2040(4) 0.4198(3) 0.2589(5)
H5 H 0.25790 0.34960 0.25380
H6 H 0.21150 0.47300 0.16100
C3 C 0.2708(4) 0.3967(4) 0.6042(6)
H7 H 0.29180 0.31730 0.57500
H8 H 0.17580 0.39700 0.61370
C4 C 0.3792(4) 0.4339(4) 0.7929(6)
H9 H 0.35100 0.50860 0.83170
H10 H 0.38300 0.37620 0.89020
C5 C 0.2141(4) 0.5937(3) 0.4614(6)
H11 H 0.15540 0.58820 0.54160
H12 H 0.15210 0.61720 0.33470
C6 C 0.3256(4) 0.6887(3) 0.5411(5)
O1B O 0.9957(3) 0.6635(3) 0.9741(4)
H1B H 1.08460 0.67890 1.00730
O2B O 0.4827(3) 0.5553(3) 0.2257(4)
H2B H 0.42540 0.61170 0.17820
O3B O 0.7177(3) 0.2126(2) 0.4300(4)
O4B O 0.5445(3) 0.3344(2) 0.4297(4)
N1B N 0.7273(3) 0.5238(2) 0.5521(5)
C1B C 0.9517(4) 0.6138(4) 0.7897(6)
H3B H 0.96230 0.67010 0.69780
H4B H 1.00900 0.54500 0.78820
C2B C 0.7960(4) 0.5802(3) 0.7411(5)
H5B H 0.74210 0.65040 0.74620
H6B H 0.78850 0.52700 0.83900
C3B C 0.7292(4) 0.6033(4) 0.3958(6)
H7B H 0.70820 0.68270 0.42500
H8B H 0.82420 0.60300 0.38630
C4B C 0.6208(4) 0.5661(4) 0.2071(6)
H9B H 0.64900 0.49140 0.16830
H10B H 0.61700 0.62380 0.10980
C5B C 0.7859(4) 0.4063(3) 0.5386(6)
H11B H 0.84460 0.41180 0.45840
H12B H 0.84790 0.38280 0.66530
C6B C 0.6744(4) 0.3113(3) 0.4589(5)
#END
