
#######################################################################
#
#                 Cambridge Crystallographic Data Centre
#                                CCDC
#
#######################################################################
#
# If this CIF has been generated from an entry in the Cambridge
# Structural Database, then it will include bibliographic, chemical,
# crystal, experimental, refinement or atomic coordinate data resulting
# from the CCDC's data processing and validation procedures.
#
#######################################################################

data_CSD_CIF_RAHXAB
_audit_creation_date 2012-02-24
_audit_creation_method CSD-ConQuest-V1
_database_code_CSD RAHXAB
_database_code_depnum_ccdc_archive 'CCDC 862286'
_database_code_depnum_ccdc_journal 1267/226
_chemical_formula_sum 'C12 H12 Br2 Mn1 N4 O2'
_chemical_formula_moiety
;
C12 H12 Br2 Mn1 N4 O2
;
_journal_coden_Cambridge 1267
_journal_volume 226
_journal_year 2011
_journal_page_first 523
_journal_name_full 'Z.Kristallogr.-New Cryst.Struct. '
loop_
_publ_author_name
"Kwang Ha"
_chemical_name_systematic
;
Dibromo-bis(N-hydroxy-1-(pyridin-2-yl)methanimine)-manganese(ii)
;
_chemical_name_common
;
Dibromo-bis(2-pyridinealdoxime)-manganese(ii)
;
_cell_volume   1522.936
_exptl_crystal_colour 'yellow'
_exptl_crystal_density_diffrn 2.002
_exptl_crystal_description 'block'
_diffrn_ambient_temperature 200
#These two values have been output from a single CSD field.
_refine_ls_R_factor_gt 0.0246
_refine_ls_wR_factor_gt 0.0246
_symmetry_cell_setting monoclinic
_symmetry_space_group_name_H-M 'C 2/c'
_symmetry_Int_Tables_number 15
loop_
_symmetry_equiv_pos_site_id
_symmetry_equiv_pos_as_xyz
1 x,y,z
2 -x,y,1/2-z
3 1/2+x,1/2+y,z
4 1/2-x,1/2+y,1/2-z
5 -x,-y,-z
6 x,-y,-1/2+z
7 -1/2-x,-1/2-y,-z
8 -1/2+x,-1/2-y,-1/2+z
_cell_length_a 7.7491(4)
_cell_length_b 12.9943(7)
_cell_length_c 15.3876(8)
_cell_angle_alpha 90
_cell_angle_beta 100.613(1)
_cell_angle_gamma 90
_cell_formula_units_Z 4
loop_
_atom_type_symbol
_atom_type_radius_bond
C 0.68
H 0.23
Br 1.21
Mn 1.61
N 0.68
O 0.68
loop_
_atom_site_label
_atom_site_type_symbol
_atom_site_fract_x
_atom_site_fract_y
_atom_site_fract_z
Mn1 Mn 0.50000 0.13747(4) 0.25000
Br1 Br 0.24254(4) 0.01044(2) 0.191687(19)
N1 N 0.3568(3) 0.26322(16) 0.15889(14)
N2 N 0.6647(3) 0.18149(17) 0.14463(15)
O1 O 0.8310(3) 0.14552(17) 0.13762(16)
H1 H 0.841(4) 0.098(3) 0.173(2)
C1 C 0.1959(4) 0.2990(2) 0.16029(19)
H2 H 0.13500 0.27330 0.20400
C2 C 0.1132(4) 0.3720(2) 0.10074(19)
H3 H -0.00150 0.39570 0.10390
C3 C 0.2000(4) 0.4094(2) 0.0373(2)
H4 H 0.14600 0.45890 -0.00440
C4 C 0.3681(4) 0.3737(2) 0.03472(19)
H5 H 0.43110 0.39860 -0.00840
C5 C 0.4412(3) 0.30124(19) 0.09635(17)
C6 C 0.6147(3) 0.2582(2) 0.09502(18)
H6 H 0.68820 0.28660 0.05810
Br1A Br 0.75746(4) 0.01044(2) 0.308313(19)
N1A N 0.6432(3) 0.26322(16) 0.34111(14)
N2A N 0.3353(3) 0.18149(17) 0.35537(15)
O1A O 0.1690(3) 0.14552(17) 0.36238(16)
H1A H 0.159(4) 0.098(3) 0.327(2)
C1A C 0.8041(4) 0.2990(2) 0.33971(19)
H2A H 0.86500 0.27330 0.29600
C2A C 0.8868(4) 0.3720(2) 0.39926(19)
H3A H 1.00150 0.39570 0.39610
C3A C 0.8000(4) 0.4094(2) 0.4627(2)
H4A H 0.85400 0.45890 0.50440
C4A C 0.6319(4) 0.3737(2) 0.46528(19)
H5A H 0.56890 0.39860 0.50840
C5A C 0.5588(3) 0.30124(19) 0.40365(17)
C6A C 0.3853(3) 0.2582(2) 0.40498(18)
H6A H 0.31180 0.28660 0.44190
#END
