
#######################################################################
#
#                 Cambridge Crystallographic Data Centre
#                                CCDC
#
#######################################################################
#
# If this CIF has been generated from an entry in the Cambridge
# Structural Database, then it will include bibliographic, chemical,
# crystal, experimental, refinement or atomic coordinate data resulting
# from the CCDC's data processing and validation procedures.
#
#######################################################################

data_CSD_CIF_RAMFIV01
_audit_creation_date 2005-10-06
_audit_creation_method CSD-ConQuest-V1
_database_code_CSD RAMFIV01
_database_code_depnum_ccdc_archive 'CCDC 257843'
_chemical_formula_sum 'C12 H12 Co1 N2 O8'
_chemical_formula_moiety
;
C12 H12 Co1 N2 O8
;
_journal_coden_Cambridge 525
_journal_volume 99
_journal_year 2005
_journal_page_first 1275
_journal_name_full 'J.Inorg.Biochem. '
loop_
_publ_author_name
"M.Nakai"
"F.Sekiguchi"
"M.Obata"
"C.Ohtsuki"
"Y.Adachi"
"H.Sakurai"
"C.Orvig"
"D.Rehder"
"S.Yano"
_chemical_name_systematic
;
Diaqua-bis(3-hydroxypyridine-2-carboxylato-N,O)-cobalt(ii)
;
_cell_volume    716.744
_exptl_crystal_colour 'pale orange'
_exptl_crystal_density_diffrn 1.72
_exptl_crystal_description 'platelet'
_diffrn_ambient_temperature 173.1
#These two values have been output from a single CSD field.
_refine_ls_R_factor_gt 0.039
_refine_ls_wR_factor_gt 0.039
_symmetry_cell_setting monoclinic
_symmetry_space_group_name_H-M 'P 21/a'
_symmetry_Int_Tables_number 14
loop_
_symmetry_equiv_pos_site_id
_symmetry_equiv_pos_as_xyz
1 x,y,z
2 1/2-x,1/2+y,-z
3 -x,-y,-z
4 -1/2+x,-1/2-y,z
_cell_length_a 6.8330(5)
_cell_length_b 9.1414(8)
_cell_length_c 11.4807(10)
_cell_angle_alpha 90
_cell_angle_beta 91.859(5)
_cell_angle_gamma 90
_cell_formula_units_Z 2
loop_
_atom_type_symbol
_atom_type_radius_bond
C 0.68
H 0.23
Co 1.33
N 0.68
O 0.68
loop_
_atom_site_label
_atom_site_type_symbol
_atom_site_fract_x
_atom_site_fract_y
_atom_site_fract_z
Co1 Co 0.50000 0.50000 0.00000
O1 O 0.5323(2) 0.2824(2) 0.05785(13)
O2 O 0.4576(3) 0.1335(2) 0.20484(13)
O3 O 0.3591(3) 0.2425(2) 0.4003(2)
O4 O 0.7836(2) 0.5551(2) 0.0526(2)
N1 N 0.4143(4) 0.5175(2) 0.1760(2)
C1 C 0.4168(3) 0.3872(3) 0.2313(2)
C2 C 0.3604(4) 0.3738(3) 0.3469(2)
C3 C 0.3040(5) 0.4981(2) 0.4053(3)
C4 C 0.3024(5) 0.6306(4) 0.3484(2)
C5 C 0.3596(4) 0.6361(3) 0.2323(2)
C6 C 0.4724(3) 0.2577(2) 0.1602(2)
H1 H 0.86960 0.53780 -0.00940
H2 H 0.78780 0.65570 0.07320
H3 H 0.26600 0.49240 0.48400
H4 H 0.26370 0.71720 0.38720
H5 H 0.35760 0.72750 0.19280
H6 H 0.33140 0.16820 0.34440
O1B O 0.4677(2) 0.7176(2) -0.05785(13)
O2B O 0.5424(3) 0.8665(2) -0.20484(13)
O3B O 0.6409(3) 0.7575(2) -0.4003(2)
O4B O 0.2164(2) 0.4449(2) -0.0526(2)
N1B N 0.5857(4) 0.4825(2) -0.1760(2)
C1B C 0.5832(3) 0.6128(3) -0.2313(2)
C2B C 0.6396(4) 0.6262(3) -0.3469(2)
C3B C 0.6960(5) 0.5019(2) -0.4053(3)
C4B C 0.6976(5) 0.3694(4) -0.3484(2)
C5B C 0.6404(4) 0.3639(3) -0.2323(2)
C6B C 0.5276(3) 0.7423(2) -0.1602(2)
H1B H 0.13040 0.46220 0.00940
H2B H 0.21220 0.34430 -0.07320
H3B H 0.73400 0.50760 -0.48400
H4B H 0.73630 0.28280 -0.38720
H5B H 0.64240 0.27250 -0.19280
H6B H 0.66860 0.83180 -0.34440
#END
