
#######################################################################
#
#                 Cambridge Crystallographic Data Centre
#                                CCDC
#
#######################################################################
#
# If this CIF has been generated from an entry in the Cambridge
# Structural Database, then it will include bibliographic, chemical,
# crystal, experimental, refinement or atomic coordinate data resulting
# from the CCDC's data processing and validation procedures.
#
#######################################################################

data_CSD_CIF_RAMFIV
_audit_creation_date 2005-08-18
_audit_creation_method CSD-ConQuest-V1
_database_code_CSD RAMFIV
_database_code_depnum_ccdc_archive 'CCDC 241918'
_chemical_formula_sum 'C12 H12 Co1 N2 O8'
_chemical_formula_moiety
;
C12 H12 Co1 N2 O8
;
_journal_coden_Cambridge 580
_journal_volume 24
_journal_year 2005
_journal_page_first 563
_journal_name_full 'Polyhedron '
loop_
_publ_author_name
"P.I.Girginova"
"F.A.A.Paz"
"H.I.S.Nogueira"
"N.J.O.Silva"
"V.S.Amaral"
"J.Klinowski"
"T.Trindade"
_chemical_name_systematic
;
trans-Diaqua-bis(3-hydroxypicolinato-N,O)-cobalt(ii)
;
_chemical_melting_point 433.15
_cell_volume    717.670
_exptl_crystal_colour 'brown'
_exptl_crystal_density_diffrn 1.718
_exptl_crystal_description 'block'
_diffrn_ambient_temperature 180
#These two values have been output from a single CSD field.
_refine_ls_R_factor_gt 0.0277
_refine_ls_wR_factor_gt 0.0277
_symmetry_cell_setting monoclinic
_symmetry_space_group_name_H-M 'P 21/c'
_symmetry_Int_Tables_number 14
loop_
_symmetry_equiv_pos_site_id
_symmetry_equiv_pos_as_xyz
1 x,y,z
2 -x,1/2+y,1/2-z
3 -x,-y,-z
4 x,-1/2-y,-1/2+z
_cell_length_a 11.491(2)
_cell_length_b 9.1413(18)
_cell_length_c 6.8357(14)
_cell_angle_alpha 90
_cell_angle_beta 91.84(3)
_cell_angle_gamma 90
_cell_formula_units_Z 2
loop_
_atom_type_symbol
_atom_type_radius_bond
C 0.68
H 0.23
Co 1.33
N 0.68
O 0.68
loop_
_atom_site_label
_atom_site_type_symbol
_atom_site_fract_x
_atom_site_fract_y
_atom_site_fract_z
Co1 Co 0.00000 1.00000 0.00000
O1 O 0.05270(11) 1.05624(14) 0.28391(17)
H1 H 0.1006(17) 0.9968(19) 0.360(3)
H2 H 0.0099(16) 1.1219(19) 0.355(3)
O2 O 0.05837(10) 0.78217(12) 0.03230(16)
O3 O 0.20452(10) 0.63344(13) -0.04271(17)
O4 O 0.39995(11) 0.74250(15) -0.1418(2)
H3 H 0.35240 0.67650 -0.11370
C1 C 0.34627(14) 0.8731(2) -0.1398(2)
C2 C 0.15975(14) 0.75838(17) -0.0268(2)
C3 C 0.23084(13) 0.88760(18) -0.0833(2)
C4 C 0.40528(16) 0.9985(2) -0.1957(3)
H4 H 0.48420 0.99300 -0.23260
C5 C 0.34803(16) 1.1306(2) -0.1971(3)
H5 H 0.38670 1.21720 -0.23590
N1 N 0.17577(12) 1.01704(15) -0.0846(2)
C6 C 0.23244(16) 1.1361(2) -0.1406(3)
H6 H 0.19310 1.22750 -0.14230
O1B O -0.05270(11) 0.94376(14) -0.28391(17)
H1B H -0.1006(17) 1.0032(19) -0.360(3)
H2B H -0.0099(16) 0.8781(19) -0.355(3)
O2B O -0.05837(10) 1.21783(12) -0.03230(16)
O3B O -0.20452(10) 1.36656(13) 0.04271(17)
O4B O -0.39995(11) 1.25750(15) 0.1418(2)
H3B H -0.35240 1.32350 0.11370
C1B C -0.34627(14) 1.1269(2) 0.1398(2)
C2B C -0.15975(14) 1.24162(17) 0.0268(2)
C3B C -0.23084(13) 1.11240(18) 0.0833(2)
C4B C -0.40528(16) 1.0015(2) 0.1957(3)
H4B H -0.48420 1.00700 0.23260
C5B C -0.34803(16) 0.8694(2) 0.1971(3)
H5B H -0.38670 0.78280 0.23590
N1B N -0.17577(12) 0.98296(15) 0.0846(2)
C6B C -0.23244(16) 0.8639(2) 0.1406(3)
H6B H -0.19310 0.77250 0.14230
#END
