
#######################################################################
#
#                 Cambridge Crystallographic Data Centre
#                                CCDC
#
#######################################################################
#
# If this CIF has been generated from an entry in the Cambridge
# Structural Database, then it will include bibliographic, chemical,
# crystal, experimental, refinement or atomic coordinate data resulting
# from the CCDC's data processing and validation procedures.
#
#######################################################################

data_CSD_CIF_RAPXOY
_audit_creation_date 2017-01-19
_audit_creation_method CSD-ConQuest-V1
_database_code_CSD RAPXOY
_database_code_depnum_ccdc_archive 'CCDC 870871'
_chemical_formula_sum 'C12 H18 F12 Fe1 N6 P2'
_chemical_formula_moiety
;
C12 H18 Fe1 N6 2+,2(F6 P1 1-)
;
_journal_coden_Cambridge 1475
_journal_volume 4
_journal_year 2013
_journal_page_first 68
_journal_name_full 'Chemical Science '
loop_
_publ_author_name
"J.K.Clegg"
"J.Cremers"
"A.J.Hogben"
"B.Breiner"
"M.M.J.Smulders"
"J.D.Thoburn"
"J.R.Nitschke"
_chemical_name_systematic
;
hexakis(acetonitrile)-iron(ii) bis(hexafluorophosphate)
;
_cell_volume   1809.256
_exptl_crystal_colour 'colorless'
_exptl_crystal_density_diffrn 1.63
_exptl_crystal_description 'block'
_diffrn_ambient_temperature 180
#These two values have been output from a single CSD field.
_refine_ls_R_factor_gt 0.0756
_refine_ls_wR_factor_gt 0.0756
_symmetry_cell_setting rhombohedral
_symmetry_space_group_name_H-M 'R -3'
_symmetry_Int_Tables_number 148
loop_
_symmetry_equiv_pos_site_id
_symmetry_equiv_pos_as_xyz
1 x,y,z
2 -y,x-y,z
3 -x+y,-x,z
4 2/3+x,1/3+y,1/3+z
5 2/3-y,1/3+x-y,1/3+z
6 2/3-x+y,1/3-x,1/3+z
7 1/3+x,2/3+y,2/3+z
8 1/3-y,2/3+x-y,2/3+z
9 1/3-x+y,2/3-x,2/3+z
10 -x,-y,-z
11 y,-x+y,-z
12 x-y,x,-z
13 -2/3-x,-1/3-y,-1/3-z
14 -2/3+y,-1/3-x+y,-1/3-z
15 -2/3+x-y,-1/3+x,-1/3-z
16 -1/3-x,-2/3-y,-2/3-z
17 -1/3+y,-2/3-x+y,-2/3-z
18 -1/3+x-y,-2/3+x,-2/3-z
_cell_length_a 11.2049(16)
_cell_length_b 11.2049(16)
_cell_length_c 16.640(3)
_cell_angle_alpha 90
_cell_angle_beta 90
_cell_angle_gamma 120
_cell_formula_units_Z 3
loop_
_atom_type_symbol
_atom_type_radius_bond
C 0.68
H 0.23
F 0.64
Fe 1.52
N 0.68
P 1.05
loop_
_atom_site_label
_atom_site_type_symbol
_atom_site_fract_x
_atom_site_fract_y
_atom_site_fract_z
C1 C 0.4151(3) 0.0852(3) 0.23050(19)
C2 C 0.3027(4) -0.0304(4) 0.1892(3)
H1 H 0.31100 -0.01260 0.13120
H2 H 0.21460 -0.04230 0.20830
H3 H 0.30650 -0.11430 0.20020
N1 N 0.5039(3) 0.1758(3) 0.26205(16)
Fe1 Fe 0.66670 0.33330 0.33330
F1 F 0.5475(5) 0.2190(5) 0.0563(3)
F2 F 0.5500(5) 0.3343(6) -0.0443(3)
P1 P 0.66670 0.33330 0.00395(8)
C1A C 0.9148(3) 0.3299(3) 0.23050(19)
C2A C 1.0304(4) 0.3331(4) 0.1892(3)
H1A H 1.01260 0.32360 0.13120
H2A H 1.04230 0.25690 0.20830
H3A H 1.11430 0.42080 0.20020
N1A N 0.8242(3) 0.3281(3) 0.26205(16)
C1B C 0.6701(3) 0.5849(3) 0.23050(19)
C2B C 0.6669(4) 0.6973(4) 0.1892(3)
H1B H 0.67640 0.68900 0.13120
H2B H 0.74310 0.78540 0.20830
H3B H 0.57920 0.69350 0.20020
N1B N 0.6719(3) 0.4961(3) 0.26205(16)
C1L C 0.918233(300) 0.581467(300) 0.436167(190)
C2L C 1.030633(400) 0.697067(400) 0.477467(300)
H1L H 1.02233 0.67927 0.53547
H2L H 1.11873 0.70897 0.45837
H3L H 1.02683 0.78097 0.46647
N1L N 0.829433(300) 0.490867(300) 0.404617(160)
C1M C 0.418533(300) 0.336767(300) 0.436167(190)
C2M C 0.302933(400) 0.333567(400) 0.477467(300)
H1M H 0.32073 0.34307 0.53547
H2M H 0.29103 0.40977 0.45837
H3M H 0.21903 0.24587 0.46647
N1M N 0.509133(300) 0.338567(300) 0.404617(160)
C1N C 0.663233(300) 0.081767(300) 0.436167(190)
C2N C 0.666433(400) -0.030633(400) 0.477467(300)
H1N H 0.65693 -0.02233 0.53547
H2N H 0.59023 -0.11873 0.45837
H3N H 0.75413 -0.02683 0.46647
N1N N 0.661433(300) 0.170567(300) 0.404617(160)
F1A F 0.7810(5) 0.3285(5) 0.0563(3)
F2A F 0.6657(5) 0.2157(6) -0.0443(3)
F1B F 0.6715(5) 0.4525(5) 0.0563(3)
F2B F 0.7843(5) 0.4500(6) -0.0443(3)
#END
