
#######################################################################
#
#                 Cambridge Crystallographic Data Centre
#                                CCDC
#
#######################################################################
#
# If this CIF has been generated from an entry in the Cambridge
# Structural Database, then it will include bibliographic, chemical,
# crystal, experimental, refinement or atomic coordinate data resulting
# from the CCDC's data processing and validation procedures.
#
#######################################################################

data_CSD_CIF_RATDUM
_audit_creation_date 2005-11-21
_audit_creation_method CSD-ConQuest-V1
_database_code_CSD RATDUM
_database_code_depnum_ccdc_archive 'CCDC 271428'
_chemical_formula_sum 'C10 H5 Cr1 I1 O4'
_chemical_formula_moiety
;
C10 H5 Cr1 I1 O4
;
_journal_coden_Cambridge 1078
_journal_year 2005
_journal_name_full 'CSD Communication(Private Communication) '
loop_
_publ_author_name
"M.Ansorge"
"T.J.J.Muller"
"K.Polborn"
_chemical_name_systematic
;
Tricarbonyl-(\h^6^-2-iodobenzaldehyde)-chromium
;
_cell_volume    574.216
_exptl_crystal_colour 'orange'
_exptl_crystal_density_diffrn 2.129
_exptl_special_details
;
contribution from Department Chemie, Universitat Munchen, Butenandtstr. 5-13, 
81377 Munchen, Germany
;
_exptl_crystal_description 'platelet'
_diffrn_ambient_temperature 295
#These two values have been output from a single CSD field.
_refine_ls_R_factor_gt 0.0271
_refine_ls_wR_factor_gt 0.0271
_symmetry_cell_setting triclinic
_symmetry_space_group_name_H-M 'P -1'
_symmetry_Int_Tables_number 2
loop_
_symmetry_equiv_pos_site_id
_symmetry_equiv_pos_as_xyz
1 x,y,z
2 -x,-y,-z
_cell_length_a 7.4426(9)
_cell_length_b 7.7686(13)
_cell_length_c 10.161(11)
_cell_angle_alpha 86.383(11)
_cell_angle_beta 79.229(10)
_cell_angle_gamma 84.907(12)
_cell_formula_units_Z 2
loop_
_atom_type_symbol
_atom_type_radius_bond
C 0.68
H 0.23
Cr 1.35
I 1.40
O 0.68
loop_
_atom_site_label
_atom_site_type_symbol
_atom_site_fract_x
_atom_site_fract_y
_atom_site_fract_z
I1 I 0.68270(5) 0.29626(5) 0.94491(3)
Cr1 Cr 0.89409(9) 0.23835(8) 1.26779(7)
O1 O 0.9924(8) -0.1271(6) 1.3573(5)
O2 O 1.1599(6) 0.1743(6) 1.0135(4)
O3 O 1.2031(6) 0.3626(7) 1.3762(6)
O4 O 0.4945(6) -0.0835(6) 1.2945(4)
C1 C 0.9560(8) 0.0126(7) 1.3252(5)
C2 C 1.0570(7) 0.1984(6) 1.1109(5)
C3 C 1.0841(7) 0.3132(7) 1.3355(6)
C4 C 0.6791(6) 0.3169(6) 1.1514(4)
C5 C 0.6159(6) 0.1882(6) 1.2476(5)
C6 C 0.6181(6) 0.2151(7) 1.3837(5)
H1 H 0.57560 0.13110 1.44860
C7 C 0.6811(7) 0.3615(7) 1.4235(5)
H2 H 0.68110 0.37600 1.51360
C8 C 0.7449(7) 0.4879(7) 1.3260(5)
H3 H 0.78920 0.58650 1.35150
C9 C 0.7427(7) 0.4675(6) 1.1909(5)
H4 H 0.78310 0.55330 1.12700
C10 C 0.5514(8) 0.0233(8) 1.2148(6)
H5 H 0.55660 0.00340 1.12490
#END
