
#######################################################################
#
#                 Cambridge Crystallographic Data Centre
#                                CCDC
#
#######################################################################
#
# If this CIF has been generated from an entry in the Cambridge
# Structural Database, then it will include bibliographic, chemical,
# crystal, experimental, refinement or atomic coordinate data resulting
# from the CCDC's data processing and validation procedures.
#
#######################################################################

data_CSD_CIF_RAYVUI
_audit_creation_date 1997-08-25
_audit_creation_method CSD-ConQuest-V1
_database_code_CSD RAYVUI
_database_code_depnum_ccdc_fiz 'CSD 59185'
_chemical_formula_sum 'C17 H22 Fe1 N2 O1'
_chemical_formula_moiety
;
C17 H22 Fe1 N2 O1
;
_journal_coden_Cambridge 1088
_journal_volume 1996
_journal_year 1996
_journal_page_first 126
_journal_name_full 'Synlett '
loop_
_publ_author_name
"D.Enders"
"R.Lochtman"
"G.Raabe"
_chemical_name_systematic
;
(S)-N-(2-Methoxymethylpyrrolidinyl)-ferrocenylmethylimine
;
_chemical_melting_point 332.15
_cell_volume    781.333
_exptl_crystal_colour 'orange'
_exptl_crystal_density_diffrn 1.387
_diffrn_ambient_temperature ?
_diffrn_special_details
;
The study was carried out at room temperature,in the range 283-303K

;
#These two values have been output from a single CSD field.
_refine_ls_R_factor_gt 0.053
_refine_ls_wR_factor_gt 0.053
_symmetry_cell_setting monoclinic
_symmetry_space_group_name_H-M 'P 21'
_symmetry_Int_Tables_number 4
loop_
_symmetry_equiv_pos_site_id
_symmetry_equiv_pos_as_xyz
1 x,y,z
2 -x,1/2+y,-z
_cell_length_a 7.573(6)
_cell_length_b 9.683(3)
_cell_length_c 11.094(6)
_cell_angle_alpha 90
_cell_angle_beta 106.17(3)
_cell_angle_gamma 90
_cell_formula_units_Z 2
loop_
_atom_type_symbol
_atom_type_radius_bond
C 0.68
H 0.23
Fe 1.34
N 0.68
O 0.68
loop_
_atom_site_label
_atom_site_type_symbol
_atom_site_fract_x
_atom_site_fract_y
_atom_site_fract_z
Fe1 Fe -0.0986(1) 1.00093 0.22888(7)
O1 O 0.5781(8) 0.4257(7) 0.1670(5)
N1 N 0.3346(8) 0.5784(7) 0.2820(7)
N2 N 0.2824(8) 0.7066(6) 0.2443(6)
C1 C 0.656(1) 0.418(1) 0.0674(7)
C2 C 0.6353(9) 0.5419(8) 0.2433(7)
C3 C 0.5337(9) 0.5518(8) 0.3420(7)
C4 C 0.530(1) 0.421(1) 0.4184(7)
C5 C 0.346(1) 0.349(1) 0.3507(8)
C6 C 0.2163(9) 0.4676(7) 0.2996(7)
C7 C 0.1093(9) 0.7307(7) 0.1996(6)
C8 C 0.043(1) 0.8662(9) 0.1496(7)
C9 C -0.132(1) 0.8920(9) 0.0684(7)
C10 C -0.145(1) 1.0362(9) 0.0426(7)
C11 C 0.019(2) 1.098(1) 0.1066(9)
C12 C 0.1370(8) 0.993(1) 0.1748(6)
C13 C -0.131(2) 0.916(1) 0.386(1)
C14 C -0.303(2) 0.949(1) 0.306(1)
C15 C -0.309(2) 1.089(1) 0.283(1)
C16 C -0.139(1) 1.1476(9) 0.3511(9)
C17 C -0.032(1) 1.040(1) 0.4139(7)
H1 H -0.39270 0.89070 0.26630
H2 H -0.41640 1.14460 0.22640
H3 H -0.10390 1.24260 0.34470
H4 H 0.08360 1.05140 0.46720
H5 H -0.07980 0.82330 0.41830
H6 H -0.23590 0.81690 0.03430
H7 H -0.24540 1.08250 -0.00680
H8 H 0.03680 1.19100 0.10580
H9 H 0.25970 0.99880 0.23130
H10 H 0.00090 0.65570 0.18810
H11 H 0.13800 0.48660 0.35840
H12 H 0.11780 0.44420 0.21020
H13 H 0.30170 0.29680 0.41340
H14 H 0.35250 0.28830 0.27690
H15 H 0.54900 0.43940 0.50610
H16 H 0.64660 0.35870 0.41300
H17 H 0.59200 0.62550 0.18010
H18 H 0.77010 0.52950 0.28380
H19 H 0.58760 0.63230 0.39580
H20 H 0.60170 0.49880 0.01560
H21 H 0.79280 0.41840 0.10340
H22 H 0.61090 0.33950 0.02130
#END
