
#######################################################################
#
#                 Cambridge Crystallographic Data Centre
#                                CCDC
#
#######################################################################
#
# If this CIF has been generated from an entry in the Cambridge
# Structural Database, then it will include bibliographic, chemical,
# crystal, experimental, refinement or atomic coordinate data resulting
# from the CCDC's data processing and validation procedures.
#
#######################################################################

data_CSD_CIF_REDSEZ01
_audit_creation_date 2006-06-21
_audit_creation_method CSD-ConQuest-V1
_database_code_CSD REDSEZ01
_database_code_depnum_ccdc_archive 'CCDC 271480'
_chemical_formula_sum 'C26 H28 Co1 N10'
_chemical_formula_moiety
;
(C26 H28 Co1 N10)n
;
_journal_coden_Cambridge 1295
_journal_volume 9
_journal_year 2006
_journal_page_first 212
_journal_name_full 'Inorg.Chem.Commun. '
loop_
_publ_author_name
"En-Qing Gao"
"Yan-Xia Xu"
"Ai-Ling Cheng"
"Ming-Yuan He"
"Chun-Hua Yan"
_chemical_name_systematic
;
catena-(bis(\m~2~-1,3-bis(4-Pyridyl)propane)-diazido-cobalt(ii))
;
_cell_volume   1407.674
_exptl_crystal_colour 'red'
_exptl_crystal_density_diffrn 1.273
_exptl_special_details
;
polymorph 1

;
_exptl_crystal_description 'flake'
_diffrn_ambient_temperature 293
#These two values have been output from a single CSD field.
_refine_ls_R_factor_gt 0.0352
_refine_ls_wR_factor_gt 0.0352
_symmetry_cell_setting monoclinic
_symmetry_space_group_name_H-M 'C 2/m'
_symmetry_Int_Tables_number 12
loop_
_symmetry_equiv_pos_site_id
_symmetry_equiv_pos_as_xyz
1 x,y,z
2 1/2+x,1/2+y,z
3 -x,y,-z
4 1/2-x,1/2+y,-z
5 -x,-y,-z
6 -1/2-x,-1/2-y,-z
7 x,-y,z
8 -1/2+x,-1/2-y,z
_cell_length_a 16.9151(5)
_cell_length_b 12.9743(4)
_cell_length_c 6.8516(2)
_cell_angle_alpha 90
_cell_angle_beta 110.5831(12)
_cell_angle_gamma 90
_cell_formula_units_Z 2
loop_
_atom_type_symbol
_atom_type_radius_bond
C 0.68
H 0.23
Co 1.33
N 0.68
loop_
_atom_site_label
_atom_site_type_symbol
_atom_site_fract_x
_atom_site_fract_y
_atom_site_fract_z
Co1 Co 0.00000 0.00000 0.00000
N1 N 0.07401(11) 0.00000 -0.1914(2)
N2 N 0.14906(13) 0.00000 -0.1408(3)
N3 N 0.22164(13) 0.00000 -0.0966(3)
N4 N 0.07664(8) 0.12453(10) 0.19067(17)
C1 C 0.11076(10) 0.19670(13) 0.1039(2)
H1 H 0.10890 0.18580 -0.03180
C2 C 0.14822(10) 0.28567(13) 0.2025(2)
H2 H 0.17140 0.33230 0.13460
C3 C 0.15121(10) 0.30561(13) 0.4052(2)
C4 C 0.11697(10) 0.23056(13) 0.4955(2)
H3 H 0.11770 0.23960 0.63080
C5 C 0.08171(10) 0.14240(13) 0.3866(2)
H4 H 0.06040 0.09300 0.45320
C6 C 0.19019(10) 0.40281(13) 0.5155(2)
H5 H 0.24790 0.40730 0.51910
H6 H 0.19190 0.39950 0.65840
C7 C 0.14279(15) 0.50000 0.4133(3)
H7 H 0.13540 0.50000 0.26640
H8 H 0.08720 0.50000 0.42460
Co1* Co 0.00000 1.00000 0.00000
Co1** Co 0.00000 -1.00000 0.00000
N1B N -0.07401(11) 0.00000 0.1914(2)
N2B N -0.14906(13) 0.00000 0.1408(3)
N3B N -0.22164(13) 0.00000 0.0966(3)
N4F N 0.07664(8) 0.87547(10) 0.19067(17)
N4F* N 0.07664(8) -0.12453(10) 0.19067(17)
N4* N 0.07664(8) -0.87547(10) 0.19067(17)
N4D N -0.07664(8) -0.12453(10) -0.19067(17)
N4B N -0.07664(8) 0.12453(10) -0.19067(17)
C1F C 0.11076(10) 0.80330(13) 0.1039(2)
C1F* C 0.11076(10) -0.19670(13) 0.1039(2)
C1* C 0.11076(10) -0.80330(13) 0.1039(2)
H1F H 0.10890 0.81420 -0.03180
H1F* H 0.10890 -0.18580 -0.03180
H1* H 0.10890 -0.81420 -0.03180
C2F C 0.14822(10) 0.71433(13) 0.2025(2)
C2F* C 0.14822(10) -0.28567(13) 0.2025(2)
C2* C 0.14822(10) -0.71433(13) 0.2025(2)
H2F H 0.17140 0.66770 0.13460
H2F* H 0.17140 -0.33230 0.13460
H2* H 0.17140 -0.66770 0.13460
C3F C 0.15121(10) 0.69439(13) 0.4052(2)
C3F* C 0.15121(10) -0.30561(13) 0.4052(2)
C3* C 0.15121(10) -0.69439(13) 0.4052(2)
C4F C 0.11697(10) 0.76944(13) 0.4955(2)
C4F* C 0.11697(10) -0.23056(13) 0.4955(2)
C4* C 0.11697(10) -0.76944(13) 0.4955(2)
H3F H 0.11770 0.76040 0.63080
H3F* H 0.11770 -0.23960 0.63080
H3* H 0.11770 -0.76040 0.63080
C5F C 0.08171(10) 0.85760(13) 0.3866(2)
C5F* C 0.08171(10) -0.14240(13) 0.3866(2)
C5* C 0.08171(10) -0.85760(13) 0.3866(2)
H4F H 0.06040 0.90700 0.45320
H4F* H 0.06040 -0.09300 0.45320
H4* H 0.06040 -0.90700 0.45320
C6F C 0.19019(10) 0.59719(13) 0.5155(2)
C6F* C 0.19019(10) -0.40281(13) 0.5155(2)
C6* C 0.19019(10) -0.59719(13) 0.5155(2)
H5F H 0.24790 0.59270 0.51910
H5F* H 0.24790 -0.40730 0.51910
H5* H 0.24790 -0.59270 0.51910
H6F H 0.19190 0.60050 0.65840
H6F* H 0.19190 -0.39950 0.65840
H6* H 0.19190 -0.60050 0.65840
C7* C 0.14279(15) -0.50000 0.4133(3)
H7* H 0.13540 -0.50000 0.26640
H8* H 0.08720 -0.50000 0.42460
#END
