
#######################################################################
#
#                 Cambridge Crystallographic Data Centre
#                                CCDC
#
#######################################################################
#
# If this CIF has been generated from an entry in the Cambridge
# Structural Database, then it will include bibliographic, chemical,
# crystal, experimental, refinement or atomic coordinate data resulting
# from the CCDC's data processing and validation procedures.
#
#######################################################################

data_CSD_CIF_RENGAV
_audit_creation_date 2017-10-12
_audit_creation_method CSD-ConQuest-V1
_database_code_CSD RENGAV
_database_code_depnum_ccdc_archive 'CCDC 1579704'
_chemical_formula_sum 'C16 H38 Fe1 N2'
_chemical_formula_moiety
;
C16 H38 Fe1 N2
;
_journal_coden_Cambridge 4
_journal_volume 139
_journal_year 2017
_journal_page_first 12145
_journal_name_full 'J.Am.Chem.Soc. '
loop_
_publ_author_name
"B.P.Jacobs"
"P.T.Wolczanski"
"Quan Jiang"
"T.R.Cundari"
"S.N.MacMillan"
_chemical_name_systematic
;
bis(2,2-dimethylpropyl)-(N^1^,N^1^,N^2^,N^2^-tetramethylethane-1,2-diamine)-ir
on(ii)
;
_cell_volume   1972.025
_exptl_crystal_colour 'colorless'
_exptl_crystal_density_diffrn 1.059
_exptl_crystal_description 'Block'
_diffrn_ambient_temperature 223
#These two values have been output from a single CSD field.
_refine_ls_R_factor_gt 0.0293
_refine_ls_wR_factor_gt 0.0293
_symmetry_cell_setting monoclinic
_symmetry_space_group_name_H-M 'C 2/c'
_symmetry_Int_Tables_number 15
loop_
_symmetry_equiv_pos_site_id
_symmetry_equiv_pos_as_xyz
1 x,y,z
2 -x,y,1/2-z
3 1/2+x,1/2+y,z
4 1/2-x,1/2+y,1/2-z
5 -x,-y,-z
6 x,-y,-1/2+z
7 -1/2-x,-1/2-y,-z
8 -1/2+x,-1/2-y,-1/2+z
_cell_length_a 17.2426(10)
_cell_length_b 9.4301(6)
_cell_length_c 12.7070(7)
_cell_angle_alpha 90
_cell_angle_beta 107.361(3)
_cell_angle_gamma 90
_cell_formula_units_Z 4
loop_
_atom_type_symbol
_atom_type_radius_bond
C 0.68
H 0.23
Fe 1.52
N 0.68
loop_
_atom_site_label
_atom_site_type_symbol
_atom_site_fract_x
_atom_site_fract_y
_atom_site_fract_z
Fe1 Fe 0.50000 0.40801(2) 0.75000
N1 N 0.47633(7) 0.22031(12) 0.62950(9)
C1 C 0.38899(10) 0.1984(2) 0.57320(15)
H1 H 0.38170 0.11220 0.52970
H2 H 0.36790 0.27850 0.52530
H3 H 0.36000 0.19020 0.62770
C2 C 0.51784(11) 0.24129(18) 0.54432(12)
H4 H 0.57560 0.25410 0.57960
H5 H 0.49600 0.32470 0.50090
H6 H 0.50920 0.15890 0.49660
C3 C 0.51091(12) 0.09549(14) 0.69653(13)
H7 H 0.57020 0.09610 0.71270
H8 H 0.49000 0.00900 0.65500
C4 C 0.60926(8) 0.48621(14) 0.73379(11)
H9 H 0.64450 0.40350 0.73830
H10 H 0.59670 0.52170 0.65800
C5 C 0.66241(8) 0.60036(14) 0.80729(13)
C6 C 0.61606(11) 0.73934(17) 0.79839(16)
H11 H 0.56910 0.72570 0.82450
H12 H 0.59820 0.76990 0.72200
H13 H 0.65130 0.81100 0.84300
C7 C 0.73897(12) 0.6277(3) 0.7733(2)
H14 H 0.72380 0.66230 0.69800
H15 H 0.76940 0.54020 0.77830
H16 H 0.77230 0.69800 0.82200
C8 C 0.68823(13) 0.5543(2) 0.92811(16)
H17 H 0.72080 0.62840 0.97330
H18 H 0.72000 0.46780 0.93640
H19 H 0.64030 0.53740 0.95140
N1A N 0.52367(7) 0.22031(12) 0.87050(9)
C1A C 0.61101(10) 0.1984(2) 0.92680(15)
H1A H 0.61830 0.11220 0.97030
H2A H 0.63210 0.27850 0.97470
H3A H 0.64000 0.19020 0.87230
C2A C 0.48216(11) 0.24129(18) 0.95568(12)
H4A H 0.42440 0.25410 0.92040
H5A H 0.50400 0.32470 0.99910
H6A H 0.49080 0.15890 1.00340
C3A C 0.48909(12) 0.09549(14) 0.80347(13)
H7A H 0.42980 0.09610 0.78730
H8A H 0.51000 0.00900 0.84500
C4A C 0.39074(8) 0.48621(14) 0.76621(11)
H9A H 0.35550 0.40350 0.76170
H10A H 0.40330 0.52170 0.84200
C5A C 0.33759(8) 0.60036(14) 0.69271(13)
C6A C 0.38394(11) 0.73934(17) 0.70161(16)
H11A H 0.43090 0.72570 0.67550
H12A H 0.40180 0.76990 0.77800
H13A H 0.34870 0.81100 0.65700
C7A C 0.26103(12) 0.6277(3) 0.7267(2)
H14A H 0.27620 0.66230 0.80200
H15A H 0.23060 0.54020 0.72170
H16A H 0.22770 0.69800 0.67800
C8A C 0.31177(13) 0.5543(2) 0.57189(16)
H17A H 0.27920 0.62840 0.52670
H18A H 0.28000 0.46780 0.56360
H19A H 0.35970 0.53740 0.54860
#END
