
#######################################################################
#
#                 Cambridge Crystallographic Data Centre
#                                CCDC
#
#######################################################################
#
# If this CIF has been generated from an entry in the Cambridge
# Structural Database, then it will include bibliographic, chemical,
# crystal, experimental, refinement or atomic coordinate data resulting
# from the CCDC's data processing and validation procedures.
#
#######################################################################

data_CSD_CIF_RENXOX
_audit_creation_date 1997-10-02
_audit_creation_method CSD-ConQuest-V1
_database_code_CSD RENXOX
_database_code_depnum_ccdc_journal 179/145
_chemical_formula_sum 'C15 H13 Cl2 Co1 N5'
_chemical_formula_moiety
;
C15 H13 Cl2 Co1 N5
;
_journal_coden_Cambridge 179
_journal_volume 36
_journal_year 1997
_journal_page_first 56
_journal_name_full 'Angew.Chem.,Int.Ed. '
loop_
_publ_author_name
"Shen-Jye Shieh"
"Chin-Cheng Chou"
"Gene-Hsiang Lee"
"Chih-Chieh Wang"
"Shie-Ming Peng"
_chemical_name_systematic
;
Dichloro-(N,N'-bis(\a-pyridyl)-2,6-diaminopyridine)-cobalt(ii)
;
_cell_volume   1598.851
_exptl_crystal_colour 'green'
_exptl_crystal_density_diffrn 1.633
_diffrn_ambient_temperature ?
_diffrn_special_details
;
The study was carried out at room temperature,in the range 283-303K

;
#These two values have been output from a single CSD field.
_refine_ls_R_factor_gt 0.026
_refine_ls_wR_factor_gt 0.026
_symmetry_cell_setting monoclinic
_symmetry_space_group_name_H-M 'C 2/c'
_symmetry_Int_Tables_number 15
loop_
_symmetry_equiv_pos_site_id
_symmetry_equiv_pos_as_xyz
1 x,y,z
2 -x,y,1/2-z
3 1/2+x,1/2+y,z
4 1/2-x,1/2+y,1/2-z
5 -x,-y,-z
6 x,-y,-1/2+z
7 -1/2-x,-1/2-y,-z
8 -1/2+x,-1/2-y,-1/2+z
_cell_length_a 7.4825(10)
_cell_length_b 17.172(3)
_cell_length_c 12.8328(10)
_cell_angle_alpha 90
_cell_angle_beta 104.15(1)
_cell_angle_gamma 90
_cell_formula_units_Z 4
loop_
_atom_type_symbol
_atom_type_radius_bond
C 0.68
H 0.23
Cl 0.99
Co 1.33
N 0.68
loop_
_atom_site_label
_atom_site_type_symbol
_atom_site_fract_x
_atom_site_fract_y
_atom_site_fract_z
Co1 Co 0.50000 0.08735(3) 0.25000
Cl1 Cl 0.67973(11) 0.14925(4) 0.14912(5)
N1 N 0.2818(3) 0.08710(13) 0.11157(16)
N2 N 0.3594(3) -0.03700(12) 0.06253(16)
N3 N 0.50000 -0.03286(16) 0.25000
C1 C 0.1846(4) 0.15385(17) 0.08355(23)
C2 C 0.0747(4) 0.16719(18) -0.01626(24)
C3 C 0.0608(4) 0.10958(20) -0.09272(22)
C4 C 0.1544(4) 0.04136(17) -0.06789(21)
C5 C 0.2647(4) 0.03225(15) 0.03717(20)
C6 C 0.4306(3) -0.07430(14) 0.15912(19)
C7 C 0.4308(4) -0.15507(15) 0.15689(21)
C8 C 0.50000 -0.19481(22) 0.25000
H1 H 0.203(4) 0.1951(16) 0.1427(20)
H2 H 0.012(3) 0.2141(14) -0.0328(19)
H3 H -0.018(4) 0.1153(15) -0.1659(20)
H4 H 0.150(3) 0.0001(15) -0.1214(19)
H5 H 0.380(3) -0.1805(13) 0.0908(17)
H6 H 0.50000 -0.2470(21) 0.25000
H7 H 0.345(3) -0.0647(13) 0.0125(18)
Cl1A Cl 0.32027(11) 0.14925(4) 0.35088(5)
N1A N 0.7182(3) 0.08710(13) 0.38843(16)
C1A C 0.8154(4) 0.15385(17) 0.41645(23)
C2A C 0.9253(4) 0.16719(18) 0.51626(24)
C3A C 0.9392(4) 0.10958(20) 0.59272(22)
C4A C 0.8456(4) 0.04136(17) 0.56789(21)
C5A C 0.7353(4) 0.03225(15) 0.46283(20)
N2A N 0.6406(3) -0.03700(12) 0.43747(16)
C6A C 0.5694(3) -0.07430(14) 0.34088(19)
C7A C 0.5692(4) -0.15507(15) 0.34311(21)
H5A H 0.620(3) -0.1805(13) 0.4092(17)
H7A H 0.655(3) -0.0647(13) 0.4875(18)
H4A H 0.850(3) 0.0001(15) 0.6214(19)
H3A H 1.018(4) 0.1153(15) 0.6659(20)
H2A H 0.988(3) 0.2141(14) 0.5328(19)
H1A H 0.797(4) 0.1951(16) 0.3573(20)
#END
