
#######################################################################
#
#                 Cambridge Crystallographic Data Centre
#                                CCDC
#
#######################################################################
#
# If this CIF has been generated from an entry in the Cambridge
# Structural Database, then it will include bibliographic, chemical,
# crystal, experimental, refinement or atomic coordinate data resulting
# from the CCDC's data processing and validation procedures.
#
#######################################################################

data_CSD_CIF_REVJOR
_audit_creation_date 1997-10-08
_audit_creation_method CSD-ConQuest-V1
_database_code_CSD REVJOR
_database_code_depnum_ccdc_archive 'CCDC 1248833'
_database_code_depnum_ccdc_journal 1220/38
_chemical_formula_sum 'C15 H9 Mn1 O3'
_chemical_formula_moiety
;
C15 H9 Mn1 O3
;
_journal_coden_Cambridge 1220
_journal_volume 3
_journal_year 1997
_journal_page_first 75
_journal_name_full 'Chem.-Eur.J. '
loop_
_publ_author_name
"C.A.Dullaghan"
"G.B.Carpenter"
"D.A.Sweigart"
_chemical_name_systematic
;
(1,2,3,4,10-\h^5^-Biphenylene-hydro)-tricarbonyl-manganese
;
_cell_volume    608.747
_exptl_crystal_density_diffrn 1.594
_diffrn_ambient_temperature ?
_diffrn_special_details
;
The study was carried out at room temperature,in the range 283-303K

;
#These two values have been output from a single CSD field.
_refine_ls_R_factor_gt 0.0386
_refine_ls_wR_factor_gt 0.0386
_symmetry_cell_setting triclinic
_symmetry_space_group_name_H-M 'P -1'
_symmetry_Int_Tables_number 2
loop_
_symmetry_equiv_pos_site_id
_symmetry_equiv_pos_as_xyz
1 x,y,z
2 -x,-y,-z
_cell_length_a 6.6090(2)
_cell_length_b 10.128
_cell_length_c 10.1570(2)
_cell_angle_alpha 65.794(1)
_cell_angle_beta 82.272(2)
_cell_angle_gamma 79.741(2)
_cell_formula_units_Z 2
loop_
_atom_type_symbol
_atom_type_radius_bond
C 0.68
H 0.23
Mn 1.35
O 0.68
loop_
_atom_site_label
_atom_site_type_symbol
_atom_site_fract_x
_atom_site_fract_y
_atom_site_fract_z
Mn1 Mn 0.1556(1) 0.2313(1) 0.0982(1)
C1 C -0.0126(5) 0.2053(3) 0.3033(3)
C2 C 0.1236(5) 0.3130(3) 0.2635(3)
C3 C 0.3362(5) 0.2747(3) 0.2291(3)
C4 C 0.4157(5) 0.1322(3) 0.2404(3)
C5 C 0.3530(6) -0.2694(4) 0.3737(4)
C6 C 0.2189(6) -0.3600(4) 0.3720(4)
C7 C 0.0116(6) -0.3128(4) 0.3559(4)
C8 C -0.0768(5) -0.1726(3) 0.3394(3)
C9 C 0.0575(5) -0.0827(3) 0.3406(3)
C10 C 0.0815(5) 0.0655(3) 0.3246(3)
C11 C 0.3090(5) 0.0137(3) 0.3575(3)
C12 C 0.2669(5) -0.1299(3) 0.3571(3)
C13 C 0.2172(5) 0.0881(3) 0.0309(3)
O1 O 0.2555(4) -0.0045(3) -0.0092(3)
C14 C -0.0905(5) 0.2981(3) 0.0190(3)
O2 O -0.2472(4) 0.3421(3) -0.0292(3)
C15 C 0.2656(5) 0.3647(3) -0.0628(4)
O3 O 0.3275(4) 0.4515(3) -0.1682(3)
H1 H -0.1627(5) 0.2298(3) 0.3120(3)
H2 H 0.0675(5) 0.4153(3) 0.2424(3)
H3 H 0.4241(5) 0.3523(3) 0.1833(3)
H4 H 0.5553(5) 0.1106(3) 0.2009(3)
H5 H 0.4929(6) -0.3013(4) 0.3854(4)
H6 H 0.2707(6) -0.4550(4) 0.3820(4)
H7 H -0.0724(6) -0.3775(4) 0.3561(4)
H8 H -0.2169(5) -0.1410(3) 0.3283(3)
H9 H 0.3338(5) 0.0037(3) 0.4543(3)
#END
