
#######################################################################
#
#                 Cambridge Crystallographic Data Centre
#                                CCDC
#
#######################################################################
#
# If this CIF has been generated from an entry in the Cambridge
# Structural Database, then it will include bibliographic, chemical,
# crystal, experimental, refinement or atomic coordinate data resulting
# from the CCDC's data processing and validation procedures.
#
#######################################################################

data_CSD_CIF_REVKEK
_audit_creation_date 2013-05-19
_audit_creation_method CSD-ConQuest-V1
_database_code_CSD REVKEK
_database_code_depnum_ccdc_archive 'CCDC 911379'
_chemical_formula_sum 'C18 H20 Mn1 N4 O6 S2'
_chemical_formula_moiety
;
(C18 H20 Mn1 N4 O6 S2)n
;
_journal_coden_Cambridge 222
_journal_volume 42
_journal_year 2013
_journal_page_first 4533
_journal_name_full 'Dalton Trans. '
loop_
_publ_author_name
"Kun Wang"
"Yan-Qin Wang"
"Xiu-Mei Zhang"
"En-Qing Gao"
_chemical_name_systematic
;
catena-((\m~2~-1,1'-(butane-1,4-diyl)-bis(pyridinium-4-carboxylato))-diaqua-bi
s(isothiocyanato)-manganese(ii))
;
_cell_volume    541.649
_exptl_crystal_colour 'yellow'
_exptl_crystal_density_diffrn 1.556
_exptl_crystal_description 'rectangular'
_diffrn_ambient_temperature 296
#These two values have been output from a single CSD field.
_refine_ls_R_factor_gt 0.0276
_refine_ls_wR_factor_gt 0.0276
_symmetry_cell_setting triclinic
_symmetry_space_group_name_H-M 'P -1'
_symmetry_Int_Tables_number 2
loop_
_symmetry_equiv_pos_site_id
_symmetry_equiv_pos_as_xyz
1 x,y,z
2 -x,-y,-z
_cell_length_a 5.5469(18)
_cell_length_b 10.583(3)
_cell_length_c 12.227(3)
_cell_angle_alpha 53.692(17)
_cell_angle_beta 69.966(11)
_cell_angle_gamma 81.833(9)
_cell_formula_units_Z 1
loop_
_atom_type_symbol
_atom_type_radius_bond
C 0.68
H 0.23
Mn 1.61
N 0.68
O 0.68
S 1.02
loop_
_atom_site_label
_atom_site_type_symbol
_atom_site_fract_x
_atom_site_fract_y
_atom_site_fract_z
Mn1 Mn 0.50000 0.50000 0.50000
C1 C 0.3253(4) 0.2601(2) 0.83116(19)
C2 C 0.3818(3) 0.2034(2) 0.96629(18)
C3 C 0.5528(4) 0.2901(2) 0.9622(2)
H1 H 0.62180 0.38910 0.87880
C4 C 0.6212(4) 0.2297(2) 1.0819(2)
H2 H 0.73430 0.28900 1.07950
C5 C 0.3511(4) 0.0013(2) 1.2103(2)
H3 H 0.28270 -0.09670 1.29540
C6 C 0.2729(4) 0.0581(2) 1.09468(19)
H4 H 0.14910 0.00060 1.10190
C7 C 0.6189(4) 0.0161(3) 1.3262(2)
H5 H 0.78970 0.06410 1.29150
H6 H 0.63260 -0.09550 1.37040
C8 C 0.4453(4) 0.0386(2) 1.43807(19)
H7 H 0.27360 -0.00890 1.47370
H8 H 0.43390 0.14990 1.39600
C9 C 0.8833(4) 0.3579(2) 0.3426(2)
O1 O 0.4998(3) 0.35426(16) 0.71602(13)
O2 O 0.1238(3) 0.20695(19) 0.84511(15)
O3 O 0.1687(3) 0.34575(19) 0.57021(17)
H9 H 0.096(6) 0.299(3) 0.656(3)
H10 H 0.065(6) 0.369(3) 0.530(3)
N1 N 0.7843(4) 0.3525(2) 0.44625(19)
N2 N 0.5254(3) 0.08554(18) 1.20222(15)
S1 S 1.02282(13) 0.36578(8) 0.19786(7)
C1A C 0.6747(4) -0.2601(2) 2.16884(19)
C2A C 0.6182(3) -0.2034(2) 2.03371(18)
C3A C 0.4472(4) -0.2901(2) 2.0378(2)
H1A H 0.37820 -0.38910 2.12120
C4A C 0.3788(4) -0.2297(2) 1.9181(2)
H2A H 0.26570 -0.28900 1.92050
C5A C 0.6489(4) -0.0013(2) 1.7897(2)
H3A H 0.71730 0.09670 1.70460
C6A C 0.7271(4) -0.0581(2) 1.90532(19)
H4A H 0.85090 -0.00060 1.89810
C7A C 0.3811(4) -0.0161(3) 1.6738(2)
H5A H 0.21030 -0.06410 1.70850
H6A H 0.36740 0.09550 1.62960
C8A C 0.5547(4) -0.0386(2) 1.56193(19)
H7A H 0.72640 0.00890 1.52630
H8A H 0.56610 -0.14990 1.60400
O1A O 0.5002(3) -0.35426(16) 2.28398(13)
O2A O 0.8762(3) -0.20695(19) 2.15489(15)
N2A N 0.4746(3) -0.08554(18) 1.79778(15)
C9A C 0.1167(4) 0.6421(2) 0.6574(2)
N1A N 0.2157(4) 0.6475(2) 0.55375(19)
S1A S -0.02282(13) 0.63422(8) 0.80214(7)
O3A O 0.8313(3) 0.65425(19) 0.42979(17)
H9A H 0.904(6) 0.701(3) 0.344(3)
H10A H 0.935(6) 0.631(3) 0.470(3)
Mn1* Mn 0.50000 -0.50000 2.50000
O1A* O 0.5002(3) 0.64574(16) 0.28398(13)
#END
