
#######################################################################
#
#                 Cambridge Crystallographic Data Centre
#                                CCDC
#
#######################################################################
#
# If this CIF has been generated from an entry in the Cambridge
# Structural Database, then it will include bibliographic, chemical,
# crystal, experimental, refinement or atomic coordinate data resulting
# from the CCDC's data processing and validation procedures.
#
#######################################################################

data_CSD_CIF_REVXUL
_audit_creation_date 1997-10-09
_audit_creation_method CSD-ConQuest-V1
_database_code_CSD REVXUL
_database_code_depnum_ccdc_archive 'CCDC 1248886'
_database_code_depnum_ccdc_journal 182/337
_chemical_formula_sum 'C6 H24 Cr1 N6 Te6'
_chemical_formula_moiety
;
(C6 H24 Cr1 N6 3+)n,n(Te6 3-)
;
_journal_coden_Cambridge 182
_journal_year 1997
_journal_page_first 387
_journal_name_full 'Chem.Commun. '
loop_
_publ_author_name
"C.Reisner"
"W.Tremel"
_chemical_name_systematic
;
catena-(tris(Ethylenediamine)-chromium(iii) hexatelluride)
;
_cell_volume   3197.562
_exptl_crystal_colour 'dark brown'
_exptl_crystal_density_diffrn 3.071
_diffrn_ambient_temperature 183
#These two values have been output from a single CSD field.
_refine_ls_R_factor_gt 0.021
_refine_ls_wR_factor_gt 0.021
_symmetry_cell_setting rhombohedral
_symmetry_space_group_name_H-M 'R 3 2'
_symmetry_Int_Tables_number 155
loop_
_symmetry_equiv_pos_site_id
_symmetry_equiv_pos_as_xyz
1 x,y,z
2 -y,x-y,z
3 y,x,-z
4 -x+y,-x,z
5 -x,-x+y,-z
6 x-y,-y,-z
7 1/3+x,2/3+y,2/3+z
8 1/3-y,2/3+x-y,2/3+z
9 1/3+y,2/3+x,2/3-z
10 1/3-x+y,2/3-x,2/3+z
11 1/3-x,2/3-x+y,2/3-z
12 1/3+x-y,2/3-y,2/3-z
13 2/3+x,1/3+y,1/3+z
14 2/3-y,1/3+x-y,1/3+z
15 2/3+y,1/3+x,1/3-z
16 2/3-x+y,1/3-x,1/3+z
17 2/3-x,1/3-x+y,1/3-z
18 2/3+x-y,1/3-y,1/3-z
_cell_length_a 14.292(2)
_cell_length_b 14.292(2)
_cell_length_c 18.076(3)
_cell_angle_alpha 90
_cell_angle_beta 90
_cell_angle_gamma 120
_cell_formula_units_Z 6
loop_
_atom_type_symbol
_atom_type_radius_bond
C 0.68
H 0.23
Cr 1.35
N 0.68
Te 1.47
loop_
_atom_site_label
_atom_site_type_symbol
_atom_site_fract_x
_atom_site_fract_y
_atom_site_fract_z
Cr1 Cr 0.00000 0.00000 0.00000
C1 C 0.2084(7) 0.0204(9) 0.03332(5)
N1 N 0.1394(3) 0.0599(4) 0.0631(2)
H1 H 0.20590 -0.03310 0.06700
H2 H 0.28100 0.08030 0.03380
H3 H 0.12150 0.03730 0.11010
H4 H 0.17450 0.13260 0.06300
Cr2 Cr 0.33330 0.66670 0.16670
C2 C 0.1402(5) 0.4656(5) 0.1256(4)
N2 N 0.2548(4) 0.5284(3) 0.1031(2)
H5 H 0.11030 0.39150 0.11060
H6 H 0.10010 0.49420 0.10140
H7 H 0.28620 0.48790 0.10940
H8 H 0.26000 0.54650 0.05500
Te1 Te 0.36177(3) 0.34291(3) 0.07534(2)
Te2 Te 0.40139(4) 0.58847(3) -0.08476(2)
C1E C 0.1880(7) -0.0204(9) -0.03332(5)
N1E N 0.0795(3) -0.0599(4) -0.0631(2)
N1A N -0.0599(3) 0.0795(4) 0.0631(2)
C1A C -0.0204(7) 0.1880(9) 0.03332(5)
C1B C 0.0204(7) 0.2084(9) -0.03332(5)
N1B N 0.0599(3) 0.1394(4) -0.0631(2)
N1C N -0.0795(3) -0.1394(4) 0.0631(2)
C1C C -0.1880(7) -0.2084(9) 0.03332(5)
C1D C -0.2084(7) -0.1880(9) -0.03332(5)
N1D N -0.1394(3) -0.0795(4) -0.0631(2)
H3D H -0.12150 -0.08420 -0.11010
H4D H -0.17450 -0.04190 -0.06300
H1D H -0.20590 -0.23900 -0.06700
H2D H -0.28100 -0.20070 -0.03380
H1C H -0.23900 -0.20590 0.06700
H2C H -0.20070 -0.28100 0.03380
H3C H -0.08420 -0.12150 0.11010
H4C H -0.04190 -0.17450 0.06300
H3B H 0.03730 0.12150 -0.11010
H4B H 0.13260 0.17450 -0.06300
H1B H -0.03310 0.20590 -0.06700
H2B H 0.08030 0.28100 -0.03380
H1A H 0.03310 0.23900 0.06700
H2A H -0.08030 0.20070 0.03380
H3A H -0.03730 0.08420 0.11010
H4A H -0.13260 0.04190 0.06300
H3E H 0.08420 -0.03730 -0.11010
H4E H 0.04190 -0.13260 -0.06300
H1E H 0.23900 0.03310 -0.06700
H2E H 0.20070 -0.08030 -0.03380
C2N C 0.132267(500) 0.473533(500) 0.207733(400)
N2N N 0.195067(400) 0.588133(300) 0.230233(200)
N2A N 0.4716(4) 0.7264(3) 0.1031(2)
C2A C 0.5344(5) 0.6746(5) 0.1256(4)
C2P C 0.526467(500) 0.658733(500) 0.207733(400)
N2P N 0.411867(400) 0.606933(300) 0.230233(200)
N2C N 0.2736(4) 0.7452(3) 0.1031(2)
C2C C 0.3254(5) 0.8598(5) 0.1256(4)
C2Q C 0.341267(500) 0.867733(500) 0.207733(400)
N2Q N 0.393067(400) 0.804933(300) 0.230233(200)
H7Q H 0.46497 0.84543 0.22393
H8Q H 0.38017 0.78683 0.27833
H5Q H 0.38547 0.94183 0.22273
H6Q H 0.27257 0.83913 0.23193
H5C H 0.28120 0.88970 0.11060
H6C H 0.39410 0.89990 0.10140
H7C H 0.20170 0.71380 0.10940
H8C H 0.28650 0.74000 0.05500
H7P H 0.38047 0.53503 0.22393
H8P H 0.40667 0.61983 0.27833
H5P H 0.55637 0.61453 0.22273
H6P H 0.56657 0.72743 0.23193
H5A H 0.60850 0.71880 0.11060
H6A H 0.50580 0.60590 0.10140
H7A H 0.51210 0.79830 0.10940
H8A H 0.45350 0.71350 0.05500
H7N H 0.15457 0.61953 0.22393
H8N H 0.21317 0.59333 0.27833
H5N H 0.05817 0.44363 0.22273
H6N H 0.16087 0.43343 0.23193
Te1B Te 0.34291(3) 0.36177(3) -0.07534(2)
Te2C Te 0.18708(4) 0.59861(3) -0.08476(2)
Te1E Te 0.01886(3) 0.65709(3) -0.07534(2)
Te1C Te -0.01886(3) 0.63823(3) 0.07534(2)
Te2A Te 0.41153(4) 0.81292(3) -0.08476(2)
Te1D Te 0.63823(3) 0.98114(3) -0.07534(2)
#END
