
#######################################################################
#
#                 Cambridge Crystallographic Data Centre
#                                CCDC
#
#######################################################################
#
# If this CIF has been generated from an entry in the Cambridge
# Structural Database, then it will include bibliographic, chemical,
# crystal, experimental, refinement or atomic coordinate data resulting
# from the CCDC's data processing and validation procedures.
#
#######################################################################

data_CSD_CIF_RIBPAT
_audit_creation_date 1997-10-20
_audit_creation_method CSD-ConQuest-V1
_database_code_CSD RIBPAT
_database_code_depnum_ccdc_archive 'CCDC 1249386'
_chemical_formula_sum 'C30 H38 Co1 N8 O6'
_chemical_formula_moiety
;
C26 H22 Co1 N8 O2,4(C1 H4 O1)
;
_journal_coden_Cambridge 9
_journal_volume 36
_journal_year 1997
_journal_page_first 291
_journal_name_full 'Inorg.Chem. '
loop_
_publ_author_name
"T.C.Higgs"
"C.J.Carrano"
_chemical_name_systematic
;
bis((2-Hydroxyphenyl)bis(pyrazolyl)methane)-cobalt(ii) methanol solvate
;
_cell_volume    821.501
_exptl_crystal_colour 'orange'
_exptl_crystal_density_diffrn 1.337
_diffrn_ambient_temperature ?
_diffrn_special_details
;
The study was carried out at room temperature,in the range 283-303K

;
#These two values have been output from a single CSD field.
_refine_ls_R_factor_gt 0.0375
_refine_ls_wR_factor_gt 0.0375
_symmetry_cell_setting triclinic
_symmetry_space_group_name_H-M 'P -1'
_symmetry_Int_Tables_number 2
loop_
_symmetry_equiv_pos_site_id
_symmetry_equiv_pos_as_xyz
1 x,y,z
2 -x,-y,-z
_cell_length_a 8.286(2)
_cell_length_b 10.053(3)
_cell_length_c 10.562(2)
_cell_angle_alpha 109.66
_cell_angle_beta 96.57
_cell_angle_gamma 91.11
_cell_formula_units_Z 1
loop_
_atom_type_symbol
_atom_type_radius_bond
C 0.68
H 0.23
Co 1.33
N 0.68
O 0.68
loop_
_atom_site_label
_atom_site_type_symbol
_atom_site_fract_x
_atom_site_fract_y
_atom_site_fract_z
Co1 Co 0.00000 0.00000 0.00000
N1 N 0.1431(3) -0.1485(3) -0.1286(3)
N2 N 0.0834(3) -0.2830(2) -0.1995(2)
N3 N 0.1187(3) 0.1759(2) -0.0256(2)
N4 N 0.1272(3) 0.3061(2) 0.0713(3)
O1 O 0.1636(3) 0.0197(2) 0.1630(2)
C1 C 0.2027(4) 0.2703(3) 0.2955(3)
C2 C 0.2816(4) 0.3734(3) 0.4135(3)
C3 C 0.3857(4) 0.3391(4) 0.5072(3)
C4 C 0.4136(5) 0.1998(4) 0.4841(3)
C5 C 0.3363(4) 0.0953(4) 0.3691(3)
C6 C 0.2305(4) 0.1255(3) 0.2708(3)
C7 C 0.2975(4) -0.1453(4) -0.1524(3)
C8 C 0.3359(4) -0.2751(4) -0.2382(4)
C9 C 0.1985(4) -0.3604(4) -0.2664(3)
C10 C 0.1611(4) 0.1982(3) -0.1343(3)
C11 C 0.1980(4) 0.3407(4) -0.1086(4)
C12 C 0.1737(4) 0.4067(3) 0.0220(4)
C13 C -0.0876(4) -0.3278(3) -0.2074(3)
H1 H 0.26250 0.47120 0.42890
H2 H 0.43810 0.41150 0.58720
H3 H 0.48590 0.17380 0.54840
H4 H 0.35770 -0.00160 0.35610
H5 H 0.37230 -0.06350 -0.11530
H6 H 0.43880 -0.29960 -0.27040
H7 H 0.18540 -0.45810 -0.32350
H8 H 0.16630 0.12500 -0.21980
H9 H 0.23280 0.38340 -0.17050
H10 H 0.18710 0.50670 0.07070
H11 H -0.09480 -0.42850 -0.25230
C14 C 0.0795(7) 0.7911(5) 0.4580(5)
O2 O 0.1268(4) 0.6775(3) 0.3546(3)
H12 H 0.04080 0.75850 0.52540
H13 H -0.00570 0.83620 0.42130
H14 H 0.17120 0.85770 0.49870
C15 C 0.4041(5) 0.7410(4) 0.1318(4)
O3 O 0.2407(3) 0.7596(2) 0.1551(3)
H15 H 0.46080 0.83220 0.15710
H16 H 0.40820 0.69040 0.03730
H17 H 0.45470 0.68860 0.18480
N4A N -0.1272(3) -0.3061(2) -0.0713(3)
N3A N -0.1187(3) -0.1759(2) 0.0256(2)
N1A N -0.1431(3) 0.1485(3) 0.1286(3)
N2A N -0.0834(3) 0.2830(2) 0.1995(2)
C9A C -0.1985(4) 0.3604(4) 0.2664(3)
C8A C -0.3359(4) 0.2751(4) 0.2382(4)
C7A C -0.2975(4) 0.1453(4) 0.1524(3)
H5A H -0.37230 0.06350 0.11530
H6A H -0.43880 0.29960 0.27040
H7A H -0.18540 0.45810 0.32350
C13A C 0.0876(4) 0.3278(3) 0.2074(3)
H11A H 0.09480 0.42850 0.25230
O1A O -0.1636(3) -0.0197(2) -0.1630(2)
C6A C -0.2305(4) -0.1255(3) -0.2708(3)
C1A C -0.2027(4) -0.2703(3) -0.2955(3)
C2A C -0.2816(4) -0.3734(3) -0.4135(3)
C3A C -0.3857(4) -0.3391(4) -0.5072(3)
C4A C -0.4136(5) -0.1998(4) -0.4841(3)
C5A C -0.3363(4) -0.0953(4) -0.3691(3)
H4A H -0.35770 0.00160 -0.35610
H3A H -0.48590 -0.17380 -0.54840
H2A H -0.43810 -0.41150 -0.58720
H1A H -0.26250 -0.47120 -0.42890
C10A C -0.1611(4) -0.1982(3) 0.1343(3)
C11A C -0.1980(4) -0.3407(4) 0.1086(4)
C12A C -0.1737(4) -0.4067(3) -0.0220(4)
H10A H -0.18710 -0.50670 -0.07070
H9A H -0.23280 -0.38340 0.17050
H8A H -0.16630 -0.12500 0.21980
#END
