
#######################################################################
#
#                 Cambridge Crystallographic Data Centre
#                                CCDC
#
#######################################################################
#
# If this CIF has been generated from an entry in the Cambridge
# Structural Database, then it will include bibliographic, chemical,
# crystal, experimental, refinement or atomic coordinate data resulting
# from the CCDC's data processing and validation procedures.
#
#######################################################################

data_CSD_CIF_RIFSEF
_audit_creation_date 2007-08-13
_audit_creation_method CSD-ConQuest-V1
_database_code_CSD RIFSEF
_database_code_depnum_ccdc_archive 'CCDC 611493'
_chemical_formula_sum 'C12 H24 Br3 Fe1 N4 O2'
_chemical_formula_moiety
;
C12 H24 Br3 Fe1 N4 O2
;
_journal_coden_Cambridge 155
_journal_volume 360
_journal_year 2007
_journal_page_first 2744
_journal_name_full 'Inorg.Chim.Acta '
loop_
_publ_author_name
"D.Lundberg"
"A.-S.Ullstrom"
"P.D'Angelo"
"D.Warminska"
"I.Persson"
_chemical_name_systematic
;
tribromo-bis(N,N'-dimethylpropyleneurea-O)-iron(iii)
;
_cell_volume    961.065
_exptl_crystal_colour 'dark red-brown'
_exptl_crystal_density_diffrn 1.907
_exptl_special_details
;
air-sensitive

;
_exptl_crystal_description 'block'
_diffrn_ambient_temperature 295
#These two values have been output from a single CSD field.
_refine_ls_R_factor_gt 0.0488
_refine_ls_wR_factor_gt 0.0488
loop_
_citation_database_id_CSD
_citation_special_details
RIFSEF01 "is a reinterpretation of this cif"
_symmetry_cell_setting triclinic
_symmetry_space_group_name_H-M 'P 1'
_symmetry_Int_Tables_number 1
loop_
_symmetry_equiv_pos_site_id
_symmetry_equiv_pos_as_xyz
1 x,y,z
_cell_length_a 8.1542(15)
_cell_length_b 9.5474(18)
_cell_length_c 14.241(3)
_cell_angle_alpha 83.078(4)
_cell_angle_beta 73.432(4)
_cell_angle_gamma 64.743(3)
_cell_formula_units_Z 2
loop_
_atom_type_symbol
_atom_type_radius_bond
C 0.68
H 0.23
Br 1.21
Fe 1.34
N 0.68
O 0.68
loop_
_atom_site_label
_atom_site_type_symbol
_atom_site_fract_x
_atom_site_fract_y
_atom_site_fract_z
Br1 Br 0.4335(2) 0.63705(16) 0.14893(11)
Br2 Br 0.1921(2) 0.43238(19) 0.04337(14)
Br3 Br 0.7431(2) 0.22785(16) -0.06218(12)
Br4 Br 0.8879(2) 0.72787(16) 0.64885(11)
Br5 Br 0.4417(2) 0.93282(19) 0.54332(13)
Br6 Br 0.7889(2) 1.13725(16) 0.43810(11)
Fe1 Fe 0.4827(2) 0.4325(2) 0.04317(14)
Fe2 Fe 0.7327(2) 0.9330(2) 0.54317(14)
O1 O 0.5216(12) 0.290(1) 0.1561(6)
O2 O 0.4899(12) 0.5736(10) -0.0699(6)
O3 O 0.8851(12) 0.7903(9) 0.4289(6)
O4 O 0.6294(12) 1.0742(9) 0.6556(6)
N1 N 0.5774(18) 0.0348(14) 0.1893(9)
N2 N 0.4329(17) 1.3267(15) 0.6911(9)
N3 N 0.3291(18) 0.8253(15) -0.1065(9)
N4 N 1.1899(16) 0.6201(13) 0.4166(9)
N5 N 0.9773(15) 0.5338(14) 0.3945(9)
N6 N 0.6256(18) 0.7434(14) -0.0884(9)
N7 N 0.7486(17) 1.2435(15) 0.6724(9)
N8 N 0.8106(18) 0.1179(15) 0.1709(9)
C1 C 0.6389(19) 0.1468(15) 0.1679(10)
C2 C 0.479(2) 0.7132(16) -0.0879(10)
C3 C 0.603(2) 1.2105(17) 0.6717(11)
C4 C 1.0142(19) 0.6495(16) 0.4151(9)
C5 C 1.341(2) 0.4613(18) 0.4074(12)
H1 H 1.40630 0.44500 0.45750
H2 H 1.43040 0.45000 0.34400
C6 C 1.239(2) 0.7518(19) 0.4220(13)
H3 H 1.12840 0.84700 0.42940
H4 H 1.33060 0.75540 0.36290
H5 H 1.29020 0.73780 0.47710
C7 C 0.957(2) -0.0374(19) 0.1777(13)
H6 H 0.98920 -0.04780 0.23940
H7 H 1.06850 -0.05240 0.12490
C8 C 0.553(3) 1.5183(17) 0.6694(14)
H8 H 0.55620 1.52860 0.60040
H9 H 0.53370 1.61720 0.69220
C9 C 0.428(3) 1.0212(19) -0.0873(13)
H10 H 0.35640 1.03650 -0.01910
H11 H 0.43230 1.11900 -0.11220
C10 C 1.264(2) 0.3413(19) 0.4175(13)
H12 H 1.36560 0.24280 0.39320
H13 H 1.20890 0.32860 0.48630
C11 C 0.624(2) 0.9031(18) -0.0929(12)
H14 H 0.66520 0.91710 -0.03870
H15 H 0.70840 0.91520 -0.15350
C12 C 0.733(2) 1.4012(19) 0.6810(12)
H16 H 0.74670 1.41330 0.74470
H17 H 0.83400 1.41620 0.63140
C13 C 0.940(2) 1.113(2) 0.6647(15)
H18 H 0.93390 1.01620 0.65830
H19 H 0.97920 1.11060 0.72250
H20 H 1.02860 1.12830 0.60820
C14 C 0.817(2) 0.613(2) -0.0775(14)
H21 H 0.81190 0.51420 -0.07490
H22 H 0.84040 0.62960 -0.01820
H23 H 0.91600 0.61610 -0.13260
C15 C 1.121(2) 0.3851(18) 0.3629(13)
H24 H 1.17770 0.38730 0.29320
H25 H 1.06700 0.30940 0.37420
C16 C 0.789(2) 0.5642(17) 0.3894(12)
H26 H 0.70440 0.66690 0.41310
H27 H 0.74890 0.49030 0.42900
H28 H 0.79070 0.55550 0.32270
C17 C 0.889(3) -0.1557(18) 0.1714(14)
H29 H 0.90290 -0.17200 0.10310
H30 H 0.96640 -0.25270 0.19700
C18 C 0.692(2) -0.1139(18) 0.2254(14)
H31 H 0.65250 -0.19240 0.21570
H32 H 0.67750 -0.10690 0.29490
C19 C 0.331(3) 0.9788(18) -0.1415(13)
H33 H 0.39470 0.97280 -0.21080
H34 H 0.20380 1.05690 -0.13250
C20 C 0.393(2) 1.4799(18) 0.7240(13)
H35 H 0.38050 1.47890 0.79390
H36 H 0.27730 1.55630 0.71080
C21 C 0.171(2) 0.8004(18) -0.1112(12)
H37 H 0.18410 0.69900 -0.08660
H38 H 0.16410 0.80840 -0.17790
H39 H 0.05810 0.87700 -0.07210
C22 C 0.2712(19) 1.3054(18) 0.6949(12)
H40 H 0.30700 1.20380 0.67110
H41 H 0.20020 1.38170 0.65470
H42 H 0.19590 1.31600 0.76130
C23 C 0.393(2) 0.0604(18) 0.1928(12)
H43 H 0.33140 0.16140 0.16730
H44 H 0.32640 0.05380 0.25940
H45 H 0.39610 -0.01660 0.15400
C24 C 0.878(2) 0.245(2) 0.1607(14)
H46 H 0.77640 0.34340 0.15620
H47 H 0.97920 0.22820 0.10260
H48 H 0.92080 0.24510 0.21690
#END
