
#######################################################################
#
#                 Cambridge Crystallographic Data Centre
#                                CCDC
#
#######################################################################
#
# If this CIF has been generated from an entry in the Cambridge
# Structural Database, then it will include bibliographic, chemical,
# crystal, experimental, refinement or atomic coordinate data resulting
# from the CCDC's data processing and validation procedures.
#
#######################################################################

data_CSD_CIF_RIFSEF01
_audit_creation_date 2010-03-08
_audit_creation_method CSD-ConQuest-V1
_database_code_CSD RIFSEF01
_database_code_depnum_ccdc_archive 'CCDC 760413'
_chemical_formula_sum 'C12 H24 Br3 Fe1 N4 O2'
_chemical_formula_moiety
;
C12 H24 Br3 Fe1 N4 O2
;
_journal_coeditor_code "IUCr BK5088"
_journal_coden_Cambridge 622
_journal_volume 65
_journal_year 2009
_journal_page_first 782
_journal_name_full 'Acta Crystallogr.,Sect.B:Struct.Sci. '
loop_
_publ_author_name
"R.E.Marsh"
_chemical_name_systematic
;
Tribromo-bis(N,N'-dimethylpropyleneurea-O)-iron(iii)
;
_chemical_name_common
;
Tribromo-(bis(1,3-dimethyltetrahydropyrimidin-2(1H)-one-kappaO))-iron
;
_cell_volume   3844.152
_exptl_crystal_colour 'dark red-brown'
_exptl_crystal_density_diffrn 1.907
_exptl_crystal_description 'block'
_diffrn_ambient_temperature 295
loop_
_citation_database_id_CSD
_citation_special_details
RIFSEF "is reinterpreted by this entry"
_symmetry_cell_setting orthorhombic
_symmetry_space_group_name_H-M 'F d d 2'
_symmetry_Int_Tables_number 43
loop_
_symmetry_equiv_pos_site_id
_symmetry_equiv_pos_as_xyz
1 x,y,z
2 -x,-y,z
3 1/4+x,1/4-y,1/4+z
4 1/4-x,1/4+y,1/4+z
5 1/2+x,1/2+y,z
6 1/2-x,1/2-y,z
7 3/4+x,3/4-y,1/4+z
8 3/4-x,3/4+y,1/4+z
9 1/2+x,y,1/2+z
10 1/2-x,-y,1/2+z
11 3/4+x,1/4-y,3/4+z
12 3/4-x,1/4+y,3/4+z
13 x,1/2+y,1/2+z
14 -x,1/2-y,1/2+z
15 1/4+x,3/4-y,3/4+z
16 1/4-x,3/4+y,3/4+z
_cell_length_a 17.269
_cell_length_b 27.3
_cell_length_c 8.154
_cell_angle_alpha 90
_cell_angle_beta 90
_cell_angle_gamma 90
_cell_formula_units_Z 8
loop_
_atom_type_symbol
_atom_type_radius_bond
C 0.68
H 0.23
Br 1.21
Fe 1.52
N 0.68
O 0.68
loop_
_atom_site_label
_atom_site_type_symbol
_atom_site_fract_x
_atom_site_fract_y
_atom_site_fract_z
Fe1 Fe 0.50000 0.50000 0.50000
Br1 Br 0.50000 0.50000 0.20930
Br2 Br 0.39770 0.44730 0.60570
O1 O 0.57090 0.44340 0.52320
C1 C 0.64090 0.43600 0.57400
N1 N 0.69790 0.42600 0.46970
C2 C 0.77340 0.40900 0.52620
H1 H 0.81200 0.41440 0.44180
H2 H 0.77140 0.37420 0.54990
C3 C 0.79420 0.43620 0.67490
H3 H 0.80110 0.47050 0.64700
H4 H 0.84330 0.42400 0.71600
C4 C 0.73500 0.43200 0.80580
H5 H 0.74080 0.40080 0.86120
H6 H 0.74260 0.45780 0.88550
N2 N 0.65610 0.43560 0.73510
C5 C 0.68520 0.42380 0.29750
H7 H 0.63430 0.43600 0.27310
H8 H 0.68940 0.39050 0.26110
H9 H 0.72310 0.44350 0.24250
C6 C 0.59120 0.43990 0.85950
H10 H 0.54250 0.44250 0.80330
H11 H 0.59900 0.46850 0.92570
H12 H 0.59080 0.41140 0.92820
Br2A Br 0.60230 0.55270 0.60570
O1A O 0.42910 0.55660 0.52320
C1A C 0.35910 0.56400 0.57400
N1A N 0.30210 0.57400 0.46970
C2A C 0.22660 0.59100 0.52620
H1A H 0.18800 0.58560 0.44180
H2A H 0.22860 0.62580 0.54990
C3A C 0.20580 0.56380 0.67490
H3A H 0.19890 0.52950 0.64700
H4A H 0.15670 0.57600 0.71600
C4A C 0.26500 0.56800 0.80580
H5A H 0.25920 0.59920 0.86120
H6A H 0.25740 0.54220 0.88550
N2A N 0.34390 0.56440 0.73510
C5A C 0.31480 0.57620 0.29750
H7A H 0.36570 0.56400 0.27310
H8A H 0.31060 0.60950 0.26110
H9A H 0.27690 0.55650 0.24250
C6A C 0.40880 0.56010 0.85950
H10A H 0.45750 0.55750 0.80330
H11A H 0.40100 0.53150 0.92570
H12A H 0.40920 0.58860 0.92820
#END
