
#######################################################################
#
#                 Cambridge Crystallographic Data Centre
#                                CCDC
#
#######################################################################
#
# If this CIF has been generated from an entry in the Cambridge
# Structural Database, then it will include bibliographic, chemical,
# crystal, experimental, refinement or atomic coordinate data resulting
# from the CCDC's data processing and validation procedures.
#
#######################################################################

data_CSD_CIF_RIHGEU
_audit_creation_date 1997-11-11
_audit_creation_method CSD-ConQuest-V1
_database_code_CSD RIHGEU
_database_code_depnum_ccdc_archive 'CCDC 895324'
_database_code_depnum_ccdc_journal 179/132
_chemical_formula_sum 'C13 H14 B1 Cr1 N1 O4'
_chemical_formula_moiety
;
C13 H14 B1 Cr1 N1 O4
;
_journal_coden_Cambridge 179
_journal_volume 36
_journal_year 1997
_journal_page_first 267
_journal_name_full 'Angew.Chem.,Int.Ed. '
loop_
_publ_author_name
"M.C.Amendola"
"K.E.Stockman"
"D.A.Hoic"
"W.M.Davis"
"G.C.Fu"
_chemical_name_systematic
;
(\h^6^-Borabenzene-(3-(dimethylamino)acrolein))-tricarbonyl-chromium
;
_cell_volume    694.748
_exptl_crystal_colour 'red-orange'
_exptl_crystal_density_diffrn 1.487
_exptl_special_details
;
Air- and moisture-sensitive

;
_diffrn_ambient_temperature 188.15
#These two values have been output from a single CSD field.
_refine_ls_R_factor_gt 0.04
_refine_ls_wR_factor_gt 0.04
_symmetry_cell_setting triclinic
_symmetry_space_group_name_H-M 'P -1'
_symmetry_Int_Tables_number 2
loop_
_symmetry_equiv_pos_site_id
_symmetry_equiv_pos_as_xyz
1 x,y,z
2 -x,-y,-z
_cell_length_a 6.6231(7)
_cell_length_b 10.6659(12)
_cell_length_c 10.9415(12)
_cell_angle_alpha 107.937(2)
_cell_angle_beta 92.506(2)
_cell_angle_gamma 107.189(2)
_cell_formula_units_Z 2
loop_
_atom_type_symbol
_atom_type_radius_bond
C 0.68
H 0.23
B 0.83
Cr 1.35
N 0.68
O 0.68
loop_
_atom_site_label
_atom_site_type_symbol
_atom_site_fract_x
_atom_site_fract_y
_atom_site_fract_z
Cr1 Cr 0.3223(1) 0.2915(1) 0.2298(1)
O1 O 0.0608(5) 0.4671(3) 0.3544(4)
O2 O 0.1331(5) 0.2784(3) -0.0282(3)
O3 O 0.6525(4) 0.5511(3) 0.2301(3)
O4 O -0.0172(4) 0.1230(3) 0.4126(2)
N1 N -0.3390(5) 0.2514(3) 0.7885(3)
C1 C 0.1593(6) 0.3958(4) 0.3059(4)
C2 C 0.2057(6) 0.2807(3) 0.0721(4)
C3 C 0.5242(6) 0.4495(4) 0.2321(3)
C4 C 0.3330(7) 0.0757(4) 0.1457(4)
C5 C 0.1508(6) 0.0642(4) 0.2090(4)
C6 C 0.5350(7) 0.1650(4) 0.2111(4)
C7 C 0.5630(6) 0.2474(4) 0.3426(4)
C8 C 0.3921(6) 0.2439(4) 0.4137(4)
C9 C -0.0201(6) 0.1978(4) 0.5327(3)
C10 C -0.1930(6) 0.1717(4) 0.5927(3)
C11 C -0.1844(6) 0.2569(4) 0.7203(3)
C12 C -0.5534(6) 0.1501(4) 0.7370(4)
C13 C -0.3107(7) 0.3446(5) 0.9227(4)
B1 B 0.1726(7) 0.1439(4) 0.3499(4)
H1 H 0.3181(7) 0.0216(4) 0.0567(4)
H2 H 0.0141(6) 0.0056(4) 0.1618(4)
H3 H 0.6550(7) 0.1701(4) 0.1661(4)
H4 H 0.7023(6) 0.3073(4) 0.3844(4)
H5 H 0.4141(6) 0.3039(4) 0.5012(4)
H6 H 0.1045(6) 0.2731(4) 0.5788(3)
H7 H -0.3192(6) 0.0965(4) 0.5491(3)
H8 H -0.0508(6) 0.3260(4) 0.7611(3)
H9 H -0.6471(6) 0.1629(4) 0.8035(4)
H10 H -0.5454(6) 0.0554(4) 0.7131(4)
H11 H -0.6111(6) 0.1642(4) 0.6601(4)
H12 H -0.4463(7) 0.3238(5) 0.9570(4)
H13 H -0.2651(7) 0.4416(5) 0.9248(4)
H14 H -0.2017(7) 0.3309(5) 0.9760(4)
#END
