
#######################################################################
#
#                 Cambridge Crystallographic Data Centre
#                                CCDC
#
#######################################################################
#
# If this CIF has been generated from an entry in the Cambridge
# Structural Database, then it will include bibliographic, chemical,
# crystal, experimental, refinement or atomic coordinate data resulting
# from the CCDC's data processing and validation procedures.
#
#######################################################################

data_CSD_CIF_RIHQEG
_audit_creation_date 2013-07-17
_audit_creation_method CSD-ConQuest-V1
_database_code_CSD RIHQEG
_database_code_depnum_ccdc_archive 'CCDC 899448'
_chemical_formula_sum 'C32 H38 Cl2 Mn1 N6 O8'
_chemical_formula_moiety
;
C32 H38 Cl2 Mn1 N6 O8
;
_journal_coden_Cambridge 580
_journal_volume 61
_journal_year 2013
_journal_page_first 45
_journal_name_full 'Polyhedron '
loop_
_publ_author_name
"H.Hosseini-Monfared"
"R.Bikas"
"Joaquin Sanchiz"
"Tadeusz Lis"
"M.Siczek"
"Jiri Tucek"
"R.Zboril"
"P.Mayer"
_chemical_name_systematic
;
trans-dichloro-bis(N'-((2-hydroxy-3-methoxyphenyl)methylene)isonicotinohydrazi
de)-bis(ethanol)-manganese(ii)
;
_cell_volume    820.374
_exptl_crystal_colour 'yellow'
_exptl_crystal_density_diffrn 1.539
_exptl_crystal_description 'block'
_diffrn_ambient_temperature 100
#These two values have been output from a single CSD field.
_refine_ls_R_factor_gt 0.0456
_refine_ls_wR_factor_gt 0.0456
_symmetry_cell_setting triclinic
_symmetry_space_group_name_H-M 'P -1'
_symmetry_Int_Tables_number 2
loop_
_symmetry_equiv_pos_site_id
_symmetry_equiv_pos_as_xyz
1 x,y,z
2 -x,-y,-z
_cell_length_a 8.222(3)
_cell_length_b 8.918(3)
_cell_length_c 12.458(4)
_cell_angle_alpha 69.33(5)
_cell_angle_beta 89.78(5)
_cell_angle_gamma 74.71(5)
_cell_formula_units_Z 1
loop_
_atom_type_symbol
_atom_type_radius_bond
C 0.68
H 0.23
Cl 0.99
Mn 1.61
N 0.68
O 0.68
loop_
_atom_site_label
_atom_site_type_symbol
_atom_site_fract_x
_atom_site_fract_y
_atom_site_fract_z
Mn1 Mn 0.50000 0.50000 0.50000
Cl1 Cl 0.67021(5) 0.34818(4) 0.38431(3)
N1 N 0.51226(17) 0.74873(16) 0.36835(11)
C1 C 0.5065(2) 0.77149(19) 0.25597(13)
H1 H 0.47990 0.68940 0.23270
C2 C 0.5376(2) 0.90889(19) 0.17218(13)
H2 H 0.53140 0.92030 0.09340
C3 C 0.57790(19) 1.03040(18) 0.20443(13)
C4 C 0.5793(2) 1.01043(19) 0.32033(13)
H3 H 0.60240 1.09220 0.34560
C5 C 0.5463(2) 0.86862(19) 0.39854(13)
H4 H 0.54790 0.85580 0.47760
C6 C 0.6219(2) 1.16939(19) 0.10990(13)
O1 O 0.62769(17) 1.16974(15) 0.01196(10)
N2 N 0.65854(18) 1.29185(16) 0.13862(11)
H5 H 0.65330 1.29370 0.20870
N3 N 0.70419(18) 1.41183(16) 0.04992(11)
C7 C 0.7545(2) 1.52493(19) 0.06936(13)
H6 H 0.75990 1.52830 0.14460
C8 C 0.8034(2) 1.64837(19) -0.02779(13)
C9 C 0.7932(2) 1.64515(19) -0.13914(13)
C10 C 0.8399(2) 1.76712(19) -0.23102(13)
C11 C 0.8993(2) 1.8877(2) -0.21117(14)
H7 H 0.93260 1.96880 -0.27320
C12 C 0.9101(2) 1.8900(2) -0.09984(14)
H8 H 0.95040 1.97300 -0.08650
C13 C 0.8627(2) 1.7725(2) -0.00939(14)
H9 H 0.87000 1.77540 0.06590
O2 O 0.73853(16) 1.53018(14) -0.16608(9)
H10 H 0.71570 1.46100 -0.10630
O3 O 0.81928(16) 1.75589(15) -0.33662(9)
C14 C 0.8819(2) 1.8658(2) -0.43028(14)
H11 H 0.81500 1.98140 -0.44640
H12 H 0.87280 1.83780 -0.49890
H13 H 1.00090 1.85370 -0.40980
O4 O 0.72927(14) 0.48627(14) 0.60377(10)
H14 H 0.72320 0.54130 0.64680
C15 C 0.8651(2) 0.3348(2) 0.65496(15)
H15 H 0.87370 0.26690 0.60540
H16 H 0.83750 0.26740 0.73200
C16 C 1.0332(2) 0.3683(2) 0.66823(16)
H17 H 1.12180 0.26210 0.70070
H18 H 1.02610 0.43050 0.71990
H19 H 1.06060 0.43420 0.59260
Cl1A Cl 0.32979(5) 0.65182(4) 0.61569(3)
N1A N 0.48774(17) 0.25127(16) 0.63165(11)
C1A C 0.4935(2) 0.22851(19) 0.74403(13)
H1A H 0.52010 0.31060 0.76730
C2A C 0.4624(2) 0.09111(19) 0.82782(13)
H2A H 0.46860 0.07970 0.90660
C3A C 0.42210(19) -0.03040(18) 0.79557(13)
C4A C 0.4207(2) -0.01043(19) 0.67967(13)
H3A H 0.39760 -0.09220 0.65440
C5A C 0.4537(2) 0.13138(19) 0.60146(13)
H4A H 0.45210 0.14420 0.52240
C6A C 0.3781(2) -0.16939(19) 0.89010(13)
O1A O 0.37231(17) -0.16974(15) 0.98804(10)
N2A N 0.34146(18) -0.29185(16) 0.86138(11)
H5A H 0.34670 -0.29370 0.79130
N3A N 0.29581(18) -0.41183(16) 0.95008(11)
C7A C 0.2455(2) -0.52493(19) 0.93064(13)
H6A H 0.24010 -0.52830 0.85540
C8A C 0.1966(2) -0.64837(19) 1.02779(13)
C9A C 0.2068(2) -0.64515(19) 1.13914(13)
C10A C 0.1601(2) -0.76712(19) 1.23102(13)
C11A C 0.1007(2) -0.8877(2) 1.21117(14)
H7A H 0.06740 -0.96880 1.27320
C12A C 0.0899(2) -0.8900(2) 1.09984(14)
H8A H 0.04960 -0.97300 1.08650
C13A C 0.1373(2) -0.7725(2) 1.00939(14)
H9A H 0.13000 -0.77540 0.93410
O2A O 0.26147(16) -0.53018(14) 1.16608(9)
H10A H 0.28430 -0.46100 1.10630
O3A O 0.18072(16) -0.75589(15) 1.33662(9)
C14A C 0.1181(2) -0.8658(2) 1.43028(14)
H11A H 0.18500 -0.98140 1.44640
H12A H 0.12720 -0.83780 1.49890
H13A H -0.00090 -0.85370 1.40980
O4A O 0.27073(14) 0.51373(14) 0.39623(10)
H14A H 0.27680 0.45870 0.35320
C15A C 0.1349(2) 0.6652(2) 0.34504(15)
H15A H 0.12630 0.73310 0.39460
H16A H 0.16250 0.73260 0.26800
C16A C -0.0332(2) 0.6317(2) 0.33177(16)
H17A H -0.12180 0.73790 0.29930
H18A H -0.02610 0.56950 0.28010
H19A H -0.06060 0.56580 0.40740
#END
