
#######################################################################
#
#                 Cambridge Crystallographic Data Centre
#                                CCDC
#
#######################################################################
#
# If this CIF has been generated from an entry in the Cambridge
# Structural Database, then it will include bibliographic, chemical,
# crystal, experimental, refinement or atomic coordinate data resulting
# from the CCDC's data processing and validation procedures.
#
#######################################################################

data_CSD_CIF_RIKTEN
_audit_creation_date 2018-07-09
_audit_creation_method CSD-ConQuest-V1
_database_code_CSD RIKTEN
_database_code_depnum_ccdc_archive 'CCDC 1563057'
_chemical_formula_sum 'C22 H20 Co1 N4 O10'
_chemical_formula_moiety
;
(C22 H20 Co1 N4 O10)n
;
_journal_coden_Cambridge 29
_journal_volume 644
_journal_year 2018
_journal_page_first 504
_journal_name_full 'Z.Anorg.Allg.Chem. '
loop_
_publ_author_name
"Jiye Liang"
"Wenyan Zhang"
"Yangtian Yan"
"Yunlong Wu"
"Gaopeng Li"
"Wenquan Tong"
"Yaoyu Wang"
_chemical_name_systematic
;
catena-[bis(\m-2-carboxy-5-(1H-imidazol-1-yl)benzoato)-diaqua-cobalt(ii)]
;
_cell_volume    548.086
_exptl_crystal_density_diffrn 1.682
_exptl_crystal_description 'block'
_diffrn_ambient_temperature 296.1
#These two values have been output from a single CSD field.
_refine_ls_R_factor_gt 0.0779
_refine_ls_wR_factor_gt 0.0779
_symmetry_cell_setting triclinic
_symmetry_space_group_name_H-M 'P -1'
_symmetry_Int_Tables_number 2
loop_
_symmetry_equiv_pos_site_id
_symmetry_equiv_pos_as_xyz
1 x,y,z
2 -x,-y,-z
_cell_length_a 8.185(4)
_cell_length_b 8.501(5)
_cell_length_c 9.558(5)
_cell_angle_alpha 63.680(9)
_cell_angle_beta 71.735(9)
_cell_angle_gamma 69.401(9)
_cell_formula_units_Z 1
loop_
_atom_type_symbol
_atom_type_radius_bond
C 0.68
H 0.23
Co 1.26
N 0.68
O 0.68
loop_
_atom_site_label
_atom_site_type_symbol
_atom_site_fract_x
_atom_site_fract_y
_atom_site_fract_z
Co1 Co 0.00000 1.00000 0.00000
N1 N 0.5134(7) 0.2367(8) 0.2428(7)
O1 O -0.1003(7) 0.8476(7) -0.0633(6)
H1 H -0.01960 0.75340 -0.06850
H2 H -0.18940 0.81650 0.00660
O2 O 0.1916(8) 0.4680(7) 0.8390(6)
O3 O 0.0457(8) 0.7195(8) 0.6811(7)
O4 O 0.0454(7) 0.7768(7) 0.2129(6)
N2 N 0.7362(7) 0.0970(8) 0.1051(7)
O5 O -0.0022(9) 0.8580(8) 0.4137(7)
C1 C 0.1547(9) 0.5588(9) 0.7075(8)
C2 C 0.2905(9) 0.4798(9) 0.3173(8)
H3 H 0.26410 0.53000 0.21610
C3 C 0.2392(9) 0.4891(9) 0.5748(7)
C4 C 0.2007(8) 0.5656(9) 0.4189(8)
C5 C 0.4213(9) 0.3188(9) 0.3591(8)
C6 C 0.6871(9) 0.1434(9) 0.2266(8)
H4 H 0.76150 0.11630 0.29480
C7 C 0.4611(9) 0.2409(9) 0.5090(9)
H5 H 0.54810 0.13300 0.53860
C8 C 0.4488(10) 0.2455(11) 0.123(1)
H6 H 0.33370 0.30060 0.10340
C9 C 0.3677(10) 0.328(1) 0.6149(9)
H7 H 0.39290 0.27550 0.71670
C10 C 0.587(1) 0.1572(11) 0.0378(9)
H8 H 0.58180 0.14040 -0.05030
C11 C 0.0712(9) 0.7445(9) 0.3467(8)
N1A N -0.5134(7) 1.7633(8) -0.2428(7)
O1A O 0.1003(7) 1.1524(7) 0.0633(6)
H1A H 0.01960 1.24660 0.06850
H2A H 0.18940 1.18350 -0.00660
O2A O -0.1916(8) 1.5320(7) -0.8390(6)
O3A O -0.0457(8) 1.2805(8) -0.6811(7)
O4A O -0.0454(7) 1.2232(7) -0.2129(6)
N2A N -0.7362(7) 1.9030(8) -0.1051(7)
O5A O 0.0022(9) 1.1420(8) -0.4137(7)
C1A C -0.1547(9) 1.4412(9) -0.7075(8)
C2A C -0.2905(9) 1.5202(9) -0.3173(8)
H3A H -0.26410 1.47000 -0.21610
C3A C -0.2392(9) 1.5109(9) -0.5748(7)
C4A C -0.2007(8) 1.4344(9) -0.4189(8)
C5A C -0.4213(9) 1.6812(9) -0.3591(8)
C6A C -0.6871(9) 1.8566(9) -0.2266(8)
H4A H -0.76150 1.88370 -0.29480
C7A C -0.4611(9) 1.7591(9) -0.5090(9)
H5A H -0.54810 1.86700 -0.53860
C8A C -0.4488(10) 1.7545(11) -0.123(1)
H6A H -0.33370 1.69940 -0.10340
C9A C -0.3677(10) 1.672(1) -0.6149(9)
H7A H -0.39290 1.72450 -0.71670
C10A C -0.587(1) 1.8428(11) -0.0378(9)
H8A H -0.58180 1.85960 0.05030
C11A C -0.0712(9) 1.2555(9) -0.3467(8)
Co1* Co -1.00000 2.00000 0.00000
Co1** Co 1.00000 0.00000 0.00000
N2* N -0.2638(7) 1.0970(8) 0.1051(7)
N2A* N 0.2638(7) 0.9030(8) -0.1051(7)
#END
