
#######################################################################
#
#                 Cambridge Crystallographic Data Centre
#                                CCDC
#
#######################################################################
#
# If this CIF has been generated from an entry in the Cambridge
# Structural Database, then it will include bibliographic, chemical,
# crystal, experimental, refinement or atomic coordinate data resulting
# from the CCDC's data processing and validation procedures.
#
#######################################################################

data_CSD_CIF_RIPXIX
_audit_creation_date 1997-11-21
_audit_creation_method CSD-ConQuest-V1
_database_code_CSD RIPXIX
_database_code_depnum_ccdc_journal 186/361
_chemical_formula_sum 'C8 H16 Cl2 Fe1 N3 O2'
_chemical_formula_moiety
;
C8 H16 Cl2 Fe1 N3 O2
;
_journal_coden_Cambridge 186
_journal_year 1997
_journal_page_first 887
_journal_name_full 'J.Chem.Soc.,Dalton Trans. '
loop_
_publ_author_name
"B.Graham"
"B.Moubaraki"
"K.S.Murray"
"L.Spiccia"
"J.D.Cashion"
"D.C.R.Hockless"
_chemical_name_systematic
;
Dichloro-(1,4,7-triazacyclononane-N-acetato)-iron(iii)
;
_cell_volume   1208.359
_exptl_crystal_colour 'orange-yellow'
_exptl_crystal_density_diffrn 1.72
_diffrn_ambient_temperature ?
_diffrn_special_details
;
The study was carried out at room temperature,in the range 283-303K

;
#These two values have been output from a single CSD field.
_refine_ls_R_factor_gt 0.025
_refine_ls_wR_factor_gt 0.025
_symmetry_cell_setting monoclinic
_symmetry_space_group_name_H-M 'C c'
_symmetry_Int_Tables_number 9
loop_
_symmetry_equiv_pos_site_id
_symmetry_equiv_pos_as_xyz
1 x,y,z
2 x,-y,1/2+z
3 1/2+x,1/2+y,z
4 1/2+x,1/2-y,1/2+z
_cell_length_a 12.6445(7)
_cell_length_b 7.2495(8)
_cell_length_c 14.0940(9)
_cell_angle_alpha 90
_cell_angle_beta 110.723(4)
_cell_angle_gamma 90
_cell_formula_units_Z 4
loop_
_atom_type_symbol
_atom_type_radius_bond
C 0.68
H 0.23
Cl 0.99
Fe 1.34
N 0.68
O 0.68
loop_
_atom_site_label
_atom_site_type_symbol
_atom_site_fract_x
_atom_site_fract_y
_atom_site_fract_z
Fe1 Fe 0.14530 0.9371(1) 0.18810
Cl1 Cl 0.2974(1) 1.0132(3) 0.3281(1)
Cl2 Cl 0.0130(2) 1.1281(2) 0.2218(1)
O1 O 0.1724(3) 1.1036(6) 0.0899(3)
O2 O 0.0933(5) 1.2567(7) -0.0549(4)
N1 N 0.0192(4) 0.8386(8) 0.0423(4)
N2 N 0.2355(4) 0.7099(8) 0.1486(4)
N3 N 0.0758(5) 0.7039(8) 0.2391(4)
C1 C 0.0695(6) 0.698(1) -0.0057(5)
C2 C 0.1981(6) 0.700(1) 0.0369(5)
C3 C 0.2219(6) 0.534(1) 0.1962(5)
C4 C 0.1703(6) 0.568(1) 0.2776(5)
C5 C -0.0291(5) 0.628(1) 0.1571(5)
C6 C -0.0757(5) 0.762(1) 0.0689(5)
C7 C -0.0098(6) 1.009(1) -0.0202(5)
C8 C 0.0929(6) 1.133(1) 0.0040(5)
H1 H 0.04410 0.57940 0.00560
H2 H 0.04480 0.72140 -0.07650
H3 H 0.31370 0.73980 0.17340
H4 H 0.22650 0.59110 0.01730
H5 H 0.22510 0.80490 0.01180
H6 H 0.05510 0.74210 0.29470
H7 H 0.29380 0.47700 0.22650
H8 H 0.17370 0.45420 0.14580
H9 H 0.22650 0.61570 0.33680
H10 H 0.14200 0.45530 0.29350
H11 H -0.08560 0.60600 0.18570
H12 H -0.01020 0.51570 0.13240
H13 H -0.12660 0.69860 0.01200
H14 H -0.11440 0.85930 0.08780
H15 H -0.06810 1.07350 -0.00610
H16 H -0.03540 0.97710 -0.09000
#END
