
#######################################################################
#
#                 Cambridge Crystallographic Data Centre
#                                CCDC
#
#######################################################################
#
# If this CIF has been generated from an entry in the Cambridge
# Structural Database, then it will include bibliographic, chemical,
# crystal, experimental, refinement or atomic coordinate data resulting
# from the CCDC's data processing and validation procedures.
#
#######################################################################

data_CSD_CIF_RITPOC
_audit_creation_date 2018-12-03
_audit_creation_method CSD-ConQuest-V1
_database_code_CSD RITPOC
_database_code_depnum_ccdc_archive 'CCDC 1581008'
_chemical_formula_sum 'C10 H38 Cl1 Co1 N6 O11'
_chemical_formula_moiety
;
C6 H24 Co1 N6 3+,C4 H4 O6 2-,5(H2 O1),Cl1 1-
;
_journal_coden_Cambridge 1078
_journal_year 2018
_journal_name_full 'CSD Communication(Private Communication) '
loop_
_publ_author_name
"A.Worrall"
"C.Campbell"
"S.Mansfield"
"M.Stewart"
_chemical_name_systematic
;
tris(ethylenediamine)-cobalt(iii) (S,S)-tartrate chloride pentahydrate
;
_cell_volume    536.764
_exptl_crystal_colour 'intense orange'
_exptl_crystal_density_diffrn 1.586
_exptl_special_details
;
Absolute configuration

;
_exptl_crystal_description 'block'
_exptl_crystal_preparation 'Re-crystallisation from solvent'
_diffrn_ambient_temperature 150
#These two values have been output from a single CSD field.
_refine_ls_R_factor_gt 0.0369
_refine_ls_wR_factor_gt 0.0369
loop_
_citation_database_id_CSD
_citation_special_details
ENCOCT "is a stereoisomer of this entry"
_symmetry_cell_setting triclinic
_symmetry_space_group_name_H-M 'P 1'
_symmetry_Int_Tables_number 1
loop_
_symmetry_equiv_pos_site_id
_symmetry_equiv_pos_as_xyz
1 x,y,z
_cell_length_a 8.1283(3)
_cell_length_b 8.2125(3)
_cell_length_c 8.4808(3)
_cell_angle_alpha 102.422(3)
_cell_angle_beta 101.276(3)
_cell_angle_gamma 95.348(3)
_cell_formula_units_Z 1
loop_
_atom_type_symbol
_atom_type_radius_bond
C 0.68
H 0.23
Cl 0.99
Co 1.26
N 0.68
O 0.68
loop_
_atom_site_label
_atom_site_type_symbol
_atom_site_fract_x
_atom_site_fract_y
_atom_site_fract_z
Co1 Co 0.50012(7) 0.49994(6) 0.49996(6)
N1 N 0.4915(3) 0.7438(2) 0.5305(3)
C1 C 0.4949(3) 0.8226(3) 0.7061(3)
C2 C 0.5995(3) 0.7279(3) 0.8141(3)
N2 N 0.5402(3) 0.5453(3) 0.7435(2)
N3 N 0.2532(3) 0.4594(3) 0.4716(3)
C3 C 0.1926(3) 0.2747(3) 0.4276(3)
C4 C 0.3269(3) 0.1943(3) 0.5208(3)
N4 N 0.4915(3) 0.2579(2) 0.4871(3)
N5 N 0.4790(3) 0.4665(3) 0.2598(2)
C5 C 0.6486(3) 0.5107(3) 0.2258(3)
C6 C 0.7795(3) 0.4571(3) 0.3496(3)
N6 N 0.7462(3) 0.5267(3) 0.5169(3)
H1 H 0.57670 0.79200 0.49860
H2 H 0.39740 0.76250 0.46440
H3 H 0.54450 0.93850 0.73550
H4 H 0.37950 0.81450 0.72470
H5 H 0.71780 0.75370 0.81340
H6 H 0.58400 0.75800 0.92790
H7 H 0.44550 0.51480 0.77380
H8 H 0.61830 0.48540 0.77840
H9 H 0.22470 0.50980 0.56480
H10 H 0.20580 0.50480 0.39150
H11 H 0.08510 0.25200 0.46160
H12 H 0.17760 0.22840 0.31090
H13 H 0.32850 0.22870 0.63910
H14 H 0.30140 0.07220 0.48160
H15 H 0.57670 0.23760 0.55960
H16 H 0.49990 0.20310 0.38640
H17 H 0.40870 0.53170 0.22280
H18 H 0.43840 0.35820 0.21110
H19 H 0.67180 0.63200 0.24410
H20 H 0.65080 0.45700 0.11310
H21 H 0.89120 0.50280 0.34530
H22 H 0.77370 0.33730 0.32970
H23 H 0.79490 0.47160 0.58910
H24 H 0.79400 0.63400 0.55570
Cl1 Cl 0.81031(10) 0.26780(9) 0.78489(9)
O1 O 0.1339(2) 0.7980(2) 0.4087(2)
C7 C 0.0656(3) 0.8132(3) 0.2669(3)
O2 O -0.0758(3) 0.8593(2) 0.2262(2)
C8 C 0.1600(3) 0.7670(3) 0.1271(3)
O3 O 0.3362(2) 0.7655(2) 0.1875(2)
C9 C 0.0787(3) 0.5939(3) 0.0202(3)
O4 O 0.0818(2) 0.4786(2) 0.1243(2)
C10 C 0.1735(3) 0.5410(3) -0.1182(3)
O5 O 0.2713(2) 0.4326(2) -0.1086(2)
O6 O 0.1493(3) 0.6160(3) -0.2334(2)
H25 H 0.14340 0.84740 0.05990
H26 H 0.38530 0.85840 0.18500
H27 H 0.03430 0.38550 0.07530
H28 H -0.03900 0.60120 -0.03180
O7 O 0.1875(3) 0.1171(3) -0.0673(3)
H29 H 0.20510 0.21190 -0.07800
H30 H 0.11850 0.04910 -0.14060
O8 O 0.4610(2) 0.0683(2) 0.1365(2)
H31 H 0.39790 0.07830 0.05280
H32 H 0.54620 0.07240 0.09850
O9 O 0.7787(3) 0.0947(3) 0.0787(3)
H33 H 0.83280 0.01940 0.09780
H34 H 0.79890 0.11570 -0.00650
O10 O 0.7238(2) 0.9801(2) 0.4373(2)
H35 H 0.79130 0.95330 0.38140
H36 H 0.78860 1.01910 0.52830
O11 O 0.9836(3) 0.8556(2) 0.6759(2)
H37 H 1.03090 0.78990 0.72330
H38 H 1.03070 0.85120 0.59860
#END
