
#######################################################################
#
#                 Cambridge Crystallographic Data Centre
#                                CCDC
#
#######################################################################
#
# If this CIF has been generated from an entry in the Cambridge
# Structural Database, then it will include bibliographic, chemical,
# crystal, experimental, refinement or atomic coordinate data resulting
# from the CCDC's data processing and validation procedures.
#
#######################################################################

data_CSD_CIF_RIVBON
_audit_creation_date 1997-12-10
_audit_creation_method CSD-ConQuest-V1
_database_code_CSD RIVBON
_database_code_depnum_ccdc_journal 188/56
_chemical_formula_sum 'C19 H14 Cr1 O3'
_chemical_formula_moiety
;
C19 H14 Cr1 O3
;
_journal_coden_Cambridge 188
_journal_year 1997
_journal_page_first 735
_journal_name_full 'J.Chem.Soc.,Perkin Trans.2 '
loop_
_publ_author_name
"T.E.Bitterwolf"
"A.Ceccon"
"A.Gambaro"
"P.Ganis"
"D.Kuck"
"F.Manoli"
"A.L.Rheingold"
"G.Valle"
"A.Venzo"
_chemical_name_systematic
;
syn-(\h^6^-4b,9,9a,10-Tetrahydroindeno(1,2-a)indene)-tricarbonyl-chromium
;
_chemical_melting_point 454.15
_cell_volume    749.831
_exptl_crystal_colour 'yellow'
_exptl_crystal_density_diffrn 1.52
_exptl_special_details
;
Melts with decomposition.

;
_diffrn_ambient_temperature ?
_diffrn_special_details
;
The study was carried out at room temperature,in the range 283-303K

;
#These two values have been output from a single CSD field.
_refine_ls_R_factor_gt 0.066
_refine_ls_wR_factor_gt 0.066
_symmetry_cell_setting triclinic
_symmetry_space_group_name_H-M 'P -1'
_symmetry_Int_Tables_number 2
loop_
_symmetry_equiv_pos_site_id
_symmetry_equiv_pos_as_xyz
1 x,y,z
2 -x,-y,-z
_cell_length_a 11.807(6)
_cell_length_b 8.451(5)
_cell_length_c 7.906(4)
_cell_angle_alpha 77.3(2)
_cell_angle_beta 77.2(2)
_cell_angle_gamma 85.0(1)
_cell_formula_units_Z 2
loop_
_atom_type_symbol
_atom_type_radius_bond
C 0.68
H 0.23
Cr 1.35
O 0.68
loop_
_atom_site_label
_atom_site_type_symbol
_atom_site_fract_x
_atom_site_fract_y
_atom_site_fract_z
Cr1 Cr 0.14073(3) 0.23947(4) 0.18978(5)
O1 O 0.3480(2) 0.1104(3) 0.3440(3)
O2 O 0.2335(2) 0.5727(2) 0.1038(3)
O3 O 0.0164(2) 0.3152(3) 0.5371(2)
C1 C 0.3629(2) 0.1345(3) -0.2098(4)
C2 C 0.3108(3) -0.0083(3) -0.0607(4)
C3 C 0.1922(2) 0.0578(3) 0.0158(3)
C4 C 0.1123(3) -0.0114(3) 0.1701(4)
C5 C 0.0052(2) 0.0676(3) 0.2130(4)
C6 C -0.0239(2) 0.2175(3) 0.1070(3)
C7 C 0.0562(2) 0.2867(3) -0.0449(3)
C8 C 0.1639(2) 0.2038(3) -0.0923(3)
C9 C 0.2574(2) 0.2453(3) -0.2567(3)
C10 C 0.4420(3) 0.2461(4) -0.1628(4)
C11 C 0.4052(2) 0.4152(4) -0.2473(3)
C12 C 0.4611(3) 0.5591(5) -0.2763(4)
C13 C 0.4125(3) 0.7001(4) -0.3632(5)
C14 C 0.3095(3) 0.6991(4) -0.4185(5)
C15 C 0.2538(3) 0.5552(4) -0.3892(4)
C16 C 0.3026(2) 0.4143(3) -0.3025(3)
C17 C 0.2681(2) 0.1639(3) 0.2857(3)
C18 C 0.1991(2) 0.4460(3) 0.1313(3)
C19 C 0.0648(2) 0.2879(3) 0.4013(3)
H1 H 0.40700 0.09500 -0.30700
H2 H 0.34700 -0.03900 0.01900
H3 H 0.29800 -0.10600 -0.13100
H4 H 0.13500 -0.11300 0.23200
H5 H -0.04600 0.02800 0.30400
H6 H -0.09100 0.27100 0.14800
H7 H 0.03400 0.38100 -0.10800
H8 H 0.22900 0.21700 -0.35500
H9 H 0.43100 0.23900 -0.04600
H10 H 0.53600 0.21500 -0.20700
H11 H 0.53900 0.55500 -0.23600
H12 H 0.46000 0.79200 -0.38100
H13 H 0.27100 0.79800 -0.47000
H14 H 0.18200 0.56400 -0.43500
#END
