
#######################################################################
#
#                 Cambridge Crystallographic Data Centre
#                                CCDC
#
#######################################################################
#
# If this CIF has been generated from an entry in the Cambridge
# Structural Database, then it will include bibliographic, chemical,
# crystal, experimental, refinement or atomic coordinate data resulting
# from the CCDC's data processing and validation procedures.
#
#######################################################################

data_CSD_CIF_ROCCUH
_audit_creation_date 1997-12-19
_audit_creation_method CSD-ConQuest-V1
_database_code_CSD ROCCUH
_chemical_formula_sum 'C9 H4 Cr1 F2 O3'
_chemical_formula_moiety
;
C9 H4 Cr1 F2 O3
;
_journal_coden_Cambridge 155
_journal_volume 250
_journal_year 1996
_journal_page_first 317
_journal_name_full 'Inorg.Chim.Acta '
loop_
_publ_author_name
"B.R.Jagirdar"
"K.J.Kalbunde"
"R.Palmer"
"L.J.Radonovich"
"T.Williams"
_chemical_name_systematic
;
(\h^6^-1,4-Difluorobenzene)-tricarbonyl-chromium(ii)
;
_cell_volume    461.504
_exptl_crystal_colour 'golden yellow'
_exptl_crystal_density_diffrn 1.8
_diffrn_ambient_temperature ?
_diffrn_special_details
;
The study was carried out at room temperature,in the range 283-303K

;
#These two values have been output from a single CSD field.
_refine_ls_R_factor_gt 0.03
_refine_ls_wR_factor_gt 0.03
_symmetry_cell_setting monoclinic
_symmetry_space_group_name_H-M 'P 21/m'
_symmetry_Int_Tables_number 11
loop_
_symmetry_equiv_pos_site_id
_symmetry_equiv_pos_as_xyz
1 x,y,z
2 -x,1/2+y,-z
3 -x,-y,-z
4 x,-1/2-y,z
_cell_length_a 6.2981(6)
_cell_length_b 11.595(1)
_cell_length_c 7.9526(6)
_cell_angle_alpha 90
_cell_angle_beta 127.376(3)
_cell_angle_gamma 90
_cell_formula_units_Z 2
loop_
_atom_type_symbol
_atom_type_radius_bond
C 0.68
H 0.23
Cr 1.35
F 0.64
O 0.68
loop_
_atom_site_label
_atom_site_type_symbol
_atom_site_fract_x
_atom_site_fract_y
_atom_site_fract_z
Cr1 Cr 0.18150(7) 0.25000 0.50267(5)
C1 C -0.1166(4) 0.1324(2) 0.2454(3)
C2 C -0.2348(4) 0.1892(2) 0.3228(3)
C3 C 0.0170(4) 0.1898(2) 0.1797(3)
C4 C 0.1971(5) 0.25000 0.7416(4)
C5 C 0.4426(4) 0.1379(2) 0.6280(3)
F1 F -0.1180(3) 0.0164(1) 0.2417(2)
O1 O 0.2007(5) 0.25000 0.8869(3)
O2 O 0.6038(4) 0.0677(2) 0.7097(3)
H1 H -0.31380 0.14730 0.37460
H2 H 0.10560 0.14790 0.13620
C1C C -0.1166(4) 0.3676(2) 0.2454(3)
C2C C -0.2348(4) 0.3108(2) 0.3228(3)
C3C C 0.0170(4) 0.3102(2) 0.1797(3)
C5C C 0.4426(4) 0.3621(2) 0.6280(3)
O2C O 0.6038(4) 0.4323(2) 0.7097(3)
F1C F -0.1180(3) 0.4836(1) 0.2417(2)
H2C H 0.10560 0.35210 0.13620
H1C H -0.31380 0.35270 0.37460
#END
