
#######################################################################
#
#                 Cambridge Crystallographic Data Centre
#                                CCDC
#
#######################################################################
#
# If this CIF has been generated from an entry in the Cambridge
# Structural Database, then it will include bibliographic, chemical,
# crystal, experimental, refinement or atomic coordinate data resulting
# from the CCDC's data processing and validation procedures.
#
#######################################################################

data_CSD_CIF_ROKKAD
_audit_creation_date 1998-01-15
_audit_creation_method CSD-ConQuest-V1
_database_code_CSD ROKKAD
_database_code_depnum_ccdc_archive 'CCDC 129284'
_chemical_formula_sum 'C10 H32.47 Cl3.47 Co1 N4 O4'
_chemical_formula_moiety
;
C10 H24 Cl2 Co1 N4 1+,1.47(Cl1 1-),0.47(H3 O1 1+),3.53(H2 O1)
;
_journal_coeditor_code "IUCr FG1254"
_journal_coden_Cambridge 591
_journal_volume 53
_journal_year 1997
_journal_page_first 1585
_journal_name_full 'Acta Crystallogr.,Sect.C:Cryst.Struct.Commun. '
loop_
_publ_author_name
"M.E.Sosa-Torres"
"R.A.Toscano"
_chemical_name_systematic
;
trans-Dichloro-(1,4,8,11-tetra-azacyclotetradecane)-cobalt(iii) chloride 
oxonium hydrate chloride
;
_cell_volume   1000.943
_exptl_crystal_colour 'green'
_exptl_crystal_density_diffrn 1.509
_exptl_crystal_description 'prism'
_diffrn_ambient_temperature ?
_diffrn_special_details
;
The study was carried out at room temperature,in the range 283-303K

;
_refine_special_details
;
The chloride counterion exhibits statistical disorder, while one of the 
solvent water molecules exhibits orientational disorder as a result of 
partial protonation. Occupancy for Cl2 is 0.734 and for H1A-C is 0.74.
;
#These two values have been output from a single CSD field.
_refine_ls_R_factor_gt 0.0413
_refine_ls_wR_factor_gt 0.0413
_symmetry_cell_setting monoclinic
_symmetry_space_group_name_H-M 'P 21/n'
_symmetry_Int_Tables_number 14
loop_
_symmetry_equiv_pos_site_id
_symmetry_equiv_pos_as_xyz
1 x,y,z
2 1/2-x,1/2+y,1/2-z
3 -x,-y,-z
4 -1/2+x,-1/2-y,-1/2+z
_cell_length_a 6.393(2)
_cell_length_b 7.433(1)
_cell_length_c 21.067(3)
_cell_angle_alpha 90
_cell_angle_beta 90.97(2)
_cell_angle_gamma 90
_cell_formula_units_Z 2
loop_
_atom_type_symbol
_atom_type_radius_bond
C 0.68
H 0.23
Cl 0.99
Co 1.33
N 0.68
O 0.68
loop_
_atom_site_label
_atom_site_type_symbol
_atom_site_fract_x
_atom_site_fract_y
_atom_site_fract_z
Co1 Co 0.50000 0.00000 0.50000
Cl1 Cl 0.23878(7) 0.20309(7) 0.49486(3)
N1 N 0.7152(3) 0.1904(3) 0.50221(10)
H1 H 0.825(5) 0.132(4) 0.4972(13)
C1 C 0.7181(4) 0.2728(4) 0.56615(14)
H2 H 0.605(5) 0.352(5) 0.5683(14)
H3 H 0.843(5) 0.336(5) 0.5735(15)
C2 C 0.6882(4) 0.1251(4) 0.61340(13)
H4 H 0.802(5) 0.034(4) 0.6154(15)
H5 H 0.664(5) 0.177(4) 0.6582(15)
N2 N 0.4982(3) 0.0222(3) 0.59369(9)
H6 H 0.392(5) 0.094(4) 0.6011(13)
C3 C 0.4729(4) -0.1408(4) 0.63270(13)
H7 H 0.596(5) -0.216(5) 0.6286(15)
H8 H 0.481(5) -0.104(5) 0.6762(16)
C4 C 0.2774(5) -0.2452(4) 0.61388(15)
H9 H 0.151(6) -0.169(5) 0.6171(16)
H10 H 0.262(6) -0.338(5) 0.6468(16)
C5 C 0.7157(4) 0.3275(3) 0.45135(14)
H11 H 0.600(5) 0.393(5) 0.4544(14)
H12 H 0.835(5) 0.414(5) 0.4589(15)
Cl2 Cl 0.1763(2) 0.2511(2) 0.68061(6)
O1 O -0.0108(4) -0.0838(5) 0.7420(2)
H13 H 0.031(10) 0.023(7) 0.727(3)
H14 H -0.093(9) -0.046(9) 0.759(3)
H15 H 0.068(9) -0.116(9) 0.763(3)
O2 O 0.8588(5) -0.4502(5) 0.6962(2)
H16 H 0.942(8) -0.525(6) 0.691(3)
H17 H 0.909(9) -0.370(7) 0.710(3)
Cl1B Cl 0.76122(7) -0.20309(7) 0.50514(3)
N1B N 0.2848(3) -0.1904(3) 0.49779(10)
H1B H 0.175(5) -0.132(4) 0.5028(13)
C1B C 0.2819(4) -0.2728(4) 0.43385(14)
H2B H 0.395(5) -0.352(5) 0.4317(14)
H3B H 0.157(5) -0.336(5) 0.4265(15)
C2B C 0.3118(4) -0.1251(4) 0.38660(13)
H4B H 0.198(5) -0.034(4) 0.3846(15)
H5B H 0.336(5) -0.177(4) 0.3418(15)
N2B N 0.5018(3) -0.0222(3) 0.40631(9)
H6B H 0.608(5) -0.094(4) 0.3989(13)
C3B C 0.5271(4) 0.1408(4) 0.36730(13)
H7B H 0.404(5) 0.216(5) 0.3714(15)
H8B H 0.519(5) 0.104(5) 0.3238(16)
C4B C 0.7226(5) 0.2452(4) 0.38612(15)
H9B H 0.849(6) 0.169(5) 0.3829(16)
H10B H 0.738(6) 0.338(5) 0.3532(16)
C5B C 0.2843(4) -0.3275(3) 0.54865(14)
H11B H 0.400(5) -0.393(5) 0.5456(14)
H12B H 0.165(5) -0.414(5) 0.5411(15)
#END
