
#######################################################################
#
#                 Cambridge Crystallographic Data Centre
#                                CCDC
#
#######################################################################
#
# If this CIF has been generated from an entry in the Cambridge
# Structural Database, then it will include bibliographic, chemical,
# crystal, experimental, refinement or atomic coordinate data resulting
# from the CCDC's data processing and validation procedures.
#
#######################################################################

data_CSD_CIF_ROKSIW
_audit_creation_date 2019-08-14
_audit_creation_method CSD-ConQuest-V1
_database_code_CSD ROKSIW
_database_code_depnum_ccdc_archive 'CCDC 1881227'
_chemical_formula_sum 'C14 H10 F6 Mn1 N2 O6'
_chemical_formula_moiety
;
C14 H10 F6 Mn1 N2 O6
;
_journal_coden_Cambridge 603
_journal_volume 38
_journal_year 2019
_journal_page_first 1349
_journal_name_full 'Jiegou Huaxue(Chin.)(Chin.J.Struct.Chem.) '
loop_
_publ_author_name
"Jia-Kai Wang"
"Bing Li"
"Huan-Ping Wu"
"Xiao-Yan Tian"
"Xiao-Xia Ma"
_chemical_name_systematic
;
bis[5-(trifluoromethyl)pyridine-2-carboxylato]-bis(aqua)-manganese(ii)
;
_cell_volume    436.323
_exptl_crystal_density_diffrn 1.793
_exptl_crystal_description 'block'
_diffrn_ambient_temperature 293
#These two values have been output from a single CSD field.
_refine_ls_R_factor_gt 0.0454
_refine_ls_wR_factor_gt 0.0454
_symmetry_cell_setting triclinic
_symmetry_space_group_name_H-M 'P -1'
_symmetry_Int_Tables_number 2
loop_
_symmetry_equiv_pos_site_id
_symmetry_equiv_pos_as_xyz
1 x,y,z
2 -x,-y,-z
_cell_length_a 5.0885(10)
_cell_length_b 6.5574(13)
_cell_length_c 14.016(3)
_cell_angle_alpha 103.30(3)
_cell_angle_beta 90.67(3)
_cell_angle_gamma 105.90(3)
_cell_formula_units_Z 1
loop_
_atom_type_symbol
_atom_type_radius_bond
C 0.68
H 0.23
F 0.64
Mn 1.61
N 0.68
O 0.68
loop_
_atom_site_label
_atom_site_type_symbol
_atom_site_fract_x
_atom_site_fract_y
_atom_site_fract_z
Mn1 Mn 0.50000 0.50000 0.50000
O1 O 0.6804(4) 0.2714(3) 0.54211(15)
O2 O 0.8751(4) 0.7627(3) 0.55668(18)
O3 O 0.7257(5) 0.1015(4) 0.65844(17)
N1 N 0.3929(4) 0.5067(4) 0.65687(16)
F1 F -0.0808(5) 0.8375(4) 0.82655(18)
F2 F 0.2733(6) 0.9460(5) 0.9223(2)
F3 F -0.0612(7) 0.6798(5) 0.9391(2)
C1 C 0.4742(5) 0.3581(4) 0.6911(2)
C2 C 0.2648(6) 0.6324(5) 0.7158(2)
C3 C 0.6390(5) 0.2298(4) 0.6248(2)
C4 C 0.2112(6) 0.6103(5) 0.8096(2)
C5 C 0.4208(8) 0.3236(6) 0.7828(3)
C6 C 0.2864(8) 0.4520(6) 0.8430(3)
C7 C 0.0845(7) 0.7668(6) 0.8748(3)
H1 H 0.204(6) 0.730(5) 0.692(2)
H2 H 0.240(9) 0.435(7) 0.903(4)
H3 H 0.474(7) 0.214(6) 0.802(3)
H4 H 0.854(8) 0.890(7) 0.587(3)
H5 H 1.009(9) 0.783(7) 0.524(3)
O1A O 0.3196(4) 0.7286(3) 0.45789(15)
O2A O 0.1249(4) 0.2373(3) 0.44332(18)
O3A O 0.2743(5) 0.8985(4) 0.34156(17)
N1A N 0.6071(4) 0.4933(4) 0.34313(16)
F1A F 1.0808(5) 0.1625(4) 0.17345(18)
F2A F 0.7267(6) 0.0540(5) 0.0777(2)
F3A F 1.0612(7) 0.3202(5) 0.0609(2)
C1A C 0.5258(5) 0.6419(4) 0.3089(2)
C2A C 0.7352(6) 0.3676(5) 0.2842(2)
C3A C 0.3610(5) 0.7702(4) 0.3752(2)
C4A C 0.7888(6) 0.3897(5) 0.1904(2)
C5A C 0.5792(8) 0.6764(6) 0.2172(3)
C6A C 0.7136(8) 0.5480(6) 0.1570(3)
C7A C 0.9155(7) 0.2332(6) 0.1252(3)
H1A H 0.796(6) 0.270(5) 0.308(2)
H2A H 0.760(9) 0.565(7) 0.097(4)
H3A H 0.526(7) 0.786(6) 0.198(3)
H4A H 0.146(8) 0.110(7) 0.413(3)
H5A H -0.009(9) 0.217(7) 0.476(3)
#END
