
#######################################################################
#
#                 Cambridge Crystallographic Data Centre
#                                CCDC
#
#######################################################################
#
# If this CIF has been generated from an entry in the Cambridge
# Structural Database, then it will include bibliographic, chemical,
# crystal, experimental, refinement or atomic coordinate data resulting
# from the CCDC's data processing and validation procedures.
#
#######################################################################

data_CSD_CIF_RONROE
_audit_creation_date 2019-08-16
_audit_creation_method CSD-ConQuest-V1
_database_code_CSD RONROE
_database_code_depnum_ccdc_archive 'CCDC 1945546'
_chemical_formula_sum 'C17 H12 Cl1 Fe1 N1 O1'
_chemical_formula_moiety
;
C17 H12 Cl1 Fe1 N1 O1
;
_journal_coeditor_code "vm4041"
_journal_coden_Cambridge 1959
_journal_volume 4
_journal_year 2019
_journal_page_first x191096
_journal_name_full 'IUCrData '
loop_
_publ_author_name
"J.J.Sanchez-Garcia"
"M.Flores-Alamo"
"E.Martinez-Falcon"
"E.I.Klimova"
_chemical_name_systematic
;
1-(5-chloro-1,3-benzoxazol-2-yl)-ferrocene
;
_cell_volume    678.285
_exptl_crystal_colour 'brown'
_exptl_crystal_density_diffrn 1.653
_exptl_crystal_description 'prism'
_diffrn_ambient_temperature 130
#These two values have been output from a single CSD field.
_refine_ls_R_factor_gt 0.0467
_refine_ls_wR_factor_gt 0.0467
_symmetry_cell_setting monoclinic
_symmetry_space_group_name_H-M 'P 21'
_symmetry_Int_Tables_number 4
loop_
_symmetry_equiv_pos_site_id
_symmetry_equiv_pos_as_xyz
1 x,y,z
2 -x,1/2+y,-z
_cell_length_a 5.7854(7)
_cell_length_b 9.2974(11)
_cell_length_c 12.6443(12)
_cell_angle_alpha 90
_cell_angle_beta 94.217(10)
_cell_angle_gamma 90
_cell_formula_units_Z 2
loop_
_atom_type_symbol
_atom_type_radius_bond
C 0.68
H 0.23
Cl 0.99
Fe 1.52
N 0.68
O 0.68
loop_
_atom_site_label
_atom_site_type_symbol
_atom_site_fract_x
_atom_site_fract_y
_atom_site_fract_z
C1 C 0.3847(12) 0.8652(9) 0.3871(7)
H1 H 0.24727 0.88821 0.34477
C2 C 0.4058(13) 0.7612(9) 0.4687(6)
H2 H 0.28542 0.70161 0.49126
C3 C 0.6407(14) 0.7623(9) 0.5108(7)
H3 H 0.70335 0.70280 0.56688
C4 C 0.7664(13) 0.8653(10) 0.4566(7)
H4 H 0.92635 0.88743 0.46915
C5 C 0.6079(13) 0.9296(9) 0.3797(7)
C6 C 0.6662(13) 1.0362(9) 0.3026(7)
C7 C 0.6049(13) 1.1657(8) 0.1601(6)
C8 C 0.8238(12) 1.1923(9) 0.2083(6)
C9 C 0.9673(13) 1.2921(8) 0.1624(7)
H5 H 1.11843 1.31383 0.19271
C10 C 0.8763(13) 1.3570(9) 0.0706(7)
C11 C 0.6569(13) 1.3292(9) 0.0229(6)
H6 H 0.60423 1.37809 -0.04032
C12 C 0.5138(12) 1.2289(11) 0.0685(6)
H7 H 0.36338 1.20604 0.03784
C13 C 0.5383(13) 0.5194(9) 0.2913(6)
H8 H 0.41336 0.46125 0.31090
C14 C 0.5257(15) 0.6234(9) 0.2105(7)
H9 H 0.39154 0.64720 0.16609
C15 C 0.7489(13) 0.6867(9) 0.2066(6)
H10 H 0.79013 0.76048 0.15948
C16 C 0.8978(15) 0.6201(9) 0.2854(7)
H11 H 1.05765 0.64049 0.30078
C17 C 0.7634(15) 0.5156(10) 0.3380(7)
H12 H 0.81863 0.45473 0.39474
Cl1 Cl 1.0453(4) 1.4841(2) 0.0092(2)
Fe1 Fe 0.62694(17) 0.71553(12) 0.35316(8)
N1 N 0.8578(11) 1.1084(7) 0.3008(5)
O1 O 0.5007(9) 1.0647(6) 0.2210(4)
#END
