
#######################################################################
#
#                 Cambridge Crystallographic Data Centre
#                                CCDC
#
#######################################################################
#
# If this CIF has been generated from an entry in the Cambridge
# Structural Database, then it will include bibliographic, chemical,
# crystal, experimental, refinement or atomic coordinate data resulting
# from the CCDC's data processing and validation procedures.
#
#######################################################################

data_CSD_CIF_ROYGUJ
_audit_creation_date 2015-03-11
_audit_creation_method CSD-ConQuest-V1
_database_code_CSD ROYGUJ
_database_code_depnum_ccdc_archive 'CCDC 985623'
_chemical_formula_sum 'C15 H23 B2 Mn1 N3'
_chemical_formula_moiety
;
C15 H23 B2 Mn1 N3
;
_journal_coden_Cambridge 222
_journal_volume 44
_journal_year 2015
_journal_page_first 6571
_journal_name_full 'Dalton Trans. '
loop_
_publ_author_name
"N.A.Tumanov"
"D.A.Safin"
"Bo Richter"
"Z.Lodziana"
"T.R.Jensen"
"Yann Garcia"
"Y.Filinchuk"
_chemical_name_systematic
;
bis(tetrahydroborate)-dihydrido-tris(pyridine)-manganese(ii)
;
_cell_volume   1746.532
_exptl_crystal_colour 'colorless'
_exptl_crystal_density_diffrn 1.224
_exptl_special_details
;
Air-sensitive, Moisture-sensitive

;
_exptl_crystal_description 'plate'
_diffrn_ambient_temperature 150
#These two values have been output from a single CSD field.
_refine_ls_R_factor_gt 0.0388
_refine_ls_wR_factor_gt 0.0388
_symmetry_cell_setting monoclinic
_symmetry_space_group_name_H-M 'C 2/c'
_symmetry_Int_Tables_number 15
loop_
_symmetry_equiv_pos_site_id
_symmetry_equiv_pos_as_xyz
1 x,y,z
2 -x,y,1/2-z
3 1/2+x,1/2+y,z
4 1/2-x,1/2+y,1/2-z
5 -x,-y,-z
6 x,-y,-1/2+z
7 -1/2-x,-1/2-y,-z
8 -1/2+x,-1/2-y,-1/2+z
_cell_length_a 12.3618(4)
_cell_length_b 15.5064(5)
_cell_length_c 9.2859(4)
_cell_angle_alpha 90
_cell_angle_beta 101.126(4)
_cell_angle_gamma 90
_cell_formula_units_Z 4
loop_
_atom_type_symbol
_atom_type_radius_bond
C 0.68
H 0.23
B 0.83
Mn 1.61
N 0.68
loop_
_atom_site_label
_atom_site_type_symbol
_atom_site_fract_x
_atom_site_fract_y
_atom_site_fract_z
Mn1 Mn 0.50000 0.69086(2) 0.75000
C1 C 0.59710(18) 0.76898(14) 0.4765(2)
H1 H 0.58440 0.82250 0.52000
N1 N 0.57341(16) 0.69609(10) 0.5427(2)
C2 C 0.59435(19) 0.62153(15) 0.4806(2)
H2 H 0.57990 0.56910 0.52640
C3 C 0.6584(2) 0.69303(14) 0.2848(3)
H3 H 0.68650 0.69190 0.19650
C4 C 0.63883(18) 0.77040(16) 0.3490(2)
H4 H 0.65380 0.82360 0.30610
B1 B 0.33074(17) 0.62031(15) 0.6131(2)
H5 H 0.3410(17) 0.6913(5) 0.610(2)
H6 H 0.3255(15) 0.5920(11) 0.5007(11)
H7 H 0.2535(10) 0.6027(12) 0.6543(18)
H8 H 0.4036(11) 0.5894(11) 0.6896(16)
C5 C 0.6363(2) 0.61719(17) 0.3520(3)
H9 H 0.64960 0.56300 0.31110
N2 N 0.50000 0.83571(16) 0.75000
C6 C 0.41962(16) 0.87992(14) 0.6644(2)
H10 H 0.36220 0.84880 0.60330
C7 C 0.4164(2) 0.96904(16) 0.6610(4)
H11 H 0.35830 0.99900 0.59910
C8 C 0.50000 1.0125(2) 0.75000
H12 H 0.50000 1.07380 0.75000
C6A C 0.58038(16) 0.87992(14) 0.8356(2)
H10A H 0.63780 0.84880 0.89670
C7A C 0.5836(2) 0.96904(16) 0.8390(4)
H11A H 0.64170 0.99900 0.90090
C1A C 0.40290(18) 0.76898(14) 1.0235(2)
H1A H 0.41560 0.82250 0.98000
N1A N 0.42659(16) 0.69609(10) 0.9573(2)
C2A C 0.40565(19) 0.62153(15) 1.0194(2)
H2A H 0.42010 0.56910 0.97360
C3A C 0.3416(2) 0.69303(14) 1.2152(3)
H3A H 0.31350 0.69190 1.30350
C4A C 0.36117(18) 0.77040(16) 1.1510(2)
H4A H 0.34620 0.82360 1.19390
B1A B 0.66926(17) 0.62031(15) 0.8869(2)
H5A H 0.6590(17) 0.6913(5) 0.890(2)
H6A H 0.6745(15) 0.5920(11) 0.9993(11)
H7A H 0.7465(10) 0.6027(12) 0.8457(18)
H8A H 0.5964(11) 0.5894(11) 0.8104(16)
C5A C 0.3637(2) 0.61719(17) 1.1480(3)
H9A H 0.35040 0.56300 1.18890
#END
