
#######################################################################
#
#                 Cambridge Crystallographic Data Centre
#                                CCDC
#
#######################################################################
#
# If this CIF has been generated from an entry in the Cambridge
# Structural Database, then it will include bibliographic, chemical,
# crystal, experimental, refinement or atomic coordinate data resulting
# from the CCDC's data processing and validation procedures.
#
#######################################################################

data_CSD_CIF_ROYSUW
_audit_creation_date 2019-12-16
_audit_creation_method CSD-ConQuest-V1
_database_code_CSD ROYSUW
_database_code_depnum_ccdc_archive 'CCDC 1885079'
_chemical_formula_sum 'C22 H24 Co1 F2 N4 O14'
_chemical_formula_moiety
;
C22 H16 Co1 F2 N4 O10,4(H2 O1)
;
_journal_coden_Cambridge 208
_journal_volume 282
_journal_year 2020
_journal_page_first 121129
_journal_name_full 'J.Solid State Chem. '
loop_
_publ_author_name
"Zhi-Qiang Shi"
"Ning-Ning Ji"
"Wan-Yao Chen"
"Gang Li"
_chemical_name_systematic
;
diaqua-bis(4-carboxy-2-(3-fluorophenyl)-1H-imidazole-5-carboxylato)-cobalt(ii)
 tetrahydrate
;
_cell_volume    648.385
_exptl_crystal_colour 'pink'
_exptl_crystal_density_diffrn 1.704
_exptl_crystal_description 'prism'
_diffrn_ambient_temperature 293
#These two values have been output from a single CSD field.
_refine_ls_R_factor_gt 0.0463
_refine_ls_wR_factor_gt 0.0463
_symmetry_cell_setting triclinic
_symmetry_space_group_name_H-M 'P -1'
_symmetry_Int_Tables_number 2
loop_
_symmetry_equiv_pos_site_id
_symmetry_equiv_pos_as_xyz
1 x,y,z
2 -x,-y,-z
_cell_length_a 7.2174(8)
_cell_length_b 9.0983(7)
_cell_length_c 11.5555(12)
_cell_angle_alpha 109.918(8)
_cell_angle_beta 93.988(9)
_cell_angle_gamma 111.284(9)
_cell_formula_units_Z 1
loop_
_atom_type_symbol
_atom_type_radius_bond
C 0.68
H 0.23
Co 1.26
F 0.64
N 0.68
O 0.68
loop_
_atom_site_label
_atom_site_type_symbol
_atom_site_fract_x
_atom_site_fract_y
_atom_site_fract_z
C1 C 0.1378(4) 0.8673(3) 0.5993(3)
C2 C 0.3301(4) 1.1212(3) 0.4459(3)
C3 C 0.1861(4) 0.8301(3) 0.4751(3)
C4 C 0.2659(4) 0.9338(3) 0.4115(3)
C5 C 0.2215(4) 0.6674(3) 0.2986(3)
C6 C 0.2273(4) 0.5232(3) 0.1938(3)
C7 C 0.2214(5) 0.5243(4) 0.0735(3)
H1 H 0.21770 0.61750 0.05850
C8 C 0.2213(5) 0.3839(4) -0.0230(3)
C9 C 0.2232(6) 0.2425(4) -0.0074(3)
H2 H 0.21930 0.14880 -0.07510
C10 C 0.2310(5) 0.2435(4) 0.1125(4)
H3 H 0.23310 0.14890 0.12590
C11 C 0.2356(5) 0.3827(4) 0.2134(3)
H4 H 0.24430 0.38220 0.29390
Co1 Co 0.00000 0.50000 0.50000
F1 F 0.2154(4) 0.3879(3) -0.1399(2)
N1 N 0.1582(3) 0.6640(3) 0.4041(2)
N2 N 0.2862(4) 0.8291(3) 0.3014(2)
H5 H 0.33250 0.86010 0.24300
O1 O 0.0690(3) 0.7473(2) 0.63539(19)
O2 O 0.1674(3) 1.0218(2) 0.6692(2)
H6 H 0.215(6) 1.094(4) 0.627(4)
O3 O 0.3002(3) 1.2053(2) 0.5525(2)
O4 O 0.4095(3) 1.1847(2) 0.3737(2)
O5 O 0.2747(3) 0.5141(2) 0.5839(2)
H7 H 0.37570 0.58250 0.56590
H8 H 0.27580 0.41390 0.55660
O6 O 0.4080(5) 0.9285(4) 0.1140(3)
H9 H 0.49440 1.03120 0.13520
H10 H 0.370(7) 0.874(5) 0.040(4)
O7 O 0.2853(4) 0.7509(3) 0.8544(2)
H11 H 0.19710 0.75450 0.80390
H12 H 0.30200 0.65930 0.82000
C1A C -0.1378(4) 0.1327(3) 0.4007(3)
C2A C -0.3301(4) -0.1212(3) 0.5541(3)
C3A C -0.1861(4) 0.1699(3) 0.5249(3)
C4A C -0.2659(4) 0.0662(3) 0.5885(3)
C5A C -0.2215(4) 0.3326(3) 0.7014(3)
C6A C -0.2273(4) 0.4768(3) 0.8062(3)
C7A C -0.2214(5) 0.4757(4) 0.9265(3)
H1A H -0.21770 0.38250 0.94150
C8A C -0.2213(5) 0.6161(4) 1.0230(3)
C9A C -0.2232(6) 0.7575(4) 1.0074(3)
H2A H -0.21930 0.85120 1.07510
C10A C -0.2310(5) 0.7565(4) 0.8875(4)
H3A H -0.23310 0.85110 0.87410
C11A C -0.2356(5) 0.6173(4) 0.7866(3)
H4A H -0.24430 0.61780 0.70610
F1A F -0.2154(4) 0.6121(3) 1.1399(2)
N1A N -0.1582(3) 0.3360(3) 0.5959(2)
N2A N -0.2862(4) 0.1709(3) 0.6986(2)
H5A H -0.33250 0.13990 0.75700
O1A O -0.0690(3) 0.2527(2) 0.36461(19)
O2A O -0.1674(3) -0.0218(2) 0.3308(2)
H6A H -0.215(6) -0.094(4) 0.373(4)
O3A O -0.3002(3) -0.2053(2) 0.4475(2)
O4A O -0.4095(3) -0.1847(2) 0.6263(2)
O5A O -0.2747(3) 0.4859(2) 0.4161(2)
H7A H -0.37570 0.41750 0.43410
H8A H -0.27580 0.58610 0.44340
#END
