
#######################################################################
#
#                 Cambridge Crystallographic Data Centre
#                                CCDC
#
#######################################################################
#
# If this CIF has been generated from an entry in the Cambridge
# Structural Database, then it will include bibliographic, chemical,
# crystal, experimental, refinement or atomic coordinate data resulting
# from the CCDC's data processing and validation procedures.
#
#######################################################################

data_CSD_CIF_ROZPAY
_audit_creation_date 2010-01-21
_audit_creation_method CSD-ConQuest-V1
_database_code_CSD ROZPAY
_database_code_depnum_ccdc_archive 'CCDC 670765'
_chemical_formula_sum 'C14 H38 Fe1 N2 Si2'
_chemical_formula_moiety
;
C14 H38 Fe1 N2 Si2
;
_journal_coden_Cambridge 179
_journal_volume 48
_journal_year 2009
_journal_page_first 3317
_journal_name_full 'Angew.Chem.,Int.Ed. '
loop_
_publ_author_name
"P.Albores"
"L.M.Carrella"
"W.Clegg"
"P.Garcia-Alvarez"
"A.R.Kennedy"
"J.Klett"
"R.E.Mulvey"
"E.Rentschler"
"L.Russo"
_chemical_name_systematic
;
(N,N,N',N'-Tetramethylethane-1,2-diamine)-bis(trimethylsilylmethyl)-iron(ii)
;
_cell_volume   1071.822
_exptl_crystal_colour 'colorless'
_exptl_crystal_density_diffrn 1.074
_exptl_special_details
;
magnetic study

;
_exptl_crystal_description 'prism'
_diffrn_ambient_temperature 123
#These two values have been output from a single CSD field.
_refine_ls_R_factor_gt 0.0474
_refine_ls_wR_factor_gt 0.0474
_symmetry_cell_setting triclinic
_symmetry_space_group_name_H-M 'P -1'
_symmetry_Int_Tables_number 2
loop_
_symmetry_equiv_pos_site_id
_symmetry_equiv_pos_as_xyz
1 x,y,z
2 -x,-y,-z
_cell_length_a 9.8900(4)
_cell_length_b 9.9171(4)
_cell_length_c 13.1225(6)
_cell_angle_alpha 106.697(2)
_cell_angle_beta 90.705(2)
_cell_angle_gamma 118.005(2)
_cell_formula_units_Z 2
loop_
_atom_type_symbol
_atom_type_radius_bond
C 0.68
H 0.23
Fe 1.52
N 0.68
Si 1.20
loop_
_atom_site_label
_atom_site_type_symbol
_atom_site_fract_x
_atom_site_fract_y
_atom_site_fract_z
Fe1 Fe 0.12426(5) 0.01527(5) 0.25088(3)
Si1 Si -0.23757(10) -0.29605(10) 0.18672(8)
Si2 Si 0.05778(11) 0.3338(1) 0.29741(7)
N1 N 0.2776(3) -0.0447(3) 0.1446(2)
N2 N 0.3332(3) 0.1090(3) 0.3753(2)
C1 C -0.0513(4) -0.1854(4) 0.2794(3)
C2 C -0.2163(4) -0.3768(5) 0.0434(3)
H1 H -0.14820 -0.28630 0.01920
H2 H -0.31870 -0.43930 -0.00300
H3 H -0.17080 -0.44680 0.03930
C3 C -0.3889(4) -0.4749(5) 0.2206(5)
H4 H -0.35030 -0.55000 0.21890
H5 H -0.48480 -0.53030 0.16750
H6 H -0.41040 -0.43720 0.29290
C4 C -0.3249(4) -0.1633(4) 0.1889(3)
H7 H -0.33600 -0.11750 0.26300
H8 H -0.42730 -0.22780 0.14230
H9 H -0.25690 -0.07550 0.16250
C5 C 0.1087(4) 0.1921(4) 0.2048(3)
C6 C -0.1030(5) 0.3483(5) 0.2335(4)
H10 H -0.07160 0.38660 0.17210
H11 H -0.12490 0.42450 0.28670
H12 H -0.19660 0.24130 0.20810
C7 C -0.0089(7) 0.2752(6) 0.4187(4)
H13 H -0.09310 0.16230 0.39530
H14 H -0.04680 0.34570 0.46050
H15 H 0.07820 0.28670 0.46380
C8 C 0.2299(4) 0.5433(4) 0.3435(3)
H16 H 0.31700 0.54320 0.37980
H17 H 0.20280 0.61750 0.39380
H18 H 0.25980 0.57870 0.28090
C9 C 0.2781(4) -0.0031(5) 0.0454(3)
H19 H 0.31420 0.11290 0.06470
H20 H 0.17250 -0.06520 0.00340
H21 H 0.34790 -0.02950 0.00220
C10 C 0.2264(4) -0.2193(4) 0.1141(3)
H22 H 0.30110 -0.24170 0.07470
H23 H 0.12370 -0.28240 0.06800
H24 H 0.22060 -0.24940 0.17950
C11 C 0.4364(3) 0.0523(4) 0.2083(3)
H25 H 0.48180 0.16560 0.20940
H26 H 0.50250 0.00850 0.17400
C12 C 0.4339(4) 0.0489(4) 0.3225(3)
H27 H 0.39560 -0.06350 0.32150
H28 H 0.54100 0.11670 0.36440
C13 C 0.4131(4) 0.2875(4) 0.4112(3)
H29 H 0.51070 0.33190 0.46010
H30 H 0.34620 0.32540 0.44920
H31 H 0.43550 0.32370 0.34830
C14 C 0.2927(4) 0.0553(5) 0.4700(3)
H32 H 0.23790 -0.06320 0.44640
H33 H 0.22540 0.09500 0.50520
H34 H 0.38790 0.09860 0.52110
H35 H -0.011(4) -0.259(5) 0.282(3)
H36 H -0.062(5) -0.141(5) 0.349(4)
H37 H 0.203(5) 0.251(5) 0.179(4)
H38 H 0.032(4) 0.132(5) 0.143(3)
#END
