
#######################################################################
#
#                 Cambridge Crystallographic Data Centre
#                                CCDC
#
#######################################################################
#
# If this CIF has been generated from an entry in the Cambridge
# Structural Database, then it will include bibliographic, chemical,
# crystal, experimental, refinement or atomic coordinate data resulting
# from the CCDC's data processing and validation procedures.
#
#######################################################################

data_CSD_CIF_RUKLOY
_audit_creation_date 1998-03-04
_audit_creation_method CSD-ConQuest-V1
_database_code_CSD RUKLOY
_database_code_depnum_ccdc_journal 186/421
_chemical_formula_sum 'C18 H27 Cl5 Fe2 N9'
_chemical_formula_moiety
;
C18 H27 Fe1 N9 2+,Cl4 Fe1 1-,Cl1 1-
;
_journal_coden_Cambridge 186
_journal_year 1997
_journal_page_first 1375
_journal_name_full 'J.Chem.Soc.,Dalton Trans. '
loop_
_publ_author_name
"M.Di Vaira"
"F.Mani"
"P.Stoppioni"
_chemical_name_systematic
;
1,4,7-tris(Pyrazol-3-yl-methyl)-1,4,7-triazacyclononane-iron(ii) 
tetrachloroferrate(iii) chloride
;
_cell_volume    673.600
_exptl_crystal_colour 'brown'
_exptl_crystal_density_diffrn 1.623
_exptl_special_details
;
Absolute configuration

;
_diffrn_ambient_temperature ?
_diffrn_special_details
;
The study was carried out at room temperature,in the range 283-303K

;
#These two values have been output from a single CSD field.
_refine_ls_R_factor_gt 0.036
_refine_ls_wR_factor_gt 0.036
_symmetry_cell_setting rhombohedral
_symmetry_space_group_name_H-M 'R 3'
_symmetry_Int_Tables_number 146
loop_
_symmetry_equiv_pos_site_id
_symmetry_equiv_pos_as_xyz
1 x,y,z
2 z,x,y
3 y,z,x
_cell_length_a 9.287(7)
_cell_length_b 9.287(7)
_cell_length_c 9.287(7)
_cell_angle_alpha 69.02(6)
_cell_angle_beta 69.02(6)
_cell_angle_gamma 69.02(6)
_cell_formula_units_Z 1
loop_
_atom_type_symbol
_atom_type_radius_bond
C 0.68
H 0.23
Cl 0.99
Fe 1.34
N 0.68
loop_
_atom_site_label
_atom_site_type_symbol
_atom_site_fract_x
_atom_site_fract_y
_atom_site_fract_z
Fe1 Fe 0.5680(1) 0.5680(1) 0.5680(1)
Fe2 Fe 0.8869(1) 0.8869(1) 0.8869(1)
Cl1 Cl 0.9916(1) 0.9916(1) 0.9916(1)
Cl2 Cl 1.0568(2) 0.6661(1) 0.8370(2)
Cl3 Cl 0.3469(1) 0.3469(1) 0.3469(1)
N1 N 0.8139(4) 0.6082(4) 0.5021(4)
N2 N 0.7110(4) 0.4422(4) 0.3924(4)
N3 N 0.6947(5) 0.3339(5) 0.3368(4)
C1 C 0.8815(5) 0.4865(6) 0.6338(6)
C2 C 0.7974(6) 0.7748(7) 0.4986(6)
C3 C 0.9122(5) 0.5732(6) 0.3469(5)
C4 C 0.8600(5) 0.4532(5) 0.3189(4)
C5 C 0.9380(7) 0.3538(6) 0.2175(6)
C6 C 0.8283(6) 0.2805(6) 0.2320(6)
H1 H 0.6155(77) 0.3120(75) 0.3708(76)
H2 H 0.9799(80) 0.4937(69) 0.6351(74)
H3 H 0.8977(70) 0.3782(77) 0.6086(69)
H4 H 0.8855(67) 0.8130(72) 0.3981(77)
H5 H 0.7989(80) 0.7869(75) 0.5878(75)
H6 H 1.0375(72) 0.5332(69) 0.3362(66)
H7 H 0.8829(75) 0.6621(77) 0.2718(69)
H8 H 1.0361(78) 0.3435(72) 0.1632(76)
H9 H 0.8304(67) 0.2182(69) 0.1744(72)
C2B C 0.7748(6) 0.4986(7) 0.7974(6)
N1B N 0.6082(4) 0.5021(4) 0.8139(4)
N1A N 0.5021(4) 0.8139(4) 0.6082(4)
C1A C 0.6338(5) 0.8815(6) 0.4865(6)
N2A N 0.3924(4) 0.7110(4) 0.4422(4)
N3A N 0.3368(5) 0.6947(5) 0.3339(4)
C6A C 0.2320(6) 0.8283(6) 0.2805(6)
C5A C 0.2175(7) 0.9380(6) 0.3538(6)
C4A C 0.3189(5) 0.8600(5) 0.4532(4)
C3A C 0.3469(5) 0.9122(6) 0.5732(5)
C2A C 0.4986(6) 0.7974(7) 0.7748(6)
C1B C 0.4865(5) 0.6338(6) 0.8815(6)
C3B C 0.5732(5) 0.3469(6) 0.9122(5)
C4B C 0.4532(5) 0.3189(5) 0.8600(4)
N2B N 0.4422(4) 0.3924(4) 0.7110(4)
N3B N 0.3339(5) 0.3368(5) 0.6947(4)
C6B C 0.2805(6) 0.2320(6) 0.8283(6)
C5B C 0.3538(7) 0.2175(6) 0.9380(6)
H8B H 0.3435(78) 0.1632(72) 1.0361(76)
H9B H 0.2182(67) 0.1744(69) 0.8304(72)
H1B H 0.3120(77) 0.3708(75) 0.6155(76)
H6B H 0.5332(72) 0.3362(69) 1.0375(66)
H7B H 0.6621(75) 0.2718(77) 0.8829(69)
H2B H 0.4937(80) 0.6351(69) 0.9799(74)
H3B H 0.3782(70) 0.6086(77) 0.8977(69)
H4A H 0.3981(67) 0.8855(72) 0.8130(77)
H5A H 0.5878(80) 0.7989(75) 0.7869(75)
H6A H 0.3362(72) 1.0375(69) 0.5332(66)
H7A H 0.2718(75) 0.8829(77) 0.6621(69)
H8A H 0.1632(78) 1.0361(72) 0.3435(76)
H9A H 0.1744(67) 0.8304(69) 0.2182(72)
H1A H 0.3708(77) 0.6155(75) 0.3120(76)
H2A H 0.6351(80) 0.9799(69) 0.4937(74)
H3A H 0.6086(70) 0.8977(77) 0.3782(69)
H4B H 0.8130(67) 0.3981(72) 0.8855(77)
H5B H 0.7869(80) 0.5878(75) 0.7989(75)
Cl2A Cl 0.8370(2) 1.0568(1) 0.6661(2)
Cl2B Cl 0.6661(2) 0.8370(1) 1.0568(2)
#END
