
#######################################################################
#
#                 Cambridge Crystallographic Data Centre
#                                CCDC
#
#######################################################################
#
# If this CIF has been generated from an entry in the Cambridge
# Structural Database, then it will include bibliographic, chemical,
# crystal, experimental, refinement or atomic coordinate data resulting
# from the CCDC's data processing and validation procedures.
#
#######################################################################

data_CSD_CIF_RUPXAC01
_audit_creation_date 2013-04-03
_audit_creation_method CSD-ConQuest-V1
_database_code_CSD RUPXAC01
_database_code_depnum_ccdc_archive 'CCDC 877546'
_chemical_formula_sum 'C10 H22 Mn1 N4 O16 P4'
_chemical_formula_moiety
;
C10 H22 Mn1 N4 O16 P4
;
_journal_coden_Cambridge 155
_journal_volume 394
_journal_year 2013
_journal_page_first 229
_journal_name_full 'Inorg.Chim.Acta '
loop_
_publ_author_name
"E.Freire"
"M.Quintero"
"D.Vega"
"R.Baggio"
_chemical_name_systematic
;
Diaqua-(bis(1-(2-hydroxy-2,2-bis(phosphono)ethyl)-1H-imidazol-3-iumato))-manga
nese(ii)
;
_cell_volume    546.439
_exptl_crystal_colour 'colorless'
_exptl_crystal_density_diffrn 1.924
_exptl_crystal_description 'prisms'
_diffrn_ambient_temperature 291
#These two values have been output from a single CSD field.
_refine_ls_R_factor_gt 0.0342
_refine_ls_wR_factor_gt 0.0342
_symmetry_cell_setting triclinic
_symmetry_space_group_name_H-M 'P -1'
_symmetry_Int_Tables_number 2
loop_
_symmetry_equiv_pos_site_id
_symmetry_equiv_pos_as_xyz
1 x,y,z
2 -x,-y,-z
_cell_length_a 7.4810(15)
_cell_length_b 8.6030(17)
_cell_length_c 9.7300(19)
_cell_angle_alpha 105.32(3)
_cell_angle_beta 110.90(3)
_cell_angle_gamma 97.48(3)
_cell_formula_units_Z 1
loop_
_atom_type_symbol
_atom_type_radius_bond
C 0.68
H 0.23
Mn 1.61
N 0.68
O 0.68
P 1.05
loop_
_atom_site_label
_atom_site_type_symbol
_atom_site_fract_x
_atom_site_fract_y
_atom_site_fract_z
Mn1 Mn 0.50000 0.50000 0.50000
P1 P 0.15028(10) 0.22033(9) 0.16614(8)
P2 P 0.12152(10) 0.22430(9) 0.47741(8)
O1 O 0.3015(3) 0.3847(2) 0.2550(2)
O2 O 0.2628(3) 0.0792(3) 0.1829(2)
H1 H 0.180(5) -0.014(3) 0.130(4)
O3 O 0.0265(3) 0.1932(2) -0.0029(2)
O4 O 0.2784(3) 0.3844(2) 0.5558(2)
O5 O 0.2223(3) 0.0750(3) 0.4758(2)
H2 H 0.150(5) -0.013(3) 0.469(5)
O6 O -0.0295(3) 0.2084(2) 0.5462(2)
O7 O -0.1597(3) 0.0459(3) 0.1924(2)
H3 H -0.116(5) -0.034(3) 0.156(4)
N1 N -0.2487(3) 0.3450(3) 0.1185(3)
N2 N -0.3440(5) 0.4172(4) -0.0862(3)
H4 H -0.345(6) 0.472(5) -0.148(4)
C1 C -0.0146(4) 0.2023(3) 0.2686(3)
C2 C -0.1267(4) 0.3406(4) 0.2730(3)
H5 H -0.21090 0.32530 0.32690
H6 H -0.03150 0.44740 0.33300
C3 C -0.2059(5) 0.4591(4) 0.0572(4)
H7 H -0.09840 0.55140 0.10650
C4 C -0.4784(5) 0.2756(5) -0.1171(4)
H8 H -0.58970 0.22050 -0.20960
C5 C -0.4197(5) 0.2306(4) 0.0114(4)
H9 H -0.48350 0.13910 0.02470
O8 O 0.3866(3) 0.7250(3) 0.4906(3)
H10 H 0.280(4) 0.749(6) 0.488(6)
H11 H 0.465(6) 0.817(4) 0.512(8)
P1A P 0.84972(10) 0.77967(9) 0.83386(8)
P2A P 0.87848(10) 0.77570(9) 0.52259(8)
O1A O 0.6985(3) 0.6153(2) 0.7450(2)
O2A O 0.7372(3) 0.9208(3) 0.8171(2)
H1A H 0.820(5) 1.014(3) 0.870(4)
O3A O 0.9735(3) 0.8068(2) 1.0029(2)
O4A O 0.7216(3) 0.6156(2) 0.4442(2)
O5A O 0.7777(3) 0.9250(3) 0.5242(2)
H2A H 0.850(5) 1.013(3) 0.531(5)
O6A O 1.0295(3) 0.7916(2) 0.4538(2)
O7A O 1.1597(3) 0.9541(3) 0.8076(2)
H3A H 1.116(5) 1.034(3) 0.844(4)
N1A N 1.2487(3) 0.6550(3) 0.8815(3)
N2A N 1.3440(5) 0.5828(4) 1.0862(3)
H4A H 1.345(6) 0.528(5) 1.148(4)
C1A C 1.0146(4) 0.7977(3) 0.7314(3)
C2A C 1.1267(4) 0.6594(4) 0.7270(3)
H5A H 1.21090 0.67470 0.67310
H6A H 1.03150 0.55260 0.66700
C3A C 1.2059(5) 0.5409(4) 0.9428(4)
H7A H 1.09840 0.44860 0.89350
C4A C 1.4784(5) 0.7244(5) 1.1171(4)
H8A H 1.58970 0.77950 1.20960
C5A C 1.4197(5) 0.7694(4) 0.9886(4)
H9A H 1.48350 0.86090 0.97530
O8A O 0.6134(3) 0.2750(3) 0.5094(3)
H10A H 0.720(4) 0.251(6) 0.512(6)
H11A H 0.535(6) 0.183(4) 0.488(8)
#END
