
#######################################################################
#
#                 Cambridge Crystallographic Data Centre
#                                CCDC
#
#######################################################################
#
# If this CIF has been generated from an entry in the Cambridge
# Structural Database, then it will include bibliographic, chemical,
# crystal, experimental, refinement or atomic coordinate data resulting
# from the CCDC's data processing and validation procedures.
#
#######################################################################

data_CSD_CIF_RUTCEP
_audit_creation_date 2011-04-26
_audit_creation_method CSD-ConQuest-V1
_database_code_CSD RUTCEP
_database_code_depnum_ccdc_archive 'CCDC 788961'
_chemical_formula_sum 'C12 H9 Cl5 Fe1 N3 P3'
_chemical_formula_moiety
;
C12 H9 Cl5 Fe1 N3 P3
;
_journal_coden_Cambridge 9
_journal_volume 49
_journal_year 2010
_journal_page_first 5753
_journal_name_full 'Inorg.Chem. '
loop_
_publ_author_name
"K.Keshav"
"N.Singh"
"A.J.Elias"
_chemical_name_systematic
;
2-(2-Ferrocenylethynyl)-2,4,4,6,6-pentachloro-1,3,5,2\l^5^,4\l^5^,6\l^5^-triaz
atriphosphinine
;
_cell_volume    969.639
_exptl_crystal_colour 'red'
_exptl_crystal_density_diffrn 1.785
_exptl_crystal_description 'block'
_diffrn_ambient_temperature 293
#These two values have been output from a single CSD field.
_refine_ls_R_factor_gt 0.0395
_refine_ls_wR_factor_gt 0.0395
_symmetry_cell_setting monoclinic
_symmetry_space_group_name_H-M 'P 21/m'
_symmetry_Int_Tables_number 11
loop_
_symmetry_equiv_pos_site_id
_symmetry_equiv_pos_as_xyz
1 x,y,z
2 -x,1/2+y,-z
3 -x,-y,-z
4 x,-1/2-y,z
_cell_length_a 8.1060(13)
_cell_length_b 9.3159(15)
_cell_length_c 13.322(2)
_cell_angle_alpha 90
_cell_angle_beta 105.453(2)
_cell_angle_gamma 90
_cell_formula_units_Z 2
loop_
_atom_type_symbol
_atom_type_radius_bond
C 0.68
H 0.23
Cl 0.99
Fe 1.52
N 0.68
P 1.05
loop_
_atom_site_label
_atom_site_type_symbol
_atom_site_fract_x
_atom_site_fract_y
_atom_site_fract_z
Fe1 Fe 0.35517(7) 0.25000 0.57762(4)
Cl1 Cl 0.42368(16) 0.25000 0.18552(11)
Cl2 Cl 0.74225(16) -0.00234(17) 0.02114(9)
Cl3 Cl 1.06640(13) -0.02457(13) 0.20305(9)
P1 P 0.67751(14) 0.25000 0.25794(9)
P2 P 0.86637(11) 0.10305(10) 0.14815(6)
N1 N 0.7556(4) 0.1047(3) 0.2289(2)
N2 N 0.9334(6) 0.25000 0.1161(4)
C1 C 0.6766(6) 0.25000 0.3869(4)
C2 C 0.6407(5) 0.25000 0.4679(3)
C3 C 0.5997(5) 0.25000 0.5651(3)
C4 C 0.5685(4) 0.1250(3) 0.6210(2)
H1 H 0.57870 0.02470 0.60130
C5 C 0.5221(4) 0.1746(4) 0.7104(2)
H2 H 0.49180 0.11360 0.76270
C6 C 0.1863(6) 0.25000 0.4326(4)
H3 H 0.21710 0.25000 0.36620
C7 C 0.1611(4) 0.1293(4) 0.4873(3)
H4 H 0.17080 0.02970 0.46600
C8 C 0.1209(4) 0.1731(5) 0.5782(3)
H5 H 0.09460 0.11050 0.63110
Cl2C Cl 0.74225(16) 0.50234(17) 0.02114(9)
Cl3C Cl 1.06640(13) 0.52457(13) 0.20305(9)
P2C P 0.86637(11) 0.39695(10) 0.14815(6)
N1C N 0.7556(4) 0.3953(3) 0.2289(2)
C4C C 0.5685(4) 0.3750(3) 0.6210(2)
H1C H 0.57870 0.47530 0.60130
C5C C 0.5221(4) 0.3254(4) 0.7104(2)
H2C H 0.49180 0.38640 0.76270
C7C C 0.1611(4) 0.3707(4) 0.4873(3)
H4C H 0.17080 0.47030 0.46600
C8C C 0.1209(4) 0.3269(5) 0.5782(3)
H5C H 0.09460 0.38950 0.63110
#END
