
#######################################################################
#
#                 Cambridge Crystallographic Data Centre
#                                CCDC
#
#######################################################################
#
# If this CIF has been generated from an entry in the Cambridge
# Structural Database, then it will include bibliographic, chemical,
# crystal, experimental, refinement or atomic coordinate data resulting
# from the CCDC's data processing and validation procedures.
#
#######################################################################

data_CSD_CIF_SAFGAJ
_audit_creation_date 2012-02-14
_audit_creation_method CSD-ConQuest-V1
_database_code_CSD SAFGAJ
_database_code_depnum_ccdc_archive 'CCDC 861708'
_chemical_formula_sum 'C10 H16 Co1 N2 O10'
_chemical_formula_moiety
;
C10 H12 Co1 N2 O8,2(H2 O1)
;
_journal_coeditor_code "IUCr VM2142"
_journal_coden_Cambridge 1370
_journal_volume 68
_journal_year 2012
_journal_page_first m69
_journal_name_full 'Acta Crystallogr.,Sect.E:Struct.Rep.Online '
loop_
_publ_author_name
"Yan Wang"
"Jing Zhao"
_chemical_name_systematic
;
Diaqua-bis(5-methyl-1,2-oxazole-3-carboxylato)-cobalt(ii) dihydrate
;
_cell_volume    764.744
_exptl_crystal_colour 'pink'
_exptl_crystal_density_diffrn 1.664
_exptl_crystal_description 'pillar'
_diffrn_ambient_temperature 296
#These two values have been output from a single CSD field.
_refine_ls_R_factor_gt 0.0283
_refine_ls_wR_factor_gt 0.0283
_symmetry_cell_setting monoclinic
_symmetry_space_group_name_H-M 'P 21/n'
_symmetry_Int_Tables_number 14
loop_
_symmetry_equiv_pos_site_id
_symmetry_equiv_pos_as_xyz
1 x,y,z
2 1/2-x,1/2+y,1/2-z
3 -x,-y,-z
4 -1/2+x,-1/2-y,-1/2+z
_cell_length_a 5.260(3)
_cell_length_b 18.528(10)
_cell_length_c 8.077(4)
_cell_angle_alpha 90
_cell_angle_beta 103.707(6)
_cell_angle_gamma 90
_cell_formula_units_Z 2
loop_
_atom_type_symbol
_atom_type_radius_bond
C 0.68
H 0.23
Co 1.26
N 0.68
O 0.68
loop_
_atom_site_label
_atom_site_type_symbol
_atom_site_fract_x
_atom_site_fract_y
_atom_site_fract_z
Co1 Co 0.50000 0.00000 0.50000
O1 O 0.8288(3) 0.18878(7) 0.38174(19)
O2 O 0.0881(3) 0.06221(8) 0.16193(19)
O3 O 0.7638(3) 0.08451(7) 0.50526(17)
N1 N 0.3171(3) 0.06356(9) 0.2896(2)
O4 O 0.3032(4) 0.05798(10) 0.6557(2)
C1 C 0.6992(4) 0.1344(1) 0.3955(3)
C2 C 0.4387(4) 0.12311(10) 0.2705(3)
C3 C 0.2957(4) 0.16322(12) 0.1325(3)
H1 H 0.33930 0.20770 0.09370
C4 C -0.1485(5) 0.13125(15) -0.0775(3)
H2 H -0.14580 0.17820 -0.12750
H3 H -0.30600 0.12590 -0.03820
H4 H -0.14270 0.09490 -0.16120
C5 C 0.0819(4) 0.12328(12) 0.0685(3)
H5 H 0.332(6) 0.0981(18) 0.655(4)
H6 H 0.144(8) 0.0564(18) 0.623(5)
O5 O 0.3191(4) 0.20264(10) 0.6234(3)
H7 H 0.175(8) 0.2028(19) 0.555(5)
H8 H 0.309(7) 0.232(2) 0.698(5)
O1B O 0.1712(3) -0.18878(7) 0.61826(19)
O2B O 0.9119(3) -0.06221(8) 0.83807(19)
O3B O 0.2362(3) -0.08451(7) 0.49474(17)
N1B N 0.6829(3) -0.06356(9) 0.7104(2)
O4B O 0.6968(4) -0.05798(10) 0.3443(2)
C1B C 0.3008(4) -0.1344(1) 0.6045(3)
C2B C 0.5613(4) -0.12311(10) 0.7295(3)
C3B C 0.7043(4) -0.16322(12) 0.8675(3)
H1B H 0.66070 -0.20770 0.90630
C4B C 1.1485(5) -0.13125(15) 1.0775(3)
H2B H 1.14580 -0.17820 1.12750
H3B H 1.30600 -0.12590 1.03820
H4B H 1.14270 -0.09490 1.16120
C5B C 0.9181(4) -0.12328(12) 0.9315(3)
H5B H 0.668(6) -0.0981(18) 0.345(4)
H6B H 0.856(8) -0.0564(18) 0.377(5)
#END
