
#######################################################################
#
#                 Cambridge Crystallographic Data Centre
#                                CCDC
#
#######################################################################
#
# If this CIF has been generated from an entry in the Cambridge
# Structural Database, then it will include bibliographic, chemical,
# crystal, experimental, refinement or atomic coordinate data resulting
# from the CCDC's data processing and validation procedures.
#
#######################################################################

data_CSD_CIF_SAGZAB
_audit_creation_date 1999-01-22
_audit_creation_method CSD-ConQuest-V1
_database_code_CSD SAGZAB
_chemical_formula_sum 'C20 H15 Mn1 O2 S1'
_chemical_formula_moiety
;
C20 H15 Mn1 O2 S1
;
_journal_coden_Cambridge 579
_journal_volume 17
_journal_year 1998
_journal_page_first 600
_journal_name_full 'Organometallics '
loop_
_publ_author_name
"Zhilei Qiu"
"Jie Sun"
"Jiabi Chen"
_chemical_name_systematic
;
Dicarbonyl-(\h^5^-cyclopentadienyl)-(phenylthio)phenylmethylidene-manganese
;
_chemical_melting_point 342.15
_cell_volume    877.888
_exptl_crystal_colour 'orange'
_exptl_crystal_density_diffrn 1.416
_exptl_special_details
;
Melts with decomposition.

;
_exptl_crystal_preparation 'petroleum ether/dichloromethane'
_diffrn_ambient_temperature ?
_diffrn_special_details
;
The study was carried out at room temperature,in the range 283-303K

;
#These two values have been output from a single CSD field.
_refine_ls_R_factor_gt 0.051
_refine_ls_wR_factor_gt 0.051
_symmetry_cell_setting triclinic
_symmetry_space_group_name_H-M 'P 1'
_symmetry_Int_Tables_number 1
loop_
_symmetry_equiv_pos_site_id
_symmetry_equiv_pos_as_xyz
1 x,y,z
_cell_length_a 10.459(5)
_cell_length_b 10.687(6)
_cell_length_c 8.417(4)
_cell_angle_alpha 92.59(5)
_cell_angle_beta 106.92(4)
_cell_angle_gamma 77.30(4)
_cell_formula_units_Z 2
loop_
_atom_type_symbol
_atom_type_radius_bond
C 0.68
H 0.23
Mn 1.35
O 0.68
S 1.02
loop_
_atom_site_label
_atom_site_type_symbol
_atom_site_fract_x
_atom_site_fract_y
_atom_site_fract_z
Mn1 Mn 0.13380 0.46280 -0.49780
Mn2 Mn 0.0002(2) -0.0011(2) 0.0007(3)
S1 S -0.1625(4) 0.5390(5) -0.7264(5)
S2 S -0.2579(4) -0.0846(5) -0.2189(5)
O1 O 0.086(1) 0.741(1) -0.531(2)
O2 O 0.137(1) 0.448(1) -0.848(1)
O3 O -0.0118(10) 0.020(1) -0.350(1)
O4 O 0.085(1) -0.280(1) -0.020(2)
C1 C 0.108(2) 0.631(2) -0.514(2)
C2 C 0.132(1) 0.456(1) -0.708(2)
C3 C -0.051(1) 0.477(1) -0.537(1)
C4 C -0.120(1) 0.443(1) -0.421(1)
C5 C -0.126(2) 0.515(2) -0.282(2)
C6 C -0.199(2) 0.483(2) -0.175(2)
C7 C -0.257(2) 0.386(2) -0.207(2)
C8 C -0.253(1) 0.310(1) -0.345(2)
C9 C -0.183(1) 0.340(1) -0.452(2)
C10 C 0.349(2) 0.369(2) -0.408(3)
C11 C 0.313(2) 0.452(2) -0.281(3)
C12 C 0.211(2) 0.402(2) -0.238(2)
C13 C 0.193(1) 0.297(2) -0.334(2)
C14 C 0.271(2) 0.284(2) -0.443(2)
C15 C -0.333(1) 0.572(1) -0.712(2)
C16 C -0.378(1) 0.672(2) -0.617(2)
C17 C -0.512(2) 0.694(2) -0.612(2)
C18 C -0.601(1) 0.621(1) -0.705(2)
C19 C -0.558(1) 0.526(1) -0.800(2)
C20 C -0.422(1) 0.497(1) -0.803(2)
C21 C -0.009(2) 0.008(1) -0.212(2)
C22 C 0.054(2) -0.169(2) -0.010(2)
C23 C -0.178(1) -0.010(1) -0.038(1)
C24 C -0.269(1) 0.033(1) 0.066(1)
C25 C -0.245(2) -0.017(1) 0.224(2)
C26 C -0.333(2) 0.027(2) 0.317(2)
C27 C -0.448(2) 0.122(2) 0.257(2)
C28 C -0.474(1) 0.173(1) 0.103(2)
C29 C -0.386(1) 0.130(1) 0.008(2)
C30 C 0.062(2) 0.180(1) 0.050(2)
C31 C -0.009(1) 0.166(1) 0.160(2)
C32 C 0.053(2) 0.059(2) 0.259(2)
C33 C 0.174(2) 0.008(2) 0.214(2)
C34 C 0.180(2) 0.081(2) 0.081(2)
C35 C -0.415(1) -0.111(1) -0.208(2)
C36 C -0.536(1) -0.047(1) -0.315(2)
C37 C -0.663(2) -0.072(2) -0.313(2)
C38 C -0.662(1) -0.159(2) -0.203(2)
C39 C -0.546(2) -0.220(2) -0.088(2)
C40 C -0.420(1) -0.197(1) -0.092(2)
H1 H -0.07590 0.58400 -0.25600
H2 H -0.19190 0.52990 -0.06630
H3 H -0.31020 0.36890 -0.13720
H4 H -0.29310 0.23470 -0.36540
H5 H -0.17730 0.28490 -0.55160
H6 H 0.42100 0.38060 -0.45600
H7 H 0.35650 0.52890 -0.22540
H8 H 0.17230 0.43240 -0.14310
H9 H 0.13350 0.24000 -0.32540
H10 H 0.28280 0.20660 -0.51780
H11 H -0.31580 0.72580 -0.55110
H12 H -0.54700 0.76780 -0.54110
H13 H -0.69780 0.63300 -0.70320
H14 H -0.62470 0.48100 -0.87920
H15 H -0.38550 0.42060 -0.86580
H16 H -0.16040 -0.08450 0.26880
H17 H -0.30840 -0.01390 0.43050
H18 H -0.51200 0.15260 0.32370
H19 H -0.55070 0.24450 0.06960
H20 H -0.40720 0.17300 -0.10030
H21 H 0.03830 0.25000 -0.03020
H22 H -0.09100 0.22520 0.16540
H23 H 0.02680 0.03310 0.35320
H24 H 0.24670 -0.06890 0.26990
H25 H 0.25140 0.07210 0.03030
H26 H -0.53670 0.02320 -0.39400
H27 H -0.74540 -0.03810 -0.40330
H28 H -0.75640 -0.16880 -0.21490
H29 H -0.54750 -0.28250 0.00070
H30 H -0.33440 -0.24440 -0.01380
#END
