
#######################################################################
#
#                 Cambridge Crystallographic Data Centre
#                                CCDC
#
#######################################################################
#
# If this CIF has been generated from an entry in the Cambridge
# Structural Database, then it will include bibliographic, chemical,
# crystal, experimental, refinement or atomic coordinate data resulting
# from the CCDC's data processing and validation procedures.
#
#######################################################################

data_CSD_CIF_SAKSUS10
_audit_creation_date 1990-03-16
_audit_creation_method CSD-ConQuest-V1
_database_code_CSD SAKSUS10
_chemical_formula_sum 'C11 H10 Cl1 Cr1 N3 O5'
_chemical_formula_moiety
;
C11 H10 Cl1 Cr1 N3 O5
;
_journal_coden_Cambridge 36
_journal_volume 369
_journal_year 1989
_journal_page_first 105
_journal_name_full 'J.Organomet.Chem. '
loop_
_publ_author_name
"W.P.Fehlhammer"
"G.Beck"
_chemical_name_systematic
;
Pentacarbonyl-(1,5-dimethyl-4-chloro-1,3,5-triazacyclohept-3-en-2-ylidene)-chr
omium
;
_chemical_melting_point 389.15
_cell_volume    747.820
_exptl_crystal_colour 'lemon-yellow'
_exptl_crystal_density_diffrn 1.561
_exptl_special_details
;
Melts with decomposition.

;
_diffrn_ambient_temperature ?
_diffrn_special_details
;
The study was carried out at room temperature,in the range 283-303K

;
#These two values have been output from a single CSD field.
_refine_ls_R_factor_gt 0.034
_refine_ls_wR_factor_gt 0.034
_symmetry_cell_setting triclinic
_symmetry_space_group_name_H-M 'P -1'
_symmetry_Int_Tables_number 2
loop_
_symmetry_equiv_pos_site_id
_symmetry_equiv_pos_as_xyz
1 x,y,z
2 -x,-y,-z
_cell_length_a 8.079(4)
_cell_length_b 9.845(5)
_cell_length_c 10.495(4)
_cell_angle_alpha 92.32(3)
_cell_angle_beta 110.21(3)
_cell_angle_gamma 105.24(4)
_cell_formula_units_Z 2
loop_
_atom_type_symbol
_atom_type_radius_bond
C 0.68
H 0.23
Cl 0.99
Cr 1.35
N 0.68
O 0.68
loop_
_atom_site_label
_atom_site_type_symbol
_atom_site_fract_x
_atom_site_fract_y
_atom_site_fract_z
Cr1 Cr 0.67210(5) 0.28336(4) 0.35559(4)
Cl1 Cl 0.12791(9) -0.15083(8) 0.05510(8)
C1 C 0.6407(3) 0.0877(2) 0.2456(2)
C2 C 0.6925(4) 0.4567(3) 0.4470(3)
C3 C 0.8621(4) 0.2619(3) 0.5127(3)
C4 C 0.4989(4) 0.1797(3) 0.4268(3)
C5 C 0.4689(5) 0.3031(3) 0.2067(3)
C6 C 0.8303(5) 0.3777(3) 0.2679(3)
C7 C 0.3674(3) -0.1147(3) 0.1488(2)
C8 C 0.6098(4) -0.2280(3) 0.2197(3)
C9 C 0.7093(4) -0.1151(3) 0.1574(3)
C10 C 0.2921(6) -0.3638(4) 0.1956(6)
C11 C 0.9649(4) 0.0905(4) 0.3061(4)
N1 N 0.4583(3) 0.0161(2) 0.1651(2)
N2 N 0.7654(3) 0.0270(2) 0.2355(2)
N3 N 0.4181(3) -0.2291(2) 0.1894(2)
O1 O 0.7080(3) 0.5649(2) 0.5027(2)
O2 O 0.9712(3) 0.2514(3) 0.6125(2)
O3 O 0.3934(3) 0.1170(3) 0.4685(3)
O4 O 0.3466(4) 0.3185(3) 0.1203(3)
O5 O 0.9181(4) 0.4342(3) 0.2107(3)
H1 H 0.6041(38) -0.3199(31) 0.1823(28)
H2 H 0.6722(38) -0.2207(28) 0.3138(29)
H3 H 0.8160(37) -0.1352(27) 0.1589(26)
H4 H 0.6347(34) -0.1158(25) 0.0671(26)
H5 H 0.1930(58) -0.3401(42) 0.2082(41)
H6 H 0.3443(61) -0.4026(48) 0.2687(46)
H7 H 0.2575(64) -0.4245(50) 0.1192(48)
H8 H 0.9937(46) 0.1870(38) 0.3399(35)
H9 H 1.0149(48) 0.0812(36) 0.2400(36)
H10 H 1.0111(53) 0.0397(41) 0.3778(40)
#END
