
#######################################################################
#
#                 Cambridge Crystallographic Data Centre
#                                CCDC
#
#######################################################################
#
# If this CIF has been generated from an entry in the Cambridge
# Structural Database, then it will include bibliographic, chemical,
# crystal, experimental, refinement or atomic coordinate data resulting
# from the CCDC's data processing and validation procedures.
#
#######################################################################

data_CSD_CIF_SAXCIG
_audit_creation_date 2017-06-29
_audit_creation_method CSD-ConQuest-V1
_database_code_CSD SAXCIG
_database_code_depnum_ccdc_archive 'CCDC 999133'
_chemical_formula_sum 'C14 H13 Cl2 Fe1 N4 O3'
_chemical_formula_moiety
;
C12 H10 Cl2 Fe1 N3 O3,C2 H3 N1
;
_journal_coden_Cambridge 1186
_journal_volume 29
_journal_year 2017
_journal_page_first 643
_journal_name_full 'Supramol.Chem. '
loop_
_publ_author_name
"M.A.Fik"
"W.Czepa"
"M.Kubicki"
"V.Patroniak"
_chemical_name_systematic
;
dichloro-(methyl 
3-(hydroxy)-4-(((1H-imidazol-4-yl)methylene)amino)benzoatato)-iron(ii) 
acetonitrile solvate
;
_cell_volume    833.591
_exptl_crystal_colour 'violet'
_exptl_crystal_density_diffrn 1.642
_exptl_crystal_description 'prism'
_diffrn_ambient_temperature 100
#These two values have been output from a single CSD field.
_refine_ls_R_factor_gt 0.0462
_refine_ls_wR_factor_gt 0.0462
_symmetry_cell_setting triclinic
_symmetry_space_group_name_H-M 'P -1'
_symmetry_Int_Tables_number 2
loop_
_symmetry_equiv_pos_site_id
_symmetry_equiv_pos_as_xyz
1 x,y,z
2 -x,-y,-z
_cell_length_a 8.090(2)
_cell_length_b 10.174(2)
_cell_length_c 10.337(3)
_cell_angle_alpha 81.05(2)
_cell_angle_beta 86.02(2)
_cell_angle_gamma 83.31(2)
_cell_formula_units_Z 2
loop_
_atom_type_symbol
_atom_type_radius_bond
C 0.68
H 0.23
Cl 0.99
Fe 1.52
N 0.68
O 0.68
loop_
_atom_site_label
_atom_site_type_symbol
_atom_site_fract_x
_atom_site_fract_y
_atom_site_fract_z
Fe1 Fe 0.70039(5) 0.26825(4) 0.94006(4)
Cl1 Cl 0.78605(10) 0.45555(8) 0.98093(8)
Cl2 Cl 0.48644(9) 0.31921(8) 0.80964(7)
N1 N 0.5630(3) 0.2229(3) 1.1200(2)
C1 C 0.4652(4) 0.2872(4) 1.2026(3)
H1 H 0.44330 0.38180 1.19550
N2 N 0.4012(3) 0.1996(3) 1.2981(3)
H2 H 0.33260 0.22050 1.36350
C2 C 0.4590(4) 0.0737(4) 1.2776(3)
H3 H 0.43390 -0.00760 1.32980
C3 C 0.5606(4) 0.0879(3) 1.1667(3)
C4 C 0.6641(4) -0.0019(3) 1.0936(3)
H4 H 0.67450 -0.09620 1.11880
N3 N 0.7417(3) 0.0550(2) 0.9912(2)
C5 C 0.8514(4) -0.0061(3) 0.9033(3)
C6 C 0.9189(4) 0.0900(3) 0.8073(3)
O1 O 0.8746(3) 0.2198(2) 0.8154(2)
C7 C 1.0272(4) 0.0475(3) 0.7094(3)
H5 H 1.07300 0.11160 0.64410
C8 C 1.0700(4) -0.0877(3) 0.7055(3)
C9 C 1.0052(4) -0.1833(3) 0.8029(3)
H6 H 1.03630 -0.27600 0.80100
C10 C 0.8962(4) -0.1425(3) 0.9013(3)
H7 H 0.85200 -0.20680 0.96720
C11 C 1.1844(4) -0.1253(3) 0.5960(3)
O2 O 1.2430(3) -0.0449(2) 0.5120(2)
O3 O 1.2172(3) -0.2576(2) 0.5991(2)
C12 C 1.3218(4) -0.2987(4) 0.4903(3)
H8 H 1.26380 -0.27040 0.40880
H9 H 1.34660 -0.39630 0.50420
H10 H 1.42610 -0.25730 0.48390
N4 N 0.2093(4) 0.3299(3) 0.5050(3)
C13 C 0.1590(4) 0.3839(3) 0.5909(3)
C14 C 0.0922(4) 0.4523(3) 0.6986(3)
H11 H 0.01410 0.52940 0.66590
H12 H 0.18350 0.48320 0.73950
H13 H 0.03380 0.39080 0.76360
#END
