
#######################################################################
#
#                 Cambridge Crystallographic Data Centre
#                                CCDC
#
#######################################################################
#
# If this CIF has been generated from an entry in the Cambridge
# Structural Database, then it will include bibliographic, chemical,
# crystal, experimental, refinement or atomic coordinate data resulting
# from the CCDC's data processing and validation procedures.
#
#######################################################################

data_CSD_CIF_SAYMIO
_audit_creation_date 1990-03-16
_audit_creation_method CSD-ConQuest-V1
_database_code_CSD SAYMIO
_database_code_depnum_ccdc_fiz 'CSD 53831'
_chemical_formula_sum 'C5 H12 Fe1 I3 N2 S1'
_chemical_formula_moiety
;
C5 H12 Fe1 I3 N2 S1
;
_journal_coden_Cambridge 179
_journal_volume 28
_journal_year 1989
_journal_page_first 776
_journal_name_full 'Angew.Chem.,Int.Ed. '
loop_
_publ_author_name
"S.Pohl"
"U.Bierbach"
"W.Saak"
_chemical_name_systematic
;
Tri-iodo-(1,1,3,3-tetramethylthiourea-S)-iron(iii)
;
_cell_volume   1433.702
_exptl_crystal_colour 'black'
_exptl_crystal_density_diffrn 2.635
_exptl_special_details
;
Moisture-sensitive

;
_diffrn_ambient_temperature ?
_diffrn_special_details
;
The study was carried out at room temperature,in the range 283-303K

;
#These two values have been output from a single CSD field.
_refine_ls_R_factor_gt 0.038
_refine_ls_wR_factor_gt 0.038
_symmetry_cell_setting monoclinic
_symmetry_space_group_name_H-M 'P 21/c'
_symmetry_Int_Tables_number 14
loop_
_symmetry_equiv_pos_site_id
_symmetry_equiv_pos_as_xyz
1 x,y,z
2 -x,1/2+y,1/2-z
3 -x,-y,-z
4 x,-1/2-y,-1/2+z
_cell_length_a 7.946(1)
_cell_length_b 13.565(1)
_cell_length_c 13.352(1)
_cell_angle_alpha 90
_cell_angle_beta 95.00(1)
_cell_angle_gamma 90
_cell_formula_units_Z 4
loop_
_atom_type_symbol
_atom_type_radius_bond
C 0.68
H 0.23
Fe 1.34
I 1.40
N 0.68
S 1.02
loop_
_atom_site_label
_atom_site_type_symbol
_atom_site_fract_x
_atom_site_fract_y
_atom_site_fract_z
I1 I 0.8695(1) 0.35050 0.18600
I2 I 0.6980(1) 0.06690 0.25330
I3 I 0.6394(1) 0.16830 -0.03810
Fe1 Fe 0.6445(1) 0.2187(1) 0.1452(1)
S1 S 0.3890(3) 0.2902(1) 0.1737(1)
N1 N 0.2330(9) 0.3278(4) -0.0070(4)
N2 N 0.1997(9) 0.1689(4) 0.0520(4)
C1 C 0.2656(9) 0.2589(5) 0.0637(5)
C2 C 0.3452(14) 0.4127(6) -0.0154(7)
H1 H 0.2961(14) 0.4591(6) -0.0769(7)
H2 H 0.4698(14) 0.3871(6) -0.0292(7)
H3 H 0.3523(14) 0.4545(6) 0.0537(7)
C3 C 0.0783(13) 0.3314(7) -0.0738(7)
H4 H 0.0037(13) 0.2664(7) -0.0626(7)
H5 H 0.1094(13) 0.3341(7) -0.1509(7)
H6 H 0.0069(13) 0.3963(7) -0.0574(7)
C4 C 0.1618(13) 0.1224(6) -0.0472(6)
H7 H 0.1771(13) 0.1759(6) -0.1056(6)
H8 H 0.0332(13) 0.0957(6) -0.0536(6)
H9 H 0.2471(13) 0.0614(6) -0.0550(6)
C5 C 0.1826(13) 0.1026(6) 0.1356(7)
H10 H 0.1262(13) 0.0343(6) 0.1079(7)
H11 H 0.1031(13) 0.1362(6) 0.1876(7)
H12 H 0.3057(13) 0.0879(6) 0.1735(7)
#END
