
#######################################################################
#
#                 Cambridge Crystallographic Data Centre
#                                CCDC
#
#######################################################################
#
# If this CIF has been generated from an entry in the Cambridge
# Structural Database, then it will include bibliographic, chemical,
# crystal, experimental, refinement or atomic coordinate data resulting
# from the CCDC's data processing and validation procedures.
#
#######################################################################

data_CSD_CIF_SAYZAU
_audit_creation_date 2006-02-24
_audit_creation_method CSD-ConQuest-V1
_database_code_CSD SAYZAU
_database_code_depnum_ccdc_archive 'CCDC 296650'
_chemical_formula_sum 'C19 H20 Co1 N2 O2'
_chemical_formula_moiety
;
C19 H20 Co1 N2 O2
;
_journal_coeditor_code "IUCr SG6048"
_journal_coden_Cambridge 1370
_journal_volume 62
_journal_year 2006
_journal_page_first m144
_journal_name_full 'Acta Crystallogr.,Sect.E:Struct.Rep.Online '
loop_
_publ_author_name
"Yue Chen"
_chemical_name_systematic
;
(6,6'-Dimethyl-2,2'-(propane-1,3-diylbis(nitrilomethylidyne))-diphenolato-N,N'
,O,O')-cobalt(ii)
;
_cell_volume   1687.310
_exptl_crystal_colour 'brown'
_exptl_crystal_density_diffrn 1.446
_exptl_crystal_description 'block'
_diffrn_ambient_temperature 298
#These two values have been output from a single CSD field.
_refine_ls_R_factor_gt 0.0341
_refine_ls_wR_factor_gt 0.0341
_symmetry_cell_setting orthorhombic
_symmetry_space_group_name_H-M 'A 21 a m'
_symmetry_Int_Tables_number 36
loop_
_symmetry_equiv_pos_site_id
_symmetry_equiv_pos_as_xyz
1 x,y,z
2 1/2+x,-y,-z
3 1/2+x,-y,z
4 x,y,-z
5 x,1/2+y,1/2+z
6 1/2+x,1/2-y,1/2-z
7 1/2+x,1/2-y,1/2+z
8 x,1/2+y,1/2-z
_cell_length_a 7.529(1)
_cell_length_b 10.398(2)
_cell_length_c 21.553(3)
_cell_angle_alpha 90
_cell_angle_beta 90
_cell_angle_gamma 90
_cell_formula_units_Z 4
loop_
_atom_type_symbol
_atom_type_radius_bond
C 0.68
H 0.23
Co 1.33
N 0.68
O 0.68
loop_
_atom_site_label
_atom_site_type_symbol
_atom_site_fract_x
_atom_site_fract_y
_atom_site_fract_z
Co1 Co 0.47925(5) 0.95280(3) 1.00000
O1 O 0.5165(2) 0.82171(16) 0.94371(9)
N1 N 0.4326(3) 1.0706(2) 0.93542(13)
C1 C 0.4312(3) 0.8056(3) 0.89170(13)
C2 C 0.4226(4) 0.6808(3) 0.86533(14)
C3 C 0.3269(5) 0.6628(4) 0.81191(15)
H1 H 0.32130 0.58070 0.79490
C4 C 0.2376(6) 0.7626(4) 0.78207(16)
H2 H 0.16960 0.74680 0.74690
C5 C 0.2519(5) 0.8838(4) 0.80549(15)
H3 H 0.19850 0.95170 0.78460
C6 C 0.3454(4) 0.9084(3) 0.86036(14)
C7 C 0.5126(6) 0.5720(3) 0.89908(19)
H4 H 0.47810 0.49160 0.88080
H5 H 0.47790 0.57320 0.94190
H6 H 0.63910 0.58190 0.89610
C8 C 0.3666(4) 1.0356(3) 0.88272(16)
H7 H 0.32890 1.10130 0.85650
C9 C 0.4602(6) 1.2108(3) 0.94263(17)
H8 H 0.34530 1.25310 0.94260
H9 H 0.52610 1.24230 0.90710
C10 C 0.5569(6) 1.2475(4) 1.00000
H10 H 0.67240 1.20610 1.00000
H11 H 0.57590 1.33970 1.00000
O1C O 0.5165(2) 0.82171(16) 1.05629(9)
N1C N 0.4326(3) 1.0706(2) 1.06458(13)
C1C C 0.4312(3) 0.8056(3) 1.10830(13)
C2C C 0.4226(4) 0.6808(3) 1.13467(14)
C3C C 0.3269(5) 0.6628(4) 1.18809(15)
H1C H 0.32130 0.58070 1.20510
C4C C 0.2376(6) 0.7626(4) 1.21793(16)
H2C H 0.16960 0.74680 1.25310
C5C C 0.2519(5) 0.8838(4) 1.19451(15)
H3C H 0.19850 0.95170 1.21540
C6C C 0.3454(4) 0.9084(3) 1.13964(14)
C7C C 0.5126(6) 0.5720(3) 1.10092(19)
H4C H 0.47810 0.49160 1.11920
H5C H 0.47790 0.57320 1.05810
H6C H 0.63910 0.58190 1.10390
C8C C 0.3666(4) 1.0356(3) 1.11728(16)
H7C H 0.32890 1.10130 1.14350
C9C C 0.4602(6) 1.2108(3) 1.05737(17)
H8C H 0.34530 1.25310 1.05740
H9C H 0.52610 1.24230 1.09290
#END
