
#######################################################################
#
#                 Cambridge Crystallographic Data Centre
#                                CCDC
#
#######################################################################
#
# If this CIF has been generated from an entry in the Cambridge
# Structural Database, then it will include bibliographic, chemical,
# crystal, experimental, refinement or atomic coordinate data resulting
# from the CCDC's data processing and validation procedures.
#
#######################################################################

data_CSD_CIF_SEBPIB
_audit_creation_date 2017-06-30
_audit_creation_method CSD-ConQuest-V1
_database_code_CSD SEBPIB
_database_code_depnum_ccdc_archive 'CCDC 691148'
_chemical_formula_sum 'C18 H24 Co1 F6 N12 Si1'
_chemical_formula_moiety
;
C18 H24 Co1 N12 2+,F6 Si1 2-
;
_journal_coden_Cambridge 603
_journal_volume 36
_journal_year 2017
_journal_page_first 965
_journal_name_full 'Jiegou Huaxue(Chin.)(Chin.J.Struct.Chem.) '
loop_
_publ_author_name
"S.Nazir"
"M.Arif"
"A.C.Whitwood"
_chemical_name_systematic
;
hexakis(1H-imidazole)-cobalt(ii) hexafluorosilicate
;
_cell_volume   1896.188
_exptl_crystal_colour 'pink'
_exptl_crystal_density_diffrn 1.601
_exptl_crystal_description 'block'
_diffrn_ambient_temperature 110
#These two values have been output from a single CSD field.
_refine_ls_R_factor_gt 0.0222
_refine_ls_wR_factor_gt 0.0222
_symmetry_cell_setting rhombohedral
_symmetry_space_group_name_H-M 'R -3'
_symmetry_Int_Tables_number 148
loop_
_symmetry_equiv_pos_site_id
_symmetry_equiv_pos_as_xyz
1 x,y,z
2 -y,x-y,z
3 -x+y,-x,z
4 2/3+x,1/3+y,1/3+z
5 2/3-y,1/3+x-y,1/3+z
6 2/3-x+y,1/3-x,1/3+z
7 1/3+x,2/3+y,2/3+z
8 1/3-y,2/3+x-y,2/3+z
9 1/3-x+y,2/3-x,2/3+z
10 -x,-y,-z
11 y,-x+y,-z
12 x-y,x,-z
13 -2/3-x,-1/3-y,-1/3-z
14 -2/3+y,-1/3-x+y,-1/3-z
15 -2/3+x-y,-1/3+x,-1/3-z
16 -1/3-x,-2/3-y,-2/3-z
17 -1/3+y,-2/3-x+y,-2/3-z
18 -1/3+x-y,-2/3+x,-2/3-z
_cell_length_a 13.2259(6)
_cell_length_b 13.2259(6)
_cell_length_c 12.5170(11)
_cell_angle_alpha 90
_cell_angle_beta 90
_cell_angle_gamma 120
_cell_formula_units_Z 3
loop_
_atom_type_symbol
_atom_type_radius_bond
C 0.68
H 0.23
Co 1.26
F 0.64
N 0.68
Si 1.20
loop_
_atom_site_label
_atom_site_type_symbol
_atom_site_fract_x
_atom_site_fract_y
_atom_site_fract_z
C1 C 0.15765(10) 0.15362(10) 0.80238(9)
H1 H 0.09290 0.14630 0.76300
C2 C 0.27105(11) 0.21419(11) 0.7699(1)
H2 H 0.29990 0.25610 0.70490
C3 C 0.26047(10) 0.1361(1) 0.92665(10)
H3 H 0.28310 0.11460 0.99090
Co1 Co 0.00000 0.00000 1.00000
N1 N 0.15127(8) 0.10439(8) 0.90154(7)
N2 N 0.33502(9) 0.20242(9) 0.84984(9)
H4 H 0.4074(17) 0.2272(16) 0.8514(14)
F1 F 0.55594(6) 0.23466(6) 0.91026(5)
Si1 Si 0.66670 0.33330 0.83330
C1A C -0.15362(10) 0.00403(10) 0.80238(9)
H1A H -0.14630 -0.05340 0.76300
C2A C -0.21419(11) 0.05686(11) 0.7699(1)
H2A H -0.25610 0.04380 0.70490
C3A C -0.1361(1) 0.12437(10) 0.92665(10)
H3A H -0.11460 0.16850 0.99090
N1A N -0.10439(8) 0.04688(8) 0.90154(7)
N2A N -0.20242(9) 0.13260(9) 0.84984(9)
H4A H -0.2272(17) 0.1802(16) 0.8514(14)
C1B C -0.00403(10) -0.15765(10) 0.80238(9)
H1B H 0.05340 -0.09290 0.76300
C2B C -0.05686(11) -0.27105(11) 0.7699(1)
H2B H -0.04380 -0.29990 0.70490
C3B C -0.12437(10) -0.26047(10) 0.92665(10)
H3B H -0.16850 -0.28310 0.99090
N1B N -0.04688(8) -0.15127(8) 0.90154(7)
N2B N -0.13260(9) -0.33502(9) 0.84984(9)
H4B H -0.1802(17) -0.4074(16) 0.8514(14)
C1I C -0.15765(10) -0.15362(10) 1.19762(9)
H1I H -0.09290 -0.14630 1.23700
C2I C -0.27105(11) -0.21419(11) 1.2301(1)
H2I H -0.29990 -0.25610 1.29510
C3I C -0.26047(10) -0.1361(1) 1.07335(10)
H3I H -0.28310 -0.11460 1.00910
N1I N -0.15127(8) -0.10439(8) 1.09846(7)
N2I N -0.33502(9) -0.20242(9) 1.15016(9)
H4I H -0.4074(17) -0.2272(16) 1.1486(14)
C1J C 0.15362(10) -0.00403(10) 1.19762(9)
H1J H 0.14630 0.05340 1.23700
C2J C 0.21419(11) -0.05686(11) 1.2301(1)
H2J H 0.25610 -0.04380 1.29510
C3J C 0.1361(1) -0.12437(10) 1.07335(10)
H3J H 0.11460 -0.16850 1.00910
N1J N 0.10439(8) -0.04688(8) 1.09846(7)
N2J N 0.20242(9) -0.13260(9) 1.15016(9)
H4J H 0.2272(17) -0.1802(16) 1.1486(14)
C1K C 0.00403(10) 0.15765(10) 1.19762(9)
H1K H -0.05340 0.09290 1.23700
C2K C 0.05686(11) 0.27105(11) 1.2301(1)
H2K H 0.04380 0.29990 1.29510
C3K C 0.12437(10) 0.26047(10) 1.07335(10)
H3K H 0.16850 0.28310 1.00910
N1K N 0.04688(8) 0.15127(8) 1.09846(7)
N2K N 0.13260(9) 0.33502(9) 1.15016(9)
H4K H 0.1802(17) 0.4074(16) 1.1486(14)
F1A F 0.76534(6) 0.32128(6) 0.91026(5)
F1B F 0.67872(6) 0.44406(6) 0.91026(5)
F1L F 0.777393(60) 0.432007(60) 0.756407(50)
F1M F 0.567993(60) 0.345387(60) 0.756407(50)
F1N F 0.654613(60) 0.222607(60) 0.756407(50)
#END
