
#######################################################################
#
#                 Cambridge Crystallographic Data Centre
#                                CCDC
#
#######################################################################
#
# If this CIF has been generated from an entry in the Cambridge
# Structural Database, then it will include bibliographic, chemical,
# crystal, experimental, refinement or atomic coordinate data resulting
# from the CCDC's data processing and validation procedures.
#
#######################################################################

data_CSD_CIF_SEBVAZ01
_audit_creation_date 2018-11-27
_audit_creation_method CSD-ConQuest-V1
_database_code_CSD SEBVAZ01
_database_code_depnum_ccdc_archive 'CCDC 1548064'
_chemical_formula_sum 'C42 H52 Co1 N2 O2'
_chemical_formula_moiety
;
C42 H52 Co1 N2 O2
;
_journal_coden_Cambridge 182
_journal_volume 53
_journal_year 2017
_journal_page_first 8022
_journal_name_full 'Chem.Commun. '
loop_
_publ_author_name
"G.C.Paul"
"S.Ghorai"
"C.Mukherjee"
_chemical_name_systematic
;
(2,4-di-t-butyl-6-((2-methylphenyl)amido)phenolato)-(2,4-di-t-butyl-6-((2-meth
ylphenyl)amino)phenolato radical)-cobalt(iii)
;
_cell_volume    952.865
_exptl_crystal_colour 'green'
_exptl_crystal_density_diffrn 1.178
_exptl_crystal_description 'Block'
_exptl_crystal_preparation 'Ether/acetonitrile'
_diffrn_ambient_temperature 293
_refine_special_details
;
C13B and C13A disordered over two sites with occupancies 0.65:0.35.

;
#These two values have been output from a single CSD field.
_refine_ls_R_factor_gt 0.0783
_refine_ls_wR_factor_gt 0.0783
_symmetry_cell_setting triclinic
_symmetry_space_group_name_H-M 'P -1'
_symmetry_Int_Tables_number 2
loop_
_symmetry_equiv_pos_site_id
_symmetry_equiv_pos_as_xyz
1 x,y,z
2 -x,-y,-z
_cell_length_a 5.9742(3)
_cell_length_b 12.7038(11)
_cell_length_c 13.2139(7)
_cell_angle_alpha 73.037(7)
_cell_angle_beta 85.630(4)
_cell_angle_gamma 83.989(7)
_cell_formula_units_Z 1
loop_
_atom_type_symbol
_atom_type_radius_bond
C 0.68
H 0.23
Co 1.26
N 0.68
O 0.68
loop_
_atom_site_label
_atom_site_type_symbol
_atom_site_fract_x
_atom_site_fract_y
_atom_site_fract_z
C1 C 0.2467(7) 0.3809(2) 0.8617(3)
C2 C 0.1208(7) 0.3401(3) 0.7995(3)
C3 C 0.1861(8) 0.2377(3) 0.7836(3)
H1 H 0.10190 0.21040 0.74200
C4 C 0.3773(9) 0.1759(2) 0.8299(4)
H2 H 0.42100 0.10740 0.81920
C5 C 0.5032(6) 0.2167(3) 0.8920(4)
H3 H 0.63110 0.17540 0.92300
C6 C 0.4378(6) 0.3192(3) 0.9079(3)
Co1 Co 0.00000 0.50000 1.00000
O1 O -0.0284(7) 0.6473(2) 0.9287(2)
C7 C 0.2178(7) 0.7889(3) 0.6720(3)
H4 H 0.22580 0.85910 0.62500
C8 C 0.4761(8) 0.7182(4) 0.5376(3)
C9 C 0.3272(9) 0.5950(4) 0.7114(3)
H5 H 0.40300 0.53430 0.69420
N1 N 0.1693(9) 0.4835(3) 0.8832(3)
C10 C -0.0477(8) 0.8773(3) 0.7917(4)
C11 C 0.3401(8) 0.6994(3) 0.6436(3)
C12 C 0.0278(10) 0.8908(4) 0.8947(4)
H6 H 0.18620 0.90000 0.88820
H7 H -0.00150 0.82640 0.95200
H8 H -0.05400 0.95470 0.90880
C13 C 0.0823(9) 0.6720(3) 0.8353(3)
C14 C -0.0130(11) 0.9857(4) 0.7048(4)
H9 H -0.06630 0.98160 0.63940
H10 H 0.14440 0.99730 0.69570
H11 H -0.09550 1.04610 0.72490
C15 C 0.1991(9) 0.5811(3) 0.8065(3)
C16 C 0.0868(7) 0.7794(3) 0.7649(3)
C17 C -0.3000(9) 0.8592(5) 0.8025(5)
H12 H -0.32670 0.79550 0.86110
H13 H -0.34500 0.84770 0.73860
H14 H -0.38580 0.92300 0.81460
C18 C 0.6749(13) 0.6361(7) 0.5440(6)
H15 H 0.75960 0.63340 0.60370
H16 H 0.76850 0.65720 0.48020
H17 H 0.62490 0.56450 0.55210
C19 C 0.5625(16) 0.8308(6) 0.4996(6)
H18 H 0.66160 0.83500 0.43810
H19 H 0.64320 0.84320 0.55450
H20 H 0.43800 0.88590 0.48180
C20 C 0.3216(13) 0.7071(8) 0.4565(5)
H21 H 0.40150 0.71970 0.38880
H22 H 0.19350 0.76040 0.45160
H23 H 0.27180 0.63410 0.47770
C21 C -0.0374(18) 0.4054(10) 0.7441(9)
H24 H 0.02630 0.46950 0.69770
H25 H -0.10380 0.36690 0.70280
H26 H -0.15090 0.42770 0.79090
C22? C 0.550(2) 0.3725(10) 0.9528(11)
H27? H 0.69460 0.33320 0.97000
H28? H 0.56980 0.44460 0.90550
H29? H 0.46910 0.37960 1.01650
C1A C -0.2467(7) 0.6191(2) 1.1383(3)
C2A C -0.1208(7) 0.6599(3) 1.2005(3)
C3A C -0.1861(8) 0.7623(3) 1.2164(3)
H1A H -0.10190 0.78960 1.25800
C4A C -0.3773(9) 0.8241(2) 1.1701(4)
H2A H -0.42100 0.89260 1.18080
C5A C -0.5032(6) 0.7833(3) 1.1080(4)
H3A H -0.63110 0.82460 1.07700
C6A C -0.4378(6) 0.6808(3) 1.0921(3)
O1A O 0.0284(7) 0.3527(2) 1.0713(2)
C7A C -0.2178(7) 0.2111(3) 1.3280(3)
H4A H -0.22580 0.14090 1.37500
C8A C -0.4761(8) 0.2818(4) 1.4624(3)
C9A C -0.3272(9) 0.4050(4) 1.2886(3)
H5A H -0.40300 0.46570 1.30580
N1A N -0.1693(9) 0.5165(3) 1.1168(3)
C10A C 0.0477(8) 0.1227(3) 1.2083(4)
C11A C -0.3401(8) 0.3006(3) 1.3564(3)
C12A C -0.0278(10) 0.1092(4) 1.1053(4)
H6A H -0.18620 0.10000 1.11180
H7A H 0.00150 0.17360 1.04800
H8A H 0.05400 0.04530 1.09120
C13A C -0.0823(9) 0.3280(3) 1.1647(3)
C14A C 0.0130(11) 0.0143(4) 1.2952(4)
H9A H 0.06630 0.01840 1.36060
H10A H -0.14440 0.00270 1.30430
H11A H 0.09550 -0.04610 1.27510
C15A C -0.1991(9) 0.4189(3) 1.1935(3)
C16A C -0.0868(7) 0.2206(3) 1.2351(3)
C17A C 0.3000(9) 0.1408(5) 1.1975(5)
H12A H 0.32670 0.20450 1.13890
H13A H 0.34500 0.15230 1.26140
H14A H 0.38580 0.07700 1.18540
C18A C -0.6749(13) 0.3639(7) 1.4560(6)
H15A H -0.75960 0.36660 1.39630
H16A H -0.76850 0.34280 1.51980
H17A H -0.62490 0.43550 1.44790
C19A C -0.5625(16) 0.1692(6) 1.5004(6)
H18A H -0.66160 0.16500 1.56190
H19A H -0.64320 0.15680 1.44550
H20A H -0.43800 0.11410 1.51820
C20A C -0.3216(13) 0.2929(8) 1.5435(5)
H21A H -0.40150 0.28030 1.61120
H22A H -0.19350 0.23960 1.54840
H23A H -0.27180 0.36590 1.52230
C21A C 0.0374(18) 0.5946(10) 1.2559(9)
H24A H -0.02630 0.53050 1.30230
H25A H 0.10380 0.63310 1.29720
H26A H 0.15090 0.57230 1.20910
#END
