
#######################################################################
#
#                 Cambridge Crystallographic Data Centre
#                                CCDC
#
#######################################################################
#
# If this CIF has been generated from an entry in the Cambridge
# Structural Database, then it will include bibliographic, chemical,
# crystal, experimental, refinement or atomic coordinate data resulting
# from the CCDC's data processing and validation procedures.
#
#######################################################################

data_CSD_CIF_SEDFOX
_audit_creation_date 2006-05-18
_audit_creation_method CSD-ConQuest-V1
_database_code_CSD SEDFOX
_database_code_depnum_ccdc_archive 'CCDC 275101'
_chemical_formula_sum 'C16 H22 Cr1 Si2'
_chemical_formula_moiety
;
C16 H22 Cr1 Si2
;
_journal_coden_Cambridge 1220
_journal_volume 12
_journal_year 2006
_journal_page_first 1266
_journal_name_full 'Chem.-Eur.J. '
loop_
_publ_author_name
"A.Bartole-Scott"
"H.Braunschweig"
"T.Kupfer"
"M.Lutz"
"I.Manners"
"T.Nguyen"
"K.Radacki"
"F.Seeler"
_chemical_name_systematic
;
(\h^7^,\h^5^-1-(Cycloheptatrienyl)-2-(cyclopentadienyl)-1,1,2,2-tetramethyldis
ilane)-chromium
;
_chemical_name_common
;
ansa-(2)(Tetramethyldisila)trochrocenophane
;
_cell_volume    790.100
_exptl_crystal_colour 'blue'
_exptl_crystal_density_diffrn 1.356
_exptl_special_details
;
isomorphous with the V analogue

;
_exptl_crystal_description 'block'
_diffrn_ambient_temperature 173
#These two values have been output from a single CSD field.
_refine_ls_R_factor_gt 0.024
_refine_ls_wR_factor_gt 0.024
_symmetry_cell_setting monoclinic
_symmetry_space_group_name_H-M 'P 21'
_symmetry_Int_Tables_number 4
loop_
_symmetry_equiv_pos_site_id
_symmetry_equiv_pos_as_xyz
1 x,y,z
2 -x,1/2+y,-z
_cell_length_a 6.6512(5)
_cell_length_b 13.0734(11)
_cell_length_c 9.4128(8)
_cell_angle_alpha 90
_cell_angle_beta 105.132(1)
_cell_angle_gamma 90
_cell_formula_units_Z 2
loop_
_atom_type_symbol
_atom_type_radius_bond
C 0.68
H 0.23
Cr 1.35
Si 1.20
loop_
_atom_site_label
_atom_site_type_symbol
_atom_site_fract_x
_atom_site_fract_y
_atom_site_fract_z
Cr1 Cr 0.18597(4) 0.68470(2) 0.66212(3)
C1 C 0.1664(3) 0.85227(17) 0.6470(2)
C2 C 0.2410(4) 0.81353(19) 0.5284(2)
H1 H 0.37270 0.82880 0.51180
C3 C 0.0899(4) 0.74959(18) 0.4401(2)
H2 H 0.10190 0.71390 0.35470
C4 C -0.0817(4) 0.74753(18) 0.4998(3)
H3 H -0.20670 0.71010 0.46210
C5 C -0.0375(3) 0.81055(19) 0.6258(3)
H4 H -0.12860 0.82320 0.68660
C6 C 0.3888(3) 0.68461(18) 0.88459(18)
C7 C 0.5025(3) 0.65597(15) 0.7821(2)
H5 H 0.63500 0.68760 0.79720
C8 C 0.4499(4) 0.58837(16) 0.6622(3)
H6 H 0.55270 0.57960 0.60960
C9 C 0.2654(4) 0.53186(16) 0.6095(3)
H7 H 0.25770 0.49240 0.52350
C10 C 0.0931(4) 0.52616(16) 0.6663(3)
H8 H -0.01660 0.48300 0.61470
C11 C 0.0603(3) 0.57602(16) 0.7903(2)
H9 H -0.06700 0.56020 0.81340
C12 C 0.1897(3) 0.64637(15) 0.8854(2)
H10 H 0.13510 0.67220 0.96200
Si1 Si 0.31592(9) 0.93102(4) 0.80680(6)
C13 C 0.1316(4) 1.01856(18) 0.8684(3)
H11 H 0.07140 1.06720 0.78960
H12 H 0.20720 1.05600 0.95630
H13 H 0.02010 0.97820 0.89140
C14 C 0.5122(4) 1.00967(19) 0.7444(3)
H14 H 0.44000 1.05890 0.67000
H15 H 0.59920 0.96480 0.70190
H16 H 0.60020 1.04650 0.82870
Si2 Si 0.47234(8) 0.80969(5) 0.98594(6)
C15 C 0.3797(3) 0.8172(2) 1.1579(2)
H17 H 0.45050 0.76490 1.22780
H18 H 0.22900 0.80550 1.13330
H19 H 0.41120 0.88500 1.20240
C16 C 0.7651(3) 0.8179(2) 1.0403(2)
H20 H 0.82200 0.76590 1.11490
H21 H 0.80810 0.88590 1.08060
H22 H 0.81770 0.80620 0.95360
#END
