
#######################################################################
#
#                 Cambridge Crystallographic Data Centre
#                                CCDC
#
#######################################################################
#
# If this CIF has been generated from an entry in the Cambridge
# Structural Database, then it will include bibliographic, chemical,
# crystal, experimental, refinement or atomic coordinate data resulting
# from the CCDC's data processing and validation procedures.
#
#######################################################################

data_CSD_CIF_SEGKOH
_audit_creation_date 2017-10-30
_audit_creation_method CSD-ConQuest-V1
_database_code_CSD SEGKOH
_database_code_depnum_ccdc_archive 'CCDC 1055757'
_chemical_formula_sum 'C8 H10 Mn1 N4 O6'
_chemical_formula_moiety
;
C8 H10 Mn1 N4 O6
;
_journal_coden_Cambridge 1078
_journal_year 2017
_journal_name_full 'CSD Communication(Private Communication) '
loop_
_publ_author_name
"Wang hui"
"lu lei"
_chemical_name_systematic
;
diaqua-bis(1H-pyrazole-3-carboxylato)-manganese(ii)
;
_cell_volume    565.623
_exptl_crystal_colour 'yellow'
_exptl_crystal_density_diffrn 1.839
_exptl_crystal_description 'block'
_diffrn_ambient_temperature 298
#These two values have been output from a single CSD field.
_refine_ls_R_factor_gt 0.0227
_refine_ls_wR_factor_gt 0.0227
_symmetry_cell_setting monoclinic
_symmetry_space_group_name_H-M 'P 21/c'
_symmetry_Int_Tables_number 14
loop_
_symmetry_equiv_pos_site_id
_symmetry_equiv_pos_as_xyz
1 x,y,z
2 -x,1/2+y,1/2-z
3 -x,-y,-z
4 x,-1/2-y,-1/2+z
_cell_length_a 5.1531(5)
_cell_length_b 11.7052(11)
_cell_length_c 9.4154(7)
_cell_angle_alpha 90
_cell_angle_beta 95.154(1)
_cell_angle_gamma 90
_cell_formula_units_Z 2
loop_
_atom_type_symbol
_atom_type_radius_bond
C 0.68
H 0.23
Mn 1.61
N 0.68
O 0.68
loop_
_atom_site_label
_atom_site_type_symbol
_atom_site_fract_x
_atom_site_fract_y
_atom_site_fract_z
Mn1 Mn 0.50000 0.50000 0.50000
N1 N 0.3875(3) 0.68580(12) 0.50559(15)
N2 N 0.2305(3) 0.76013(13) 0.56490(16)
H1 H 0.12740 0.74170 0.62810
O1 O 0.7423(2) 0.58436(11) 0.35255(14)
O2 O 0.8443(2) 0.75116(11) 0.25642(14)
O3 O 0.1991(3) 0.47570(12) 0.32306(15)
H2 H 0.05130 0.50610 0.33100
H3 H 0.17570 0.40630 0.29840
C1 C 0.7152(3) 0.69161(15) 0.33378(18)
C2 C 0.5139(3) 0.74888(15) 0.41438(17)
C3 C 0.4345(4) 0.86296(16) 0.4160(2)
H4 H 0.49160 0.92320 0.36240
C4 C 0.2531(4) 0.86614(16) 0.5143(2)
H5 H 0.16260 0.93030 0.54080
N1B N 0.6125(3) 0.31420(12) 0.49441(15)
N2B N 0.7695(3) 0.23987(13) 0.43510(16)
H1B H 0.87260 0.25830 0.37190
O1B O 0.2577(2) 0.41564(11) 0.64745(14)
O2B O 0.1557(2) 0.24884(11) 0.74358(14)
O3B O 0.8009(3) 0.52430(12) 0.67694(15)
H2B H 0.94870 0.49390 0.66900
H3B H 0.82430 0.59370 0.70160
C1B C 0.2848(3) 0.30839(15) 0.66622(18)
C2B C 0.4861(3) 0.25112(15) 0.58562(17)
C3B C 0.5655(4) 0.13704(16) 0.5840(2)
H4B H 0.50840 0.07680 0.63760
C4B C 0.7469(4) 0.13386(16) 0.4857(2)
H5B H 0.83740 0.06970 0.45920
#END
