
#######################################################################
#
#                 Cambridge Crystallographic Data Centre
#                                CCDC
#
#######################################################################
#
# If this CIF has been generated from an entry in the Cambridge
# Structural Database, then it will include bibliographic, chemical,
# crystal, experimental, refinement or atomic coordinate data resulting
# from the CCDC's data processing and validation procedures.
#
#######################################################################

data_CSD_CIF_SEKDES
_audit_creation_date 2006-10-10
_audit_creation_method CSD-ConQuest-V1
_database_code_CSD SEKDES
_database_code_depnum_ccdc_archive 'CCDC 297903'
_chemical_formula_sum 'C15 H12 Cr1 N2 O2 S2'
_chemical_formula_moiety
;
C15 H12 Cr1 N2 O2 S2
;
_journal_coden_Cambridge 179
_journal_volume 45
_journal_year 2006
_journal_page_first 4498
_journal_name_full 'Angew.Chem.,Int.Ed. '
loop_
_publ_author_name
"Hiu Fung Lau"
"V.Wee Lin Ng"
"Lip Lin Koh"
"Geok Kheng Tan"
"Lai Yoong Goh"
"T.L.Roemmele"
"S.D.Seagrave"
"R.T.Boere"
_chemical_name_systematic
;
Dicarbonyl-(\h^5^-cyclopentadienyl)-(\h^2^-4-(p-tolyl)-1,2,3,5-dithiadiazolyl)
-chromium
;
_cell_volume    762.051
_exptl_crystal_colour 'red'
_exptl_crystal_density_diffrn 1.605
_exptl_crystal_description 'block'
_diffrn_ambient_temperature 223
#These two values have been output from a single CSD field.
_refine_ls_R_factor_gt 0.0511
_refine_ls_wR_factor_gt 0.0511
_symmetry_cell_setting triclinic
_symmetry_space_group_name_H-M 'P -1'
_symmetry_Int_Tables_number 2
loop_
_symmetry_equiv_pos_site_id
_symmetry_equiv_pos_as_xyz
1 x,y,z
2 -x,-y,-z
_cell_length_a 7.7225(9)
_cell_length_b 9.7779(11)
_cell_length_c 11.7171(13)
_cell_angle_alpha 67.524(2)
_cell_angle_beta 86.123(2)
_cell_angle_gamma 69.230(2)
_cell_formula_units_Z 2
loop_
_atom_type_symbol
_atom_type_radius_bond
C 0.68
H 0.23
Cr 1.35
N 0.68
O 0.68
S 1.02
loop_
_atom_site_label
_atom_site_type_symbol
_atom_site_fract_x
_atom_site_fract_y
_atom_site_fract_z
Cr1 Cr -0.06424(6) 0.36279(5) 0.26240(4)
S1 S -0.18887(10) 0.63985(9) 0.16452(7)
S2 S -0.14909(10) 0.54396(9) 0.36004(7)
N1 N -0.0371(4) 0.7279(3) 0.1435(2)
N2 N 0.0112(4) 0.6181(3) 0.3611(2)
C1 C 0.0544(4) 0.6964(3) 0.2491(3)
C2 C 0.1946(4) 0.7697(3) 0.2421(3)
C3 C 0.2192(4) 0.8798(4) 0.1298(3)
H1 H 0.15510 0.90000 0.05630
C4 C 0.3374(4) 0.9590(4) 0.1266(3)
H2 H 0.35030 1.03450 0.05080
C5 C 0.4374(4) 0.9297(4) 0.2325(3)
C6 C 0.4142(4) 0.8178(4) 0.3436(3)
H3 H 0.48060 0.79590 0.41670
C7 C 0.2956(4) 0.7384(4) 0.3484(3)
H4 H 0.28330 0.66260 0.42430
C8 C 0.5689(5) 1.0129(4) 0.2287(3)
H5 H 0.55200 1.09870 0.14850
H6 H 0.69570 0.93840 0.24220
H7 H 0.54420 1.05540 0.29310
C9 C -0.3194(5) 0.3762(4) 0.1753(3)
H8 H -0.40660 0.47140 0.11050
C10 C -0.1631(5) 0.2616(5) 0.1545(3)
H9 H -0.12320 0.26040 0.07260
C11 C -0.0811(5) 0.1435(4) 0.2704(3)
H10 H 0.02510 0.04370 0.28450
C12 C -0.1867(5) 0.1866(4) 0.3632(3)
H11 H -0.16660 0.12250 0.45340
C13 C -0.3330(5) 0.3300(4) 0.3038(3)
H12 H -0.43220 0.38650 0.34510
C14 C 0.1230(4) 0.3791(4) 0.1579(3)
O1 O 0.2424(3) 0.3858(3) 0.0950(2)
C15 C 0.1367(5) 0.2578(4) 0.3798(3)
O2 O 0.2646(4) 0.1902(3) 0.4494(2)
#END
