
#######################################################################
#
#                 Cambridge Crystallographic Data Centre
#                                CCDC
#
#######################################################################
#
# If this CIF has been generated from an entry in the Cambridge
# Structural Database, then it will include bibliographic, chemical,
# crystal, experimental, refinement or atomic coordinate data resulting
# from the CCDC's data processing and validation procedures.
#
#######################################################################

data_CSD_CIF_SELJUP
_audit_creation_date 2006-10-10
_audit_creation_method CSD-ConQuest-V1
_database_code_CSD SELJUP
_database_code_depnum_ccdc_archive 'CCDC 281075'
_chemical_formula_sum 'C27 H38 Mn1 N6 O7'
_chemical_formula_moiety
;
C27 H36 Mn1 N6 O6,H2 O1
;
_journal_coden_Cambridge 211
_journal_volume 59
_journal_year 2006
_journal_page_first 1045
_journal_name_full 'J.Coord.Chem. '
loop_
_publ_author_name
"Jing Chen"
"Dong-Zhao Gao"
"Dai-Zheng Liao"
"Zong-Hui Jiang"
"Shi-Ping Yan"
_chemical_name_systematic
;
bis(1-Hydroxy-2-(2-pyridyl)-4,4,5,5-tetramethyl-4,5-dihydro-1H-imidazol-N,N')-
(malonato-O,O')-manganese(ii) monohydrate
;
_cell_volume   1448.082
_exptl_crystal_colour 'orange'
_exptl_crystal_density_diffrn 1.403
_diffrn_ambient_temperature 293
#These two values have been output from a single CSD field.
_refine_ls_R_factor_gt 0.0398
_refine_ls_wR_factor_gt 0.0398
_symmetry_cell_setting monoclinic
_symmetry_space_group_name_H-M 'C 2'
_symmetry_Int_Tables_number 5
loop_
_symmetry_equiv_pos_site_id
_symmetry_equiv_pos_as_xyz
1 x,y,z
2 -x,y,-z
3 1/2+x,1/2+y,z
4 1/2-x,1/2+y,-z
_cell_length_a 16.721(5)
_cell_length_b 10.897(5)
_cell_length_c 9.253(3)
_cell_angle_alpha 90
_cell_angle_beta 120.807(6)
_cell_angle_gamma 90
_cell_formula_units_Z 2
loop_
_atom_type_symbol
_atom_type_radius_bond
C 0.68
H 0.23
Mn 1.35
N 0.68
O 0.68
loop_
_atom_site_label
_atom_site_type_symbol
_atom_site_fract_x
_atom_site_fract_y
_atom_site_fract_z
Mn1 Mn 0.00000 0.87344(3) 0.00000
O1 O 0.2986(2) 0.6062(3) 0.1982(4)
H1 H 0.34660 0.62640 0.20090
O2 O 0.0547(2) 1.0060(3) -0.0766(5)
O3 O 0.0588(3) 1.1863(3) -0.1778(5)
N1 N 0.12131(19) 0.8697(5) 0.2419(3)
N2 N 0.0814(3) 0.7435(3) -0.0287(5)
N3 N 0.2223(2) 0.6663(3) 0.0642(4)
C1 C 0.1366(3) 0.9325(4) 0.3750(5)
H2 H 0.08910 0.98190 0.36680
C2 C 0.2197(4) 0.9284(5) 0.5259(6)
H3 H 0.22760 0.97380 0.61740
C3 C 0.2899(3) 0.8572(6) 0.5394(5)
H4 H 0.34690 0.85390 0.63970
C4 C 0.2754(3) 0.7902(5) 0.4020(6)
H5 H 0.32230 0.74020 0.40880
C5 C 0.1909(3) 0.7976(3) 0.2544(5)
C6 C 0.1648(2) 0.7335(3) 0.0982(5)
C7 C 0.1624(3) 0.5895(4) -0.0824(6)
C8 C 0.1383(4) 0.4722(5) -0.0220(8)
H6 H 0.19450 0.42830 0.05200
H7 H 0.09860 0.42160 -0.11720
H8 H 0.10680 0.49300 0.03700
C9 C 0.2106(4) 0.5586(7) -0.1797(7)
H9 H 0.23720 0.63170 -0.19540
H10 H 0.16600 0.52500 -0.28740
H11 H 0.25890 0.49950 -0.11780
C10 C 0.0785(3) 0.6795(4) -0.1729(5)
C11 C -0.0140(3) 0.6136(4) -0.2785(6)
H12 H -0.02620 0.56300 -0.20690
H13 H -0.01120 0.56320 -0.36090
H14 H -0.06290 0.67290 -0.33420
C12 C 0.0931(3) 0.7750(5) -0.2744(6)
H15 H 0.04130 0.83080 -0.32270
H16 H 0.09790 0.73580 -0.36260
H17 H 0.14940 0.81950 -0.20270
C13 C 0.0388(3) 1.1189(4) -0.0929(6)
C14 C 0.00000 1.1812(13) 0.00000
H18 H -0.04900 1.23450 -0.08090
O4 O 1.00000 0.3213(8) 0.50000
H19 H 0.96240 0.37750 0.40570
O1A O -0.2986(2) 0.6062(3) -0.1982(4)
H1A H -0.34660 0.62640 -0.20090
O2A O -0.0547(2) 1.0060(3) 0.0766(5)
O3A O -0.0588(3) 1.1863(3) 0.1778(5)
N1A N -0.12131(19) 0.8697(5) -0.2419(3)
N2A N -0.0814(3) 0.7435(3) 0.0287(5)
N3A N -0.2223(2) 0.6663(3) -0.0642(4)
C1A C -0.1366(3) 0.9325(4) -0.3750(5)
H2A H -0.08910 0.98190 -0.36680
C2A C -0.2197(4) 0.9284(5) -0.5259(6)
H3A H -0.22760 0.97380 -0.61740
C3A C -0.2899(3) 0.8572(6) -0.5394(5)
H4A H -0.34690 0.85390 -0.63970
C4A C -0.2754(3) 0.7902(5) -0.4020(6)
H5A H -0.32230 0.74020 -0.40880
C5A C -0.1909(3) 0.7976(3) -0.2544(5)
C6A C -0.1648(2) 0.7335(3) -0.0982(5)
C7A C -0.1624(3) 0.5895(4) 0.0824(6)
C8A C -0.1383(4) 0.4722(5) 0.0220(8)
H6A H -0.19450 0.42830 -0.05200
H7A H -0.09860 0.42160 0.11720
H8A H -0.10680 0.49300 -0.03700
C9A C -0.2106(4) 0.5586(7) 0.1797(7)
H9A H -0.23720 0.63170 0.19540
H10A H -0.16600 0.52500 0.28740
H11A H -0.25890 0.49950 0.11780
C10A C -0.0785(3) 0.6795(4) 0.1729(5)
C11A C 0.0140(3) 0.6136(4) 0.2785(6)
H12A H 0.02620 0.56300 0.20690
H13A H 0.01120 0.56320 0.36090
H14A H 0.06290 0.67290 0.33420
C12A C -0.0931(3) 0.7750(5) 0.2744(6)
H15A H -0.04130 0.83080 0.32270
H16A H -0.09790 0.73580 0.36260
H17A H -0.14940 0.81950 0.20270
C13A C -0.0388(3) 1.1189(4) 0.0929(6)
H18A H 0.04900 1.23450 0.08090
H19A H 1.03760 0.37750 0.59430
#END
