
#######################################################################
#
#                 Cambridge Crystallographic Data Centre
#                                CCDC
#
#######################################################################
#
# If this CIF has been generated from an entry in the Cambridge
# Structural Database, then it will include bibliographic, chemical,
# crystal, experimental, refinement or atomic coordinate data resulting
# from the CCDC's data processing and validation procedures.
#
#######################################################################

data_CSD_CIF_SENDUL
_audit_creation_date 2006-10-10
_audit_creation_method CSD-ConQuest-V1
_database_code_CSD SENDUL
_database_code_depnum_ccdc_archive 'CCDC 618142'
_chemical_formula_sum 'C12 H22 Co1 N4 O6'
_chemical_formula_moiety
;
C12 H22 Co1 N4 O6
;
_journal_coeditor_code "IUCr BT2149"
_journal_coden_Cambridge 1370
_journal_volume 62
_journal_year 2006
_journal_page_first m1916
_journal_name_full 'Acta Crystallogr.,Sect.E:Struct.Rep.Online '
loop_
_publ_author_name
"B.Papankova"
"I.Svoboda"
"H.Fuess"
_chemical_name_systematic
;
bis(Acetato-O)diaquabis(1-methylimidazole-\kN^3^)cobalt(ii)
;
_cell_volume    399.499
_exptl_crystal_colour 'violet'
_exptl_crystal_density_diffrn 1.568
_exptl_crystal_description 'prism'
_exptl_crystal_preparation 'ethanol'
_diffrn_ambient_temperature 100
#These two values have been output from a single CSD field.
_refine_ls_R_factor_gt 0.0326
_refine_ls_wR_factor_gt 0.0326
_symmetry_cell_setting triclinic
_symmetry_space_group_name_H-M 'P -1'
_symmetry_Int_Tables_number 2
loop_
_symmetry_equiv_pos_site_id
_symmetry_equiv_pos_as_xyz
1 x,y,z
2 -x,-y,-z
_cell_length_a 5.5832(7)
_cell_length_b 8.7122(7)
_cell_length_c 8.9572(8)
_cell_angle_alpha 76.301(7)
_cell_angle_beta 77.956(9)
_cell_angle_gamma 72.629(9)
_cell_formula_units_Z 1
loop_
_atom_type_symbol
_atom_type_radius_bond
C 0.68
H 0.23
Co 1.33
N 0.68
O 0.68
loop_
_atom_site_label
_atom_site_type_symbol
_atom_site_fract_x
_atom_site_fract_y
_atom_site_fract_z
C1 C 0.3414(3) 0.3427(2) 0.0910(2)
H1 H 0.501(5) 0.350(3) 0.047(3)
C2 C 0.1522(3) 0.4508(2) 0.1657(2)
H2 H 0.137(4) 0.553(3) 0.185(3)
C3 C 0.0313(3) 0.2302(2) 0.1750(2)
H3 H -0.070(4) 0.160(3) 0.195(3)
C4 C -0.2835(3) 0.4448(2) 0.3127(2)
H4 H -0.390(4) 0.533(3) 0.251(3)
H5 H -0.251(4) 0.484(3) 0.398(3)
H6 H -0.367(4) 0.359(3) 0.357(3)
C5 C 0.6298(3) -0.1333(2) 0.3287(2)
C6 C 0.7972(4) -0.1574(3) 0.4497(2)
H7 H 0.717(5) -0.185(3) 0.544(3)
H8 H 0.951(5) -0.227(3) 0.427(3)
H9 H 0.838(5) -0.064(3) 0.446(3)
Co1 Co 0.50000 0.00000 0.00000
N1 N 0.2643(3) 0.20526(19) 0.09630(17)
N2 N -0.0435(3) 0.37684(19) 0.21929(17)
O1 O 0.7096(2) -0.07236(16) 0.18866(15)
O2 O 0.4271(2) -0.17489(18) 0.37142(15)
O3 O 0.2394(2) -0.14659(16) 0.11993(14)
H10 H 0.0791(18) -0.114(3) 0.130(2)
H11 H 0.280(3) -0.157(3) 0.2084(15)
C1A C 0.6586(3) -0.3427(2) -0.0910(2)
H1A H 0.499(5) -0.350(3) -0.047(3)
C2A C 0.8478(3) -0.4508(2) -0.1657(2)
H2A H 0.863(4) -0.553(3) -0.185(3)
C3A C 0.9687(3) -0.2302(2) -0.1750(2)
H3A H 1.070(4) -0.160(3) -0.195(3)
C4A C 1.2835(3) -0.4448(2) -0.3127(2)
H4A H 1.390(4) -0.533(3) -0.251(3)
H5A H 1.251(4) -0.484(3) -0.398(3)
H6A H 1.367(4) -0.359(3) -0.357(3)
C5A C 0.3702(3) 0.1333(2) -0.3287(2)
C6A C 0.2028(4) 0.1574(3) -0.4497(2)
H7A H 0.283(5) 0.185(3) -0.544(3)
H8A H 0.049(5) 0.227(3) -0.427(3)
H9A H 0.162(5) 0.064(3) -0.446(3)
N1A N 0.7357(3) -0.20526(19) -0.09630(17)
N2A N 1.0435(3) -0.37684(19) -0.21929(17)
O1A O 0.2904(2) 0.07236(16) -0.18866(15)
O2A O 0.5729(2) 0.17489(18) -0.37142(15)
O3A O 0.7606(2) 0.14659(16) -0.11993(14)
H10A H 0.9209(18) 0.114(3) -0.130(2)
H11A H 0.720(3) 0.157(3) -0.2084(15)
#END
