
#######################################################################
#
#                 Cambridge Crystallographic Data Centre
#                                CCDC
#
#######################################################################
#
# If this CIF has been generated from an entry in the Cambridge
# Structural Database, then it will include bibliographic, chemical,
# crystal, experimental, refinement or atomic coordinate data resulting
# from the CCDC's data processing and validation procedures.
#
#######################################################################

data_CSD_CIF_SEQWEQ
_audit_creation_date 1999-02-09
_audit_creation_method CSD-ConQuest-V1
_database_code_CSD SEQWEQ
_chemical_formula_sum 'C15 H15 Cr1 Ga1 O5'
_chemical_formula_moiety
;
C15 H15 Cr1 Ga1 O5
;
_journal_coden_Cambridge 579
_journal_volume 17
_journal_year 1998
_journal_page_first 1305
_journal_name_full 'Organometallics '
loop_
_publ_author_name
"P.Jutzi"
"B.Neumann"
"G.Reumann"
"H.-G.Stammler"
_chemical_name_systematic
;
Pentacarbonyl-(\h^5^-pentamethyl-cyclopentadienyl)-gallium-chromium
;
_chemical_melting_point 429.15
_cell_volume    850.293
_exptl_crystal_colour 'yellow'
_exptl_crystal_density_diffrn 1.551
_exptl_special_details
;
air-sensitive

;
_exptl_crystal_description 'cube'
_exptl_crystal_preparation 'n-hexane'
_diffrn_ambient_temperature 173
#These two values have been output from a single CSD field.
_refine_ls_R_factor_gt 0.0523
_refine_ls_wR_factor_gt 0.0523
_symmetry_cell_setting triclinic
_symmetry_space_group_name_H-M 'P -1'
_symmetry_Int_Tables_number 2
loop_
_symmetry_equiv_pos_site_id
_symmetry_equiv_pos_as_xyz
1 x,y,z
2 -x,-y,-z
_cell_length_a 8.959(1)
_cell_length_b 9.505(1)
_cell_length_c 10.863(1)
_cell_angle_alpha 72.77(1)
_cell_angle_beta 89.30(1)
_cell_angle_gamma 74.76(1)
_cell_formula_units_Z 2
loop_
_atom_type_symbol
_atom_type_radius_bond
C 0.68
H 0.23
Cr 1.35
Ga 1.22
O 0.68
loop_
_atom_site_label
_atom_site_type_symbol
_atom_site_fract_x
_atom_site_fract_y
_atom_site_fract_z
Ga1 Ga 0.2765(1) 0.1116(1) 0.7292(1)
Cr1 Cr 0.4207(1) -0.1537(1) 0.7929(1)
O1 O 0.1132(4) -0.2350(4) 0.8176(4)
O2 O 0.4259(4) -0.1508(4) 1.0727(3)
O3 O 0.7282(3) -0.0712(4) 0.7665(3)
O4 O 0.4113(4) -0.1423(4) 0.5105(3)
O5 O 0.6034(4) -0.4851(3) 0.8735(3)
C1 C 0.0368(4) 0.2559(4) 0.7512(4)
C2 C 0.1510(4) 0.3246(4) 0.7769(4)
C3 C 0.2302(4) 0.3664(4) 0.6620(4)
C4 C 0.1609(5) 0.3234(4) 0.5659(4)
C5 C 0.0438(4) 0.2558(4) 0.6210(4)
C6 C -0.0751(6) 0.2005(6) 0.8453(6)
C7 C 0.1733(7) 0.3599(6) 0.9007(5)
C8 C 0.3581(6) 0.4440(5) 0.6468(6)
C9 C 0.2003(7) 0.3538(6) 0.4267(5)
C10 C -0.0592(6) 0.1942(7) 0.5545(7)
C11 C 0.2287(4) -0.2040(4) 0.8097(4)
C12 C 0.4228(4) -0.1505(4) 0.9669(4)
C13 C 0.6107(4) -0.0978(4) 0.7747(3)
C14 C 0.4137(4) -0.1442(4) 0.6159(4)
C15 C 0.5319(4) -0.3588(4) 0.8427(4)
H1 H -0.15800 0.28830 0.85170
H2 H -0.02020 0.14520 0.93040
H3 H -0.12000 0.13200 0.81510
H4 H 0.08960 0.44850 0.90440
H5 H 0.27330 0.38300 0.90370
H6 H 0.17150 0.27130 0.97460
H7 H 0.40190 0.44680 0.56330
H8 H 0.43930 0.38720 0.71660
H9 H 0.31650 0.54870 0.65070
H10 H 0.22980 0.25710 0.40580
H11 H 0.28690 0.40050 0.41350
H12 H 0.10970 0.42350 0.37040
H13 H -0.16540 0.26090 0.54240
H14 H -0.05820 0.09070 0.60770
H15 H -0.02100 0.19090 0.47020
#END
