
#######################################################################
#
#                 Cambridge Crystallographic Data Centre
#                                CCDC
#
#######################################################################
#
# If this CIF has been generated from an entry in the Cambridge
# Structural Database, then it will include bibliographic, chemical,
# crystal, experimental, refinement or atomic coordinate data resulting
# from the CCDC's data processing and validation procedures.
#
#######################################################################

data_CSD_CIF_SESYIB
_audit_creation_date 2018-03-15
_audit_creation_method CSD-ConQuest-V1
_database_code_CSD SESYIB
_database_code_depnum_ccdc_archive 'CCDC 1443910'
_chemical_formula_sum 'C18 H24 Cl2 Co1 N4 O4'
_chemical_formula_moiety
;
C18 H24 Co1 N4 O4 2+,2(Cl1 1-)
;
_journal_coden_Cambridge 211
_journal_volume 71
_journal_year 2018
_journal_page_first 311
_journal_name_full 'J.Coord.Chem. '
loop_
_publ_author_name
"A.Benhassine"
"H.Boulebd"
"B.Anak"
"A.Bouraiou"
"S.Bouacida"
"M.Bencharif"
"A.Belfaitah"
_chemical_name_systematic
;
diaqua-bis((1-methyl-1H-benzimidazol-2-yl)methanol)-cobalt(ii) dichloride
;
_cell_volume    527.951
_exptl_crystal_colour 'blue'
_exptl_crystal_density_diffrn 1.542
_exptl_crystal_description 'prism'
_diffrn_ambient_temperature 150
#These two values have been output from a single CSD field.
_refine_ls_R_factor_gt 0.0327
_refine_ls_wR_factor_gt 0.0327
_symmetry_cell_setting triclinic
_symmetry_space_group_name_H-M 'P -1'
_symmetry_Int_Tables_number 2
loop_
_symmetry_equiv_pos_site_id
_symmetry_equiv_pos_as_xyz
1 x,y,z
2 -x,-y,-z
_cell_length_a 7.2796(2)
_cell_length_b 8.7097(2)
_cell_length_c 9.4966(2)
_cell_angle_alpha 69.212(1)
_cell_angle_beta 72.505(1)
_cell_angle_gamma 74.418(1)
_cell_formula_units_Z 1
loop_
_atom_type_symbol
_atom_type_radius_bond
C 0.68
H 0.23
Cl 0.99
Co 1.26
N 0.68
O 0.68
loop_
_atom_site_label
_atom_site_type_symbol
_atom_site_fract_x
_atom_site_fract_y
_atom_site_fract_z
Co1 Co 1.00000 0.00000 1.00000
O1 O 1.1042(3) -0.27122(19) 1.04075(18)
O2 O 1.2505(3) 0.0407(3) 1.0331(2)
N1 N 1.2345(3) -0.1634(2) 0.6169(2)
C1 C 1.2427(3) 0.0000(3) 0.5272(2)
C2 C 1.1779(4) 0.2660(3) 0.5783(3)
H1 H 1.13910 0.32930 0.64660
N2 N 1.1372(3) -0.0123(2) 0.77991(18)
C3 C 1.1822(3) 0.0944(3) 0.6305(2)
C4 C 1.1716(3) -0.1634(3) 0.7652(2)
C5 C 1.2339(4) 0.3380(3) 0.4202(3)
H2 H 1.23170 0.45250 0.38100
C6 C 1.2807(4) -0.3083(3) 0.5599(3)
H3 H 1.33090 -0.40600 0.63470
H4 H 1.37730 -0.28960 0.46400
H5 H 1.16410 -0.32450 0.54370
C7 C 1.2995(4) 0.0742(4) 0.3681(3)
H6 H 1.33980 0.01150 0.29910
C8 C 1.2937(4) 0.2417(4) 0.3182(3)
H7 H 1.33060 0.29430 0.21270
C9 C 1.1384(4) -0.3137(3) 0.9019(3)
H8 H 1.02640 -0.35410 0.90230
H9 H 1.25220 -0.40190 0.89590
H10 H 1.201(4) -0.297(3) 1.067(3)
H11 H 1.326(5) -0.045(4) 1.047(3)
H12 H 1.304(5) 0.108(4) 0.979(4)
Cl1 Cl 1.48895(9) -0.31246(7) 1.13451(7)
O1A O 0.8958(3) 0.27122(19) 0.95925(18)
O2A O 0.7495(3) -0.0407(3) 0.9669(2)
N1A N 0.7655(3) 0.1634(2) 1.3831(2)
C1A C 0.7573(3) 0.0000(3) 1.4728(2)
C2A C 0.8221(4) -0.2660(3) 1.4217(3)
H1A H 0.86090 -0.32930 1.35340
N2A N 0.8628(3) 0.0123(2) 1.22009(18)
C3A C 0.8178(3) -0.0944(3) 1.3695(2)
C4A C 0.8284(3) 0.1634(3) 1.2348(2)
C5A C 0.7661(4) -0.3380(3) 1.5798(3)
H2A H 0.76830 -0.45250 1.61900
C6A C 0.7193(4) 0.3083(3) 1.4401(3)
H3A H 0.66910 0.40600 1.36530
H4A H 0.62270 0.28960 1.53600
H5A H 0.83590 0.32450 1.45630
C7A C 0.7005(4) -0.0742(4) 1.6319(3)
H6A H 0.66020 -0.01150 1.70090
C8A C 0.7063(4) -0.2417(4) 1.6818(3)
H7A H 0.66940 -0.29430 1.78730
C9A C 0.8616(4) 0.3137(3) 1.0981(3)
H8A H 0.97360 0.35410 1.09770
H9A H 0.74780 0.40190 1.10410
H10A H 0.799(4) 0.297(3) 0.933(3)
H11A H 0.674(5) 0.045(4) 0.953(3)
H12A H 0.696(5) -0.108(4) 1.021(4)
#END
