
#######################################################################
#
#                 Cambridge Crystallographic Data Centre
#                                CCDC
#
#######################################################################
#
# If this CIF has been generated from an entry in the Cambridge
# Structural Database, then it will include bibliographic, chemical,
# crystal, experimental, refinement or atomic coordinate data resulting
# from the CCDC's data processing and validation procedures.
#
#######################################################################

data_CSD_CIF_SESYEX
_audit_creation_date 2018-03-15
_audit_creation_method CSD-ConQuest-V1
_database_code_CSD SESYEX
_database_code_depnum_ccdc_archive 'CCDC 1443908'
_chemical_formula_sum 'C22 H26 Co1 N4 O6'
_chemical_formula_moiety
;
C22 H26 Co1 N4 O6
;
_journal_coden_Cambridge 211
_journal_volume 71
_journal_year 2018
_journal_page_first 311
_journal_name_full 'J.Coord.Chem. '
loop_
_publ_author_name
"A.Benhassine"
"H.Boulebd"
"B.Anak"
"A.Bouraiou"
"S.Bouacida"
"M.Bencharif"
"A.Belfaitah"
_chemical_name_systematic
;
bis(acetato)-bis((1-methyl-1H-benzimidazol-2-yl)methanol)-cobalt(ii)
;
_cell_volume    551.465
_exptl_crystal_colour 'blue'
_exptl_crystal_density_diffrn 1.51
_exptl_crystal_description 'Needle'
_diffrn_ambient_temperature 150
#These two values have been output from a single CSD field.
_refine_ls_R_factor_gt 0.0335
_refine_ls_wR_factor_gt 0.0335
_symmetry_cell_setting triclinic
_symmetry_space_group_name_H-M 'P -1'
_symmetry_Int_Tables_number 2
loop_
_symmetry_equiv_pos_site_id
_symmetry_equiv_pos_as_xyz
1 x,y,z
2 -x,-y,-z
_cell_length_a 7.8232(8)
_cell_length_b 8.8916(9)
_cell_length_c 9.4686(9)
_cell_angle_alpha 107.423(4)
_cell_angle_beta 109.813(4)
_cell_angle_gamma 102.834(5)
_cell_formula_units_Z 1
loop_
_atom_type_symbol
_atom_type_radius_bond
C 0.68
H 0.23
Co 1.26
N 0.68
O 0.68
loop_
_atom_site_label
_atom_site_type_symbol
_atom_site_fract_x
_atom_site_fract_y
_atom_site_fract_z
Co1 Co 1.00000 0.00000 1.00000
O1 O 0.83183(19) -0.25673(17) 0.95306(15)
O2 O 0.8052(2) 0.09082(17) 1.07571(17)
O3 O 0.9397(2) 0.36614(19) 1.1458(2)
N1 N 1.1258(2) -0.00692(18) 1.23009(17)
N2 N 1.1033(2) -0.1322(2) 1.39791(19)
C1 C 1.5456(3) 0.3284(3) 1.6093(3)
H1 H 1.64260 0.43350 1.65130
C2 C 1.5336(3) 0.2480(3) 1.7145(2)
H2 H 1.62400 0.30080 1.82440
C3 C 1.2612(3) 0.0189(2) 1.4936(2)
C4 C 1.2733(3) 0.0971(2) 1.3868(2)
C5 C 0.6331(3) 0.2659(3) 1.1465(3)
H3 H 0.52300 0.16170 1.08560
H4 H 0.60250 0.34990 1.10890
H5 H 0.66390 0.30370 1.26140
C6 C 1.4157(3) 0.2542(2) 1.4444(2)
H6 H 1.42350 0.30760 1.37470
C7 C 1.3918(3) 0.0928(3) 1.6595(2)
H7 H 1.38380 0.04020 1.72960
C8 C 0.8054(3) 0.2386(2) 1.1208(2)
C9 C 0.8578(3) -0.2831(2) 1.0983(2)
H8 H 0.87810 -0.38900 1.08650
H9 H 0.74180 -0.28960 1.11610
C10 C 1.0300(3) -0.1405(2) 1.2427(2)
C11 C 1.0312(3) -0.2597(3) 1.4530(3)
H10 H 0.89150 -0.30710 1.39720
H11 H 1.07210 -0.20800 1.56950
H12 H 1.08270 -0.34760 1.42850
H13 H 0.902(4) -0.304(4) 0.916(3)
O1A O 1.16817(19) 0.25673(17) 1.04694(15)
O2A O 1.1948(2) -0.09082(17) 0.92429(17)
O3A O 1.0603(2) -0.36614(19) 0.8542(2)
N1A N 0.8742(2) 0.00692(18) 0.76991(17)
N2A N 0.8967(2) 0.1322(2) 0.60209(19)
C1A C 0.4544(3) -0.3284(3) 0.3907(3)
H1A H 0.35740 -0.43350 0.34870
C2A C 0.4664(3) -0.2480(3) 0.2855(2)
H2A H 0.37600 -0.30080 0.17560
C3A C 0.7388(3) -0.0189(2) 0.5064(2)
C4A C 0.7267(3) -0.0971(2) 0.6132(2)
C5A C 1.3669(3) -0.2659(3) 0.8535(3)
H3A H 1.47700 -0.16170 0.91440
H4A H 1.39750 -0.34990 0.89110
H5A H 1.33610 -0.30370 0.73860
C6A C 0.5843(3) -0.2542(2) 0.5556(2)
H6A H 0.57650 -0.30760 0.62530
C7A C 0.6082(3) -0.0928(3) 0.3405(2)
H7A H 0.61620 -0.04020 0.27040
C8A C 1.1946(3) -0.2386(2) 0.8792(2)
C9A C 1.1422(3) 0.2831(2) 0.9017(2)
H8A H 1.12190 0.38900 0.91350
H9A H 1.25820 0.28960 0.88390
C10A C 0.9700(3) 0.1405(2) 0.7573(2)
C11A C 0.9688(3) 0.2597(3) 0.5470(3)
H10A H 1.10850 0.30710 0.60280
H11A H 0.92790 0.20800 0.43050
H12A H 0.91730 0.34760 0.57150
H13A H 1.098(4) 0.304(4) 1.084(3)
#END
