
#######################################################################
#
#                 Cambridge Crystallographic Data Centre
#                                CCDC
#
#######################################################################
#
# If this CIF has been generated from an entry in the Cambridge
# Structural Database, then it will include bibliographic, chemical,
# crystal, experimental, refinement or atomic coordinate data resulting
# from the CCDC's data processing and validation procedures.
#
#######################################################################

data_CSD_CIF_SEVLIO
_audit_creation_date 1991-01-24
_audit_creation_method CSD-ConQuest-V1
_database_code_CSD SEVLIO
_database_code_depnum_ccdc_archive 'CCDC 1257956'
_chemical_formula_sum 'C6 H5 Cr1 N1 O5'
_chemical_formula_moiety
;
C6 H5 Cr1 N1 O5
;
_journal_coden_Cambridge 423
_journal_volume 150
_journal_year 1990
_journal_page_first 1117
_journal_name_full 'J.Chem.Res. '
loop_
_publ_author_name
"J.K.T.Matikainen"
"S.A.A.Kaltia"
"T.A.Hase"
"M.R.Ssundberg"
"R.Kivekas"
_chemical_name_systematic
;
(Pyridinium-3-carboxylato)-trioxo-chromium(vi)
;
_chemical_name_common
;
Trioxo-(nicotinato-O)-chromium(vi)
;
_cell_volume    388.625
_diffrn_ambient_temperature ?
_diffrn_special_details
;
The study was carried out at room temperature,in the range 283-303K

;
#These two values have been output from a single CSD field.
_refine_ls_R_factor_gt 0.033
_refine_ls_wR_factor_gt 0.033
_symmetry_cell_setting monoclinic
_symmetry_space_group_name_H-M 'P 21/m'
_symmetry_Int_Tables_number 11
loop_
_symmetry_equiv_pos_site_id
_symmetry_equiv_pos_as_xyz
1 x,y,z
2 -x,1/2+y,-z
3 -x,-y,-z
4 x,-1/2-y,z
_cell_length_a 7.5331(13)
_cell_length_b 6.619(1)
_cell_length_c 7.797(2)
_cell_angle_alpha 90
_cell_angle_beta 91.57(2)
_cell_angle_gamma 90
_cell_formula_units_Z 2
loop_
_atom_type_symbol
_atom_type_radius_bond
C 0.68
H 0.23
Cr 1.30
N 0.68
O 0.68
loop_
_atom_site_label
_atom_site_type_symbol
_atom_site_fract_x
_atom_site_fract_y
_atom_site_fract_z
Cr1 Cr -0.20176(7) 0.25000 -0.00642(7)
O1 O -0.1559(3) 0.25000 -0.2045(3)
O2 O -0.3097(2) 0.0538(4) 0.0486(2)
O3 O 0.0140(3) 0.25000 0.1177(3)
O4 O -0.1228(3) 0.25000 0.3666(3)
C1 C 0.0103(4) 0.25000 0.2835(4)
C2 C 0.1900(4) 0.25000 0.3697(4)
C3 C 0.2054(4) 0.25000 0.5478(4)
C4 C 0.3714(5) 0.25000 0.6268(4)
C5 C 0.5180(4) 0.25000 0.5290(4)
N1 N 0.4992(3) 0.25000 0.3583(3)
C6 C 0.3414(4) 0.25000 0.2765(4)
H1 H 0.591(4) 0.25000 0.298(4)
H2 H 0.106(4) 0.25000 0.619(4)
H3 H 0.383(4) 0.25000 0.743(4)
H4 H 0.625(5) 0.25000 0.567(4)
H5 H 0.342(4) 0.25000 0.157(4)
O2C O -0.3097(2) 0.4462(4) 0.0486(2)
#END
