
#######################################################################
#
#                 Cambridge Crystallographic Data Centre
#                                CCDC
#
#######################################################################
#
# If this CIF has been generated from an entry in the Cambridge
# Structural Database, then it will include bibliographic, chemical,
# crystal, experimental, refinement or atomic coordinate data resulting
# from the CCDC's data processing and validation procedures.
#
#######################################################################

data_CSD_CIF_SEVLIO01
_audit_creation_date 1998-05-21
_audit_creation_method CSD-ConQuest-V1
_database_code_CSD SEVLIO01
_database_code_depnum_ccdc_archive 'CCDC 1257957'
_chemical_formula_sum 'C6 H5 Cr1 N1 O5'
_chemical_formula_moiety
;
C6 H5 Cr1 N1 O5
;
_journal_coden_Cambridge 155
_journal_volume 258
_journal_year 1997
_journal_page_first 53
_journal_name_full 'Inorg.Chim.Acta '
loop_
_publ_author_name
"P.Martin-Zarza"
"P.Gili"
"C.Ruiz-Perez"
"F.V.Rodriguez-Romero"
"G.Lotter"
"J.M.Arrieta"
"M.Torrent"
"J.Mestres"
"M.Sola"
"M.Duran"
_chemical_name_systematic
;
(Pyridinium-3-carboxylato)-trioxo-chromium(vi)
;
_chemical_name_common
;
Trioxo-(nicotinato-O)-chromium(vi)
;
_cell_volume    388.992
_exptl_crystal_colour 'orange'
_exptl_crystal_density_diffrn 1.9
_exptl_crystal_description 'prismatic'
_diffrn_ambient_temperature ?
_diffrn_special_details
;
The study was carried out at room temperature,in the range 283-303K

;
#These two values have been output from a single CSD field.
_refine_ls_R_factor_gt 0.072
_refine_ls_wR_factor_gt 0.072
_chemical_compound_source
;
chromium trioxide/water
;
loop_
_citation_database_id_CSD
_citation_special_details
SEVLIO02 "is a reinterpretation of this cif"
_symmetry_cell_setting triclinic
_symmetry_space_group_name_H-M 'P -1'
_symmetry_Int_Tables_number 2
loop_
_symmetry_equiv_pos_site_id
_symmetry_equiv_pos_as_xyz
1 x,y,z
2 -x,-y,-z
_cell_length_a 7.548(2)
_cell_length_b 6.593(2)
_cell_length_c 7.820(2)
_cell_angle_alpha 90.01(2)
_cell_angle_beta 91.65(2)
_cell_angle_gamma 89.91(2)
_cell_formula_units_Z 2
loop_
_atom_type_symbol
_atom_type_radius_bond
C 0.68
H 0.23
Cr 1.30
N 0.68
O 0.68
loop_
_atom_site_label
_atom_site_type_symbol
_atom_site_fract_x
_atom_site_fract_y
_atom_site_fract_z
Cr1 Cr 0.70141(11) 0.25006(17) 1.00615(12)
O1 O 0.65559(69) 0.25232(93) 1.20314(59)
O2 O 0.80960(78) 0.44772(98) 0.95156(73)
O3 O 0.80869(76) 0.05425(94) 0.95144(75)
O4 O 0.48472(54) 0.25086(69) 0.88121(53)
C1 C 0.48828(83) 0.25369(93) 0.71823(84)
O5 O 0.62292(56) 0.25110(87) 0.63290(58)
C2 C 0.31067(77) 0.25075(92) 0.62909(76)
C3 C 0.15686(78) 0.25197(89) 0.72182(75)
N1 N 0.00008(66) 0.25242(85) 0.64151(67)
C4 C -0.02019(90) 0.25241(93) 0.47204(83)
C5 C 0.12743(98) 0.2524(11) 0.37191(84)
C6 C 0.29542(74) 0.25261(85) 0.45250(85)
H1 H 0.143(14) 0.303(14) 0.852(13)
H2 H 0.1109(75) 0.2727(69) 0.2656(81)
H3 H 0.4067(93) 0.2648(73) 0.3894(76)
H4 H -0.090(11) 0.2470(86) 0.4025(95)
H5 H -0.064(11) 0.2965(95) 0.7676(94)
#END
