
#######################################################################
#
#                 Cambridge Crystallographic Data Centre
#                                CCDC
#
#######################################################################
#
# If this CIF has been generated from an entry in the Cambridge
# Structural Database, then it will include bibliographic, chemical,
# crystal, experimental, refinement or atomic coordinate data resulting
# from the CCDC's data processing and validation procedures.
#
#######################################################################

data_CSD_CIF_SEVNAI01
_audit_creation_date 1997-03-05
_audit_creation_method CSD-ConQuest-V1
_database_code_CSD SEVNAI01
_database_code_depnum_ccdc_archive 'CCDC 1257967'
_chemical_formula_sum 'C10 H10 Mn1 N4 O6'
_chemical_formula_moiety
;
C10 H10 Mn1 N4 O6
;
_journal_coden_Cambridge 211
_journal_volume 36
_journal_year 1995
_journal_page_first 317
_journal_name_full 'J.Coord.Chem. '
loop_
_publ_author_name
"H.Ptasiewicz-Bak"
"J.Leciejewicz"
"J.Zachara"
_chemical_name_systematic
;
Diaqua-bis(2-pyrazinecarboxylato)-manganese(ii)
;
_cell_volume   2518.481
_exptl_crystal_density_diffrn 1.778
_exptl_special_details
;
Isostructural with the Ni, Co, Cu and Zn complexes
x(C1) is -0.1818 not -0.1718
;
_diffrn_ambient_temperature ?
_diffrn_special_details
;
The study was carried out at room temperature,in the range 283-303K

;
#These two values have been output from a single CSD field.
_refine_ls_R_factor_gt 0.029
_refine_ls_wR_factor_gt 0.029
_symmetry_cell_setting orthorhombic
_symmetry_space_group_name_H-M 'F d d 2'
_symmetry_Int_Tables_number 43
loop_
_symmetry_equiv_pos_site_id
_symmetry_equiv_pos_as_xyz
1 x,y,z
2 -x,-y,z
3 1/4-x,1/4+y,1/4+z
4 3/4+x,3/4-y,1/4+z
5 x,1/2+y,1/2+z
6 -x,1/2-y,1/2+z
7 1/4-x,3/4+y,3/4+z
8 3/4+x,1/4-y,3/4+z
9 1/2+x,y,1/2+z
10 1/2-x,-y,1/2+z
11 3/4-x,1/4+y,3/4+z
12 1/4+x,3/4-y,3/4+z
13 1/2+x,1/2+y,z
14 1/2-x,1/2-y,z
15 3/4-x,3/4+y,1/4+z
16 1/4+x,1/4-y,1/4+z
_cell_length_a 15.418(1)
_cell_length_b 23.537(3)
_cell_length_c 6.940(4)
_cell_angle_alpha 90
_cell_angle_beta 90
_cell_angle_gamma 90
_cell_formula_units_Z 8
loop_
_atom_type_symbol
_atom_type_radius_bond
C 0.68
H 0.23
Mn 1.35
N 0.68
O 0.68
loop_
_atom_site_label
_atom_site_type_symbol
_atom_site_fract_x
_atom_site_fract_y
_atom_site_fract_z
Mn1 Mn 0.00000 0.00000 0.3298(1)
O1 O -0.0734(1) 0.0350(1) 0.0884(3)
O2 O 0.0265(1) 0.1710(1) 0.4433(2)
O3 O 0.0587(1) 0.0801(1) 0.3875(2)
N1 N -0.0959(1) 0.0474(1) 0.5288(5)
N2 N -0.2092(1) 0.1270(1) 0.6853(3)
C1 C -0.1818(1) 0.0320(1) 0.6046(3)
C2 C -0.2276(1) 0.0718(1) 0.6838(3)
C3 C -0.1331(1) 0.1419(1) 0.6114(3)
C4 C -0.0759(1) 0.1027(1) 0.5332(3)
C5 C 0.0103(1) 0.1197(1) 0.4472(3)
H1 H -0.189(1) -0.007(1) 0.596(5)
H2 H -0.281(2) 0.058(1) 0.742(4)
H3 H -0.117(2) 0.180(1) 0.601(5)
H4 H -0.049(2) 0.061(1) 0.038(6)
H5 H -0.116(2) 0.051(1) 0.118(4)
O1A O 0.0734(1) -0.0350(1) 0.0884(3)
H4A H 0.049(2) -0.061(1) 0.038(6)
H5A H 0.116(2) -0.051(1) 0.118(4)
O3A O -0.0587(1) -0.0801(1) 0.3875(2)
C5A C -0.0103(1) -0.1197(1) 0.4472(3)
O2A O -0.0265(1) -0.1710(1) 0.4433(2)
C4A C 0.0759(1) -0.1027(1) 0.5332(3)
N1A N 0.0959(1) -0.0474(1) 0.5288(5)
C1A C 0.1818(1) -0.0320(1) 0.6046(3)
C2A C 0.2276(1) -0.0718(1) 0.6838(3)
N2A N 0.2092(1) -0.1270(1) 0.6853(3)
C3A C 0.1331(1) -0.1419(1) 0.6114(3)
H3A H 0.117(2) -0.180(1) 0.601(5)
H2A H 0.281(2) -0.058(1) 0.742(4)
H1A H 0.189(1) 0.007(1) 0.596(5)
#END
