
#######################################################################
#
#                 Cambridge Crystallographic Data Centre
#                                CCDC
#
#######################################################################
#
# If this CIF has been generated from an entry in the Cambridge
# Structural Database, then it will include bibliographic, chemical,
# crystal, experimental, refinement or atomic coordinate data resulting
# from the CCDC's data processing and validation procedures.
#
#######################################################################

data_CSD_CIF_SEVXOG
_audit_creation_date 1991-01-24
_audit_creation_method CSD-ConQuest-V1
_database_code_CSD SEVXOG
_database_code_depnum_ccdc_archive 'CCDC 1258011'
_database_code_depnum_ccdc_fiz 'CSD 54395'
_chemical_formula_sum 'C36 H44 Fe1 O2 P2 S4'
_chemical_formula_moiety
;
C36 H44 Fe1 O2 P2 S4
;
_journal_coden_Cambridge 644
_journal_volume 45
_journal_year 1990
_journal_page_first 497
_journal_name_full 'Z.Naturforsch.,B:Chem.Sci. '
loop_
_publ_author_name
"K.Kirschbaum"
"K.Greiwe"
"K.Muller"
"H.Strasdeit"
"B.Krebs"
"G.Henkel"
_chemical_name_systematic
;
bis((Di-p-tolyl-dithiophosphinato-S,S')-(tetrahydrofuran-O))-iron(ii)
;
_cell_volume    913.912
_exptl_crystal_colour 'pale yellow'
_exptl_crystal_density_diffrn 1.37
_diffrn_ambient_temperature 140
_refine_special_details
;
C16 and C17 of the tetrahydrofuran are disordered over two sets of positions 
with occupancies of 0.72 (A) and 0.28 (B).
;
#These two values have been output from a single CSD field.
_refine_ls_R_factor_gt 0.029
_refine_ls_wR_factor_gt 0.029
_symmetry_cell_setting triclinic
_symmetry_space_group_name_H-M 'P -1'
_symmetry_Int_Tables_number 2
loop_
_symmetry_equiv_pos_site_id
_symmetry_equiv_pos_as_xyz
1 x,y,z
2 -x,-y,-z
_cell_length_a 6.921(2)
_cell_length_b 9.353(3)
_cell_length_c 14.436(4)
_cell_angle_alpha 83.56(3)
_cell_angle_beta 85.39(3)
_cell_angle_gamma 80.46(2)
_cell_formula_units_Z 1
loop_
_atom_type_symbol
_atom_type_radius_bond
C 0.68
H 0.23
Fe 1.34
O 0.68
P 1.05
S 1.02
loop_
_atom_site_label
_atom_site_type_symbol
_atom_site_fract_x
_atom_site_fract_y
_atom_site_fract_z
Fe1 Fe 0.00000 0.00000 0.00000
S1 S 0.17333(6) -0.04655(4) 0.15121(3)
S2 S -0.23867(6) 0.17002(4) 0.09798(3)
P1 P -0.05609(6) 0.09213(4) 0.19919(3)
O1 O 0.1517(2) 0.1808(1) -0.04700(8)
C1 C 0.0313(2) 0.2399(2) 0.2462(1)
C2 C -0.0860(3) 0.3235(2) 0.3096(1)
C3 C -0.0208(3) 0.4409(2) 0.3409(1)
C4 C 0.1610(3) 0.4790(2) 0.3091(1)
C5 C 0.2759(3) 0.3957(2) 0.2459(1)
C6 C 0.2135(3) 0.2775(2) 0.2145(1)
C7 C 0.2316(4) 0.6073(2) 0.3425(2)
C8 C -0.1858(2) 0.0022(2) 0.2968(1)
C9 C -0.3738(3) -0.0274(2) 0.2889(1)
C10 C -0.4670(3) -0.1051(2) 0.3617(1)
C11 C -0.3764(3) -0.1551(2) 0.4442(1)
C12 C -0.1885(3) -0.1242(2) 0.4522(1)
C13 C -0.0941(3) -0.0472(2) 0.3800(1)
C14 C -0.4791(3) -0.2395(2) 0.5225(1)
C15 C 0.3616(3) 0.1769(2) -0.0451(1)
C16 C 0.3955(5) 0.3342(4) -0.0618(3)
C17 C 0.2306(4) 0.4008(3) -0.1259(2)
C18 C 0.0619(3) 0.3238(2) -0.0858(2)
H1 H -0.200(3) 0.298(2) 0.329(1)
H2 H -0.107(3) 0.496(2) 0.383(1)
H3 H 0.398(3) 0.416(2) 0.223(1)
H4 H 0.290(3) 0.226(2) 0.173(1)
H5 H 0.171(4) 0.626(3) 0.406(2)
H6 H 0.204(4) 0.698(3) 0.299(2)
H7 H 0.377(4) 0.592(3) 0.346(2)
H8 H -0.435(3) -0.002(2) 0.234(1)
H9 H -0.596(3) -0.122(2) 0.354(1)
H10 H -0.124(3) -0.155(2) 0.508(1)
H11 H 0.038(3) -0.025(2) 0.384(1)
H12 H -0.448(4) -0.223(3) 0.579(2)
H13 H -0.454(5) -0.341(3) 0.517(2)
H14 H -0.618(5) -0.216(4) 0.520(2)
H15 H 0.405(3) 0.135(2) 0.014(1)
H16 H 0.428(3) 0.115(2) -0.088(2)
H17 H 0.377(3) 0.378(3) -0.010(2)
H18 H 0.525(4) 0.344(3) -0.088(2)
H19 H 0.196(4) 0.503(3) -0.127(2)
H20 H 0.261(5) 0.378(4) -0.181(2)
H21 H -0.013(4) 0.313(3) -0.134(2)
H22 H -0.034(5) 0.373(3) -0.041(2)
C19? C 0.404(2) 0.317(1) -0.0966(7)
C20? C 0.207(2) 0.419(1) -0.0821(8)
S1A S -0.17333(6) 0.04655(4) -0.15121(3)
S2A S 0.23867(6) -0.17002(4) -0.09798(3)
O1A O -0.1517(2) -0.1808(1) 0.04700(8)
P1A P 0.05609(6) -0.09213(4) -0.19919(3)
C15A C -0.3616(3) -0.1769(2) 0.0451(1)
C18A C -0.0619(3) -0.3238(2) 0.0858(2)
C1A C -0.0313(2) -0.2399(2) -0.2462(1)
C8A C 0.1858(2) -0.0022(2) -0.2968(1)
C16A C -0.3955(5) -0.3342(4) 0.0618(3)
H15A H -0.405(3) -0.135(2) -0.014(1)
H16A H -0.428(3) -0.115(2) 0.088(2)
C17A C -0.2306(4) -0.4008(3) 0.1259(2)
H21A H 0.013(4) -0.313(3) 0.134(2)
H22A H 0.034(5) -0.373(3) 0.041(2)
C2A C 0.0860(3) -0.3235(2) -0.3096(1)
C6A C -0.2135(3) -0.2775(2) -0.2145(1)
C9A C 0.3738(3) 0.0274(2) -0.2889(1)
C13A C 0.0941(3) 0.0472(2) -0.3800(1)
H17A H -0.377(3) -0.378(3) 0.010(2)
H18A H -0.525(4) -0.344(3) 0.088(2)
H19A H -0.196(4) -0.503(3) 0.127(2)
H20A H -0.261(5) -0.378(4) 0.181(2)
C3A C 0.0208(3) -0.4409(2) -0.3409(1)
H1A H 0.200(3) -0.298(2) -0.329(1)
C5A C -0.2759(3) -0.3957(2) -0.2459(1)
H4A H -0.290(3) -0.226(2) -0.173(1)
C10A C 0.4670(3) 0.1051(2) -0.3617(1)
H8A H 0.435(3) 0.002(2) -0.234(1)
C12A C 0.1885(3) 0.1242(2) -0.4522(1)
H11A H -0.038(3) 0.025(2) -0.384(1)
C4A C -0.1610(3) -0.4790(2) -0.3091(1)
H2A H 0.107(3) -0.496(2) -0.383(1)
H3A H -0.398(3) -0.416(2) -0.223(1)
C11A C 0.3764(3) 0.1551(2) -0.4442(1)
H9A H 0.596(3) 0.122(2) -0.354(1)
H10A H 0.124(3) 0.155(2) -0.508(1)
C7A C -0.2316(4) -0.6073(2) -0.3425(2)
C14A C 0.4791(3) 0.2395(2) -0.5225(1)
H5A H -0.171(4) -0.626(3) -0.406(2)
H6A H -0.204(4) -0.698(3) -0.299(2)
H7A H -0.377(4) -0.592(3) -0.346(2)
H12A H 0.448(4) 0.223(3) -0.579(2)
H13A H 0.454(5) 0.341(3) -0.517(2)
H14A H 0.618(5) 0.216(4) -0.520(2)
#END
