
#######################################################################
#
#                 Cambridge Crystallographic Data Centre
#                                CCDC
#
#######################################################################
#
# If this CIF has been generated from an entry in the Cambridge
# Structural Database, then it will include bibliographic, chemical,
# crystal, experimental, refinement or atomic coordinate data resulting
# from the CCDC's data processing and validation procedures.
#
#######################################################################

data_CSD_CIF_SEZVAU
_audit_creation_date 1991-02-22
_audit_creation_method CSD-ConQuest-V1
_database_code_CSD SEZVAU
_chemical_formula_sum 'C22 H26 Cr1 N4'
_chemical_formula_moiety
;
C22 H26 Cr1 N4
;
_journal_coden_Cambridge 9
_journal_volume 29
_journal_year 1990
_journal_page_first 2147
_journal_name_full 'Inorg.Chem. '
loop_
_publ_author_name
"J.J.H.Edema"
"S.Gambarotta"
"A.Meetsma"
"F.van Bolhuis"
"A.L.Spek"
"W.J.J.Smeets"
_chemical_name_systematic
;
Dipyridyl-bis(2,5-dimethylpyrrolyl)-chromium(ii)
;
_cell_volume    514.421
_exptl_crystal_colour 'purple'
_exptl_crystal_density_diffrn 1.286
_exptl_special_details
;
Air-sensitive

;
_diffrn_ambient_temperature 130
#These two values have been output from a single CSD field.
_refine_ls_R_factor_gt 0.035
_refine_ls_wR_factor_gt 0.035
_symmetry_cell_setting triclinic
_symmetry_space_group_name_H-M 'P -1'
_symmetry_Int_Tables_number 2
loop_
_symmetry_equiv_pos_site_id
_symmetry_equiv_pos_as_xyz
1 x,y,z
2 -x,-y,-z
_cell_length_a 6.986(2)
_cell_length_b 8.812(2)
_cell_length_c 9.018(3)
_cell_angle_alpha 87.09(2)
_cell_angle_beta 68.95(2)
_cell_angle_gamma 83.18(2)
_cell_formula_units_Z 1
loop_
_atom_type_symbol
_atom_type_radius_bond
C 0.68
H 0.23
Cr 1.35
N 0.68
loop_
_atom_site_label
_atom_site_type_symbol
_atom_site_fract_x
_atom_site_fract_y
_atom_site_fract_z
Cr1 Cr 0.00000 0.00000 0.00000
N1 N -0.2577(3) 0.1432(2) 0.1537(2)
N2 N 0.0091(3) 0.1508(1) -0.1805(2)
C1 C -0.3645(3) 0.2533(2) 0.0952(2)
C2 C -0.5319(3) 0.3467(2) 0.1921(3)
C3 C -0.5940(4) 0.3291(3) 0.3549(3)
C4 C -0.4851(4) 0.2175(3) 0.4168(3)
C5 C -0.3207(3) 0.1266(2) 0.3130(3)
C6 C 0.0724(3) 0.2943(2) -0.1901(2)
C7 C -0.0047(4) 0.3863(2) -0.2887(3)
C8 C -0.1195(4) 0.2964(3) -0.3439(3)
C9 C -0.1077(3) 0.1531(2) -0.2758(2)
C10 C 0.2026(4) 0.3304(3) -0.0987(3)
C11 C -0.2071(4) 0.0150(3) -0.2878(3)
H1 H -0.314(4) 0.264(3) -0.021(3)
H2 H -0.606(4) 0.427(3) 0.145(3)
H3 H -0.702(4) 0.388(3) 0.422(3)
H4 H -0.526(5) 0.208(3) 0.532(4)
H5 H -0.240(4) 0.046(3) 0.351(3)
H6 H 0.019(5) 0.491(3) -0.314(3)
H7 H -0.192(4) 0.327(3) -0.414(3)
H8 H 0.342(5) 0.262(4) -0.137(4)
H9 H 0.131(5) 0.305(4) 0.023(4)
H10 H 0.209(6) 0.435(4) -0.103(4)
H11 H -0.108(6) -0.074(4) -0.352(4)
H12 H -0.298(6) 0.033(4) -0.339(4)
H13 H -0.287(5) -0.023(4) -0.183(4)
N1A N 0.2577(3) -0.1432(2) -0.1537(2)
N2A N -0.0091(3) -0.1508(1) 0.1805(2)
C1A C 0.3645(3) -0.2533(2) -0.0952(2)
C5A C 0.3207(3) -0.1266(2) -0.3130(3)
C6A C -0.0724(3) -0.2943(2) 0.1901(2)
C9A C 0.1077(3) -0.1531(2) 0.2758(2)
C2A C 0.5319(3) -0.3467(2) -0.1921(3)
H1A H 0.314(4) -0.264(3) 0.021(3)
C4A C 0.4851(4) -0.2175(3) -0.4168(3)
H5A H 0.240(4) -0.046(3) -0.351(3)
C7A C 0.0047(4) -0.3863(2) 0.2887(3)
C10A C -0.2026(4) -0.3304(3) 0.0987(3)
C8A C 0.1195(4) -0.2964(3) 0.3439(3)
C11A C 0.2071(4) -0.0150(3) 0.2878(3)
C3A C 0.5940(4) -0.3291(3) -0.3549(3)
H2A H 0.606(4) -0.427(3) -0.145(3)
H4A H 0.526(5) -0.208(3) -0.532(4)
H6A H -0.019(5) -0.491(3) 0.314(3)
H8A H -0.342(5) -0.262(4) 0.137(4)
H9A H -0.131(5) -0.305(4) -0.023(4)
H10A H -0.209(6) -0.435(4) 0.103(4)
H7A H 0.192(4) -0.327(3) 0.414(3)
H11A H 0.108(6) 0.074(4) 0.352(4)
H12A H 0.298(6) -0.033(4) 0.339(4)
H13A H 0.287(5) 0.023(4) 0.183(4)
H3A H 0.702(4) -0.388(3) -0.422(3)
#END
