
#######################################################################
#
#                 Cambridge Crystallographic Data Centre
#                                CCDC
#
#######################################################################
#
# If this CIF has been generated from an entry in the Cambridge
# Structural Database, then it will include bibliographic, chemical,
# crystal, experimental, refinement or atomic coordinate data resulting
# from the CCDC's data processing and validation procedures.
#
#######################################################################

data_CSD_CIF_SIHTOT
_audit_creation_date 2007-12-12
_audit_creation_method CSD-ConQuest-V1
_database_code_CSD SIHTOT
_database_code_depnum_ccdc_archive 'CCDC 630149'
_chemical_formula_sum 'C9 H14 B1 Cr1 O5 P1'
_chemical_formula_moiety
;
C9 H14 B1 Cr1 O5 P1
;
_journal_coden_Cambridge 1220
_journal_volume 13
_journal_year 2007
_journal_page_first 6920
_journal_name_full 'Chem.-Eur.J. '
loop_
_publ_author_name
"Y.Kawano"
"K.Yamaguchi"
"S.Miyake"
"T.Kakizawa"
"M.Shimoi"
_chemical_name_systematic
;
Pentacarbonyl-(trimethylphosphine(methyl)borane-H)-chromium
;
_cell_volume    730.156
_exptl_crystal_colour 'yellow'
_exptl_crystal_density_diffrn 1.346
_exptl_crystal_description 'block'
_exptl_crystal_preparation 'hexane/toluene'
_diffrn_ambient_temperature 153
#These two values have been output from a single CSD field.
_refine_ls_R_factor_gt 0.0474
_refine_ls_wR_factor_gt 0.0474
_symmetry_cell_setting triclinic
_symmetry_space_group_name_H-M 'P -1'
_symmetry_Int_Tables_number 2
loop_
_symmetry_equiv_pos_site_id
_symmetry_equiv_pos_as_xyz
1 x,y,z
2 -x,-y,-z
_cell_length_a 7.109(4)
_cell_length_b 9.990(7)
_cell_length_c 11.024(6)
_cell_angle_alpha 86.04(2)
_cell_angle_beta 83.898(18)
_cell_angle_gamma 69.80(2)
_cell_formula_units_Z 2
loop_
_atom_type_symbol
_atom_type_radius_bond
C 0.68
H 0.23
B 0.83
Cr 1.35
O 0.68
P 1.05
loop_
_atom_site_label
_atom_site_type_symbol
_atom_site_fract_x
_atom_site_fract_y
_atom_site_fract_z
Cr1 Cr 1.03812(5) -0.33612(4) 0.75830(3)
P1 P 0.73458(8) 0.09365(6) 0.72608(5)
O1 O 1.4441(3) -0.3542(3) 0.6265(2)
O2 O 1.1953(4) -0.3414(3) 1.0052(2)
O3 O 0.6341(3) -0.3249(3) 0.8878(2)
O4 O 0.8674(4) -0.3294(3) 0.5154(2)
O5 O 1.1715(3) -0.6546(2) 0.7732(2)
C1 C 1.2929(4) -0.3453(3) 0.6761(3)
C2 C 1.1377(4) -0.3370(3) 0.9129(3)
C3 C 0.7840(4) -0.3269(3) 0.8393(2)
C4 C 0.9315(4) -0.3303(3) 0.6056(3)
C5 C 1.1198(4) -0.5322(3) 0.7666(3)
C6 C 1.1408(4) -0.0122(3) 0.8105(3)
H1 H 1.15940 0.07830 0.78360
H2 H 1.27200 -0.08870 0.80850
H3 H 1.07580 -0.00440 0.89390
C7 C 0.7357(5) 0.2722(3) 0.6909(3)
H4 H 0.80250 0.27630 0.60890
H5 H 0.80820 0.29850 0.75070
H6 H 0.59690 0.33880 0.69370
C8 C 0.5986(4) 0.0970(3) 0.8739(2)
H7 H 0.46270 0.16720 0.87180
H8 H 0.66910 0.12320 0.93500
H9 H 0.58990 0.00230 0.89540
C9 C 0.5843(4) 0.0594(4) 0.6187(2)
H10 H 0.45340 0.13620 0.62040
H11 H 0.56430 -0.03180 0.64070
H12 H 0.65330 0.05510 0.53650
B1 B 1.0020(4) -0.0479(3) 0.7212(3)
H13 H 0.947(4) -0.146(3) 0.760(3)
H14 H 1.060(5) -0.052(4) 0.627(3)
#END
