
#######################################################################
#
#                 Cambridge Crystallographic Data Centre
#                                CCDC
#
#######################################################################
#
# If this CIF has been generated from an entry in the Cambridge
# Structural Database, then it will include bibliographic, chemical,
# crystal, experimental, refinement or atomic coordinate data resulting
# from the CCDC's data processing and validation procedures.
#
#######################################################################

data_CSD_CIF_SILLAD
_audit_creation_date 2018-08-15
_audit_creation_method CSD-ConQuest-V1
_database_code_CSD SILLAD
_database_code_depnum_ccdc_archive 'CCDC 1841248'
_chemical_formula_sum 'C28 H42 I3 Mn1 N4 O6'
_chemical_formula_moiety
;
C28 H42 Mn1 N4 O6 1+,I3 1-
;
_journal_coden_Cambridge 440
_journal_volume 42
_journal_year 2018
_journal_page_first 14933
_journal_name_full 'New J.Chem. '
loop_
_publ_author_name
"T.Chakraborty"
"S.Dasgupta"
"Ennio Zangrando"
"D.Das"
_chemical_name_systematic
;
bis(methanol)-bis(2-({[2-(morpholin-4-yl)ethyl]imino}methyl)phenolato)-mangane
se(iii) triiodide
;
_cell_volume    878.719
_exptl_crystal_colour 'brown'
_exptl_crystal_density_diffrn 1.826
_exptl_crystal_description 'needle'
_diffrn_ambient_temperature 268
#These two values have been output from a single CSD field.
_refine_ls_R_factor_gt 0.0584
_refine_ls_wR_factor_gt 0.0584
_symmetry_cell_setting triclinic
_symmetry_space_group_name_H-M 'P -1'
_symmetry_Int_Tables_number 2
loop_
_symmetry_equiv_pos_site_id
_symmetry_equiv_pos_as_xyz
1 x,y,z
2 -x,-y,-z
_cell_length_a 9.487(1)
_cell_length_b 10.508(2)
_cell_length_c 10.717(1)
_cell_angle_alpha 89.830(5)
_cell_angle_beta 69.668(4)
_cell_angle_gamma 63.170(4)
_cell_formula_units_Z 1
loop_
_atom_type_symbol
_atom_type_radius_bond
C 0.68
H 0.23
I 1.40
Mn 1.61
N 0.68
O 0.68
loop_
_atom_site_label
_atom_site_type_symbol
_atom_site_fract_x
_atom_site_fract_y
_atom_site_fract_z
Mn1 Mn 0.50000 1.00000 0.50000
N1 N 0.5954(5) 0.8015(4) 0.3890(4)
N2 N 0.7003(5) 0.4680(4) 0.5515(4)
O1 O 0.4184(5) 1.0896(4) 0.3710(3)
O2 O 0.9764(5) 0.2235(4) 0.5781(4)
H1 H 0.835(10) 0.930(9) 0.402(9)
O3 O 0.7548(5) 0.9917(4) 0.3872(4)
C1 C 0.3865(6) 1.0401(5) 0.2761(4)
C2 C 0.2896(7) 1.1389(6) 0.2132(5)
H2 H 0.24910 1.23760 0.23840
C3 C 0.2530(8) 1.0925(7) 0.1142(6)
H3 H 0.18700 1.15990 0.07400
C4 C 0.3136(9) 0.9464(8) 0.0743(6)
H4 H 0.28760 0.91560 0.00810
C5 C 0.4119(8) 0.8474(7) 0.1324(5)
H5 H 0.45470 0.74890 0.10370
C6 C 0.4493(6) 0.8921(6) 0.2351(5)
C7 C 0.5561(6) 0.7817(5) 0.2898(5)
H6 H 0.60150 0.68610 0.24940
C8 C 0.7112(6) 0.6676(5) 0.4221(5)
H7 H 0.77070 0.68970 0.46890
H8 H 0.79600 0.59830 0.33960
C9 C 0.6059(6) 0.6029(5) 0.5120(5)
H9 H 0.52240 0.67420 0.59360
H10 H 0.54290 0.58680 0.46490
C10 C 0.8271(7) 0.3495(5) 0.4380(5)
H11 H 0.91880 0.37010 0.38690
H12 H 0.77430 0.33980 0.37820
C11 C 0.8994(7) 0.2096(6) 0.4898(6)
H13 H 0.80840 0.18720 0.53800
H14 H 0.98420 0.13070 0.41420
C12 C 0.8523(8) 0.3402(7) 0.6912(6)
H15 H 0.90690 0.34880 0.74990
H16 H 0.76170 0.31870 0.74310
C13 C 0.7766(7) 0.4810(6) 0.6442(5)
H17 H 0.68980 0.55720 0.72150
H18 H 0.86530 0.50690 0.59890
C14 C 0.8178(9) 1.0031(9) 0.2487(7)
H19 H 0.84210 0.91870 0.19270
H20 H 0.92080 1.01010 0.22720
H21 H 0.73310 1.08820 0.23260
I1 I 0.23629(7) 0.61966(5) 0.92328(4)
I2 I 0.00000 0.50000 1.00000
N1A N 0.4046(5) 1.1985(4) 0.6110(4)
N2A N 0.2997(5) 1.5320(4) 0.4485(4)
O1A O 0.5816(5) 0.9104(4) 0.6290(3)
O2A O 0.0236(5) 1.7765(4) 0.4219(4)
H1A H 0.165(10) 1.070(9) 0.598(9)
O3A O 0.2452(5) 1.0083(4) 0.6128(4)
C1A C 0.6135(6) 0.9599(5) 0.7239(4)
C2A C 0.7104(7) 0.8611(6) 0.7868(5)
H2A H 0.75090 0.76240 0.76160
C3A C 0.7470(8) 0.9075(7) 0.8858(6)
H3A H 0.81300 0.84010 0.92600
C4A C 0.6864(9) 1.0536(8) 0.9257(6)
H4A H 0.71240 1.08440 0.99190
C5A C 0.5881(8) 1.1526(7) 0.8676(5)
H5A H 0.54530 1.25110 0.89630
C6A C 0.5507(6) 1.1079(6) 0.7649(5)
C7A C 0.4439(6) 1.2183(5) 0.7102(5)
H6A H 0.39850 1.31390 0.75060
C8A C 0.2888(6) 1.3324(5) 0.5779(5)
H7A H 0.22930 1.31030 0.53110
H8A H 0.20400 1.40170 0.66040
C9A C 0.3941(6) 1.3971(5) 0.4880(5)
H9A H 0.47760 1.32580 0.40640
H10A H 0.45710 1.41320 0.53510
C10A C 0.1729(7) 1.6505(5) 0.5620(5)
H11A H 0.08120 1.62990 0.61310
H12A H 0.22570 1.66020 0.62180
C11A C 0.1006(7) 1.7904(6) 0.5102(6)
H13A H 0.19160 1.81280 0.46200
H14A H 0.01580 1.86930 0.58580
C12A C 0.1477(8) 1.6598(7) 0.3088(6)
H15A H 0.09310 1.65120 0.25010
H16A H 0.23830 1.68130 0.25690
C13A C 0.2234(7) 1.5190(6) 0.3558(5)
H17A H 0.31020 1.44280 0.27850
H18A H 0.13470 1.49310 0.40110
C14A C 0.1822(9) 0.9969(9) 0.7513(7)
H19A H 0.15790 1.08130 0.80730
H20A H 0.07920 0.98990 0.77280
H21A H 0.26690 0.91180 0.76740
I1A I -0.23629(7) 0.38034(5) 1.07672(4)
#END
