
#######################################################################
#
#                 Cambridge Crystallographic Data Centre
#                                CCDC
#
#######################################################################
#
# If this CIF has been generated from an entry in the Cambridge
# Structural Database, then it will include bibliographic, chemical,
# crystal, experimental, refinement or atomic coordinate data resulting
# from the CCDC's data processing and validation procedures.
#
#######################################################################

data_CSD_CIF_SINCRA
_audit_creation_date 1980-12-11
_audit_creation_method CSD-ConQuest-V1
_database_code_CSD SINCRA
_chemical_formula_sum 'C11 H18 Cr1 O5 P4 Si3'
_chemical_formula_moiety
;
C11 H18 Cr1 O5 P4 Si3
;
_journal_coden_Cambridge 29
_journal_volume 465
_journal_year 1980
_journal_page_first 72
_journal_name_full 'Z.Anorg.Allg.Chem. '
loop_
_publ_author_name
"W.Honle"
"H.G.von Schnering"
_chemical_name_systematic
;
Hexamethyl-trisila-tetraphospha-nortricyclene-pentacarbonyl-chromium
;
_cell_volume   1098.970
_exptl_crystal_colour 'yellow'
_exptl_crystal_density_diffrn 1.482
_exptl_special_details
;
Bonds involving H atoms all differ from published values. No H- bond lengths 
retained
;
_diffrn_ambient_temperature ?
_diffrn_special_details
;
The study was carried out at room temperature,in the range 283-303K

;
#These two values have been output from a single CSD field.
_refine_ls_R_factor_gt 0.032
_refine_ls_wR_factor_gt 0.032
_symmetry_cell_setting triclinic
_symmetry_space_group_name_H-M 'P -1'
_symmetry_Int_Tables_number 2
loop_
_symmetry_equiv_pos_site_id
_symmetry_equiv_pos_as_xyz
1 x,y,z
2 -x,-y,-z
_cell_length_a 9.924(1)
_cell_length_b 13.017(2)
_cell_length_c 8.957(2)
_cell_angle_alpha 91.15(1)
_cell_angle_beta 105.65(1)
_cell_angle_gamma 98.74(1)
_cell_formula_units_Z 2
loop_
_atom_type_symbol
_atom_type_radius_bond
C 0.68
H 0.23
Cr 1.35
O 0.68
P 1.05
Si 1.20
loop_
_atom_site_label
_atom_site_type_symbol
_atom_site_fract_x
_atom_site_fract_y
_atom_site_fract_z
Cr1 Cr -0.21833 0.30794 0.19117
P1 P 0.36460 0.20971 0.34470
P2 P 0.00044 0.24158 0.28350
P3 P 0.00690 0.07754 0.33280
P4 P 0.07230 0.20024 0.52500
Si1 Si 0.19780 0.29331 0.20080
Si2 Si 0.22110 0.05446 0.29920
Si3 Si 0.31230 0.24465 0.56790
C1 C 0.24600 0.43830 0.22600
C2 C 0.15370 0.25460 -0.01170
C3 C 0.20020 -0.00390 0.10090
C4 C 0.28780 -0.04370 0.43730
C5 C 0.40490 0.16970 0.72840
C6 C 0.36200 0.38500 0.63380
C7 C -0.11670 0.44550 0.22380
C8 C -0.23800 0.32100 0.39660
C9 C -0.32660 0.17130 0.16380
C10 C -0.38570 0.35940 0.11450
C11 C -0.20490 0.29700 -0.01520
O1 O -0.06190 0.53010 0.24210
O2 O -0.25450 0.33120 0.51630
O3 O -0.39530 0.09150 0.14380
O4 O -0.48980 0.39080 0.06460
O5 O -0.20180 0.29100 -0.14080
H1 H 0.31200 0.44900 0.17400
H2 H 0.27300 0.46000 0.32600
H3 H 0.14500 0.44700 0.12600
H4 H 0.10300 0.30700 -0.04800
H5 H 0.11200 0.18600 -0.04400
H6 H 0.23600 0.28000 -0.04800
H7 H 0.28000 0.00100 0.08800
H8 H 0.16700 0.04000 0.02000
H9 H 0.14800 -0.06900 0.08000
H10 H 0.24400 -0.09600 0.40400
H11 H 0.28000 -0.03000 0.54300
H12 H 0.38000 -0.05300 0.43200
H13 H 0.48500 0.16800 0.71000
H14 H 0.35300 0.09600 0.73700
H15 H 0.41200 0.20000 0.81800
H16 H 0.40400 0.40100 0.74800
H17 H 0.31600 0.42700 0.60800
H18 H 0.42800 0.42300 0.57500
#END
