
#######################################################################
#
#                 Cambridge Crystallographic Data Centre
#                                CCDC
#
#######################################################################
#
# If this CIF has been generated from an entry in the Cambridge
# Structural Database, then it will include bibliographic, chemical,
# crystal, experimental, refinement or atomic coordinate data resulting
# from the CCDC's data processing and validation procedures.
#
#######################################################################

data_CSD_CIF_SINQUB
_audit_creation_date 1999-02-18
_audit_creation_method CSD-ConQuest-V1
_database_code_CSD SINQUB
_chemical_formula_sum 'C6 H27 Co1 Ga2 N6 O16 P4'
_chemical_formula_moiety
;
(H3 Ga2 O16 P4)n,n(C6 H24 Co1 N6)
;
_journal_coden_Cambridge 1096
_journal_volume 9
_journal_year 1997
_journal_page_first 2168
_journal_name_full 'Chem.Mater. '
loop_
_publ_author_name
"S.M.Stalder"
"A.P.Wilkinson"
_chemical_name_systematic
;
catena-(d-tris(Ethylenediamine)-cobalt tris(\m~2~-hydrogen 
phosphato)-(\m~2~-phosphato)-di-gallium)
;
_cell_volume   1198.816
_exptl_crystal_density_diffrn 2.109
_diffrn_ambient_temperature ?
_diffrn_special_details
;
The study was carried out at room temperature,in the range 283-303K

;
#These two values have been output from a single CSD field.
_refine_ls_R_factor_gt 0.032
_refine_ls_wR_factor_gt 0.032
_symmetry_cell_setting monoclinic
_symmetry_space_group_name_H-M 'I 2'
_symmetry_Int_Tables_number 5
loop_
_symmetry_equiv_pos_site_id
_symmetry_equiv_pos_as_xyz
1 x,y,z
2 -x,y,-z
3 1/2+x,1/2+y,1/2+z
4 1/2-x,1/2+y,1/2-z
_cell_length_a 9.580(2)
_cell_length_b 12.6789(5)
_cell_length_c 9.9631(6)
_cell_angle_alpha 90
_cell_angle_beta 97.85(2)
_cell_angle_gamma 90
_cell_formula_units_Z 2
loop_
_atom_type_symbol
_atom_type_radius_bond
C 0.68
H 0.23
Co 1.33
Ga 1.22
N 0.68
O 0.68
P 1.05
loop_
_atom_site_label
_atom_site_type_symbol
_atom_site_fract_x
_atom_site_fract_y
_atom_site_fract_z
Ga1 Ga 0.00000 -0.3073(1) -0.50000
Ga2 Ga 0.00000 -0.5344(1) -1.00000
P1 P -0.0152(1) -0.3711(1) -0.79470
P2 P -0.2965(1) -0.2204(1) -0.4738(1)
O1 O 0.0029(4) -0.3978(3) -0.6407(3)
O2 O -0.1494(4) -0.2218(4) -0.5225(4)
O3 O 0.0740(3) -0.4555(3) -0.8541(3)
O4 O -0.3642(4) -0.1213(4) -0.5457(4)
O5 O -0.1637(4) -0.3730(4) -0.8602(4)
O6 O 0.0503(5) -0.2603(3) -0.8105(4)
O7 O -0.2877(4) -0.2121(4) -0.3218(4)
O8 O -0.3787(5) -0.3184(4) -0.5305(5)
Co1 Co -0.50000 -0.2204(1) 1.00000
N1 N -0.6374(5) -0.2120(4) 0.8350(4)
N2 N -0.3800(4) -0.1158(4) 0.9248(4)
N3 N -0.3954(5) -0.3355(4) 0.9220(5)
C1 C -0.7270(5) -0.1166(5) 0.8394(5)
C2 C -0.2411(6) -0.1065(5) 1.0170(5)
C3 C -0.4728(8) -0.4354(7) 0.9328(7)
H1 H -0.5919(5) -0.2091(4) 0.7618(4)
H2 H -0.6920(5) -0.2701(4) 0.8280(4)
H3 H -0.3644(4) -0.1359(4) 0.8415(4)
H4 H -0.4237(4) -0.0528(4) 0.9177(4)
H5 H -0.3884(5) -0.3216(4) 0.8346(5)
H6 H -0.3078(5) -0.3408(4) 0.9676(5)
H7 H -0.8137(5) -0.1242(5) 0.7772(5)
H8 H -0.6776(5) -0.0546(5) 0.8139(5)
H9 H -0.1771(6) -0.1618(5) 0.9971(5)
H10 H -0.1976(6) -0.0388(5) 1.0042(5)
H11 H -0.4106(8) -0.4950(7) 0.9268(7)
H12 H -0.5506(8) -0.4405(7) 0.8597(7)
O1A O -0.0029(4) -0.3978(3) -0.3593(3)
O2A O 0.1494(4) -0.2218(4) -0.4775(4)
O3A O -0.0740(3) -0.4555(3) -1.1459(3)
O4B O 0.1358(4) -0.6213(4) -1.0457(4)
O4C O -0.1358(4) -0.6213(4) -0.9543(4)
Ga2B Ga -0.50000 -0.0344(1) -0.50000
N1A N -0.3626(5) -0.2120(4) 1.1650(4)
N2A N -0.6200(4) -0.1158(4) 1.0752(4)
N3A N -0.6046(5) -0.3355(4) 1.0780(5)
C2A C -0.7589(6) -0.1065(5) 0.9830(5)
C1A C -0.2730(5) -0.1166(5) 1.1606(5)
C3A C -0.5272(8) -0.4354(7) 1.0672(7)
P1A P 0.0152(1) -0.3711(1) -0.20530
P1A* P 0.0152(1) -0.3711(1) -1.20530
H1A H -0.4081(5) -0.2091(4) 1.2382(4)
H2A H -0.3080(5) -0.2701(4) 1.1720(4)
H3A H -0.6356(4) -0.1359(4) 1.1585(4)
H4A H -0.5763(4) -0.0528(4) 1.0823(4)
H5A H -0.6116(5) -0.3216(4) 1.1654(5)
H6A H -0.6922(5) -0.3408(4) 1.0324(5)
H9A H -0.8229(6) -0.1618(5) 1.0029(5)
H10A H -0.8024(6) -0.0388(5) 0.9958(5)
H7A H -0.1863(5) -0.1242(5) 1.2228(5)
H8A H -0.3224(5) -0.0546(5) 1.1861(5)
H11A H -0.5894(8) -0.4950(7) 1.0732(7)
H12A H -0.4494(8) -0.4405(7) 1.1403(7)
O3A* O -0.0740(3) -0.4555(3) -0.1459(3)
O5A O 0.1637(4) -0.3730(4) -0.1398(4)
O6A O -0.0503(5) -0.2603(3) -0.1895(4)
O1A* O -0.0029(4) -0.3978(3) -1.3593(3)
O5A* O 0.1637(4) -0.3730(4) -1.1398(4)
O6A* O -0.0503(5) -0.2603(3) -1.1895(4)
Ga2* Ga 0.00000 -0.5344(1) 0.00000
Ga1* Ga 0.00000 -0.3073(1) -1.50000
#END
