
#######################################################################
#
#                 Cambridge Crystallographic Data Centre
#                                CCDC
#
#######################################################################
#
# If this CIF has been generated from an entry in the Cambridge
# Structural Database, then it will include bibliographic, chemical,
# crystal, experimental, refinement or atomic coordinate data resulting
# from the CCDC's data processing and validation procedures.
#
#######################################################################

data_CSD_CIF_SIWPAQ
_audit_creation_date 2008-06-19
_audit_creation_method CSD-ConQuest-V1
_database_code_CSD SIWPAQ
_database_code_depnum_ccdc_archive 'CCDC 658325'
_chemical_formula_sum 'C12 H40 Cl2 Mn1 N8 O16'
_chemical_formula_moiety
;
H12 Mn1 O6 2+,2(Cl1 O4 1-),2(C6 H12 N4),2(H2 O1)
;
_journal_coden_Cambridge 1277
_journal_volume 111
_journal_year 2007
_journal_page_first 12972
_journal_name_full 'J.Phys.Chem.A '
loop_
_publ_author_name
"G.Singh"
"B.P.Baranwal"
"I.P.S.Kapoor"
"D.Kumar"
"R.Frohlich"
_chemical_name_systematic
;
Hexa-aqua-manganese(ii) diperchlorate bis(hexamethylenetetramine) dihydrate
;
_cell_volume    711.780
_exptl_crystal_colour 'colorless'
_exptl_crystal_density_diffrn 1.583
_exptl_crystal_description 'block'
_diffrn_ambient_temperature 198
#These two values have been output from a single CSD field.
_refine_ls_R_factor_gt 0.0485
_refine_ls_wR_factor_gt 0.0485
_symmetry_cell_setting triclinic
_symmetry_space_group_name_H-M 'P -1'
_symmetry_Int_Tables_number 2
loop_
_symmetry_equiv_pos_site_id
_symmetry_equiv_pos_as_xyz
1 x,y,z
2 -x,-y,-z
_cell_length_a 8.3050(2)
_cell_length_b 9.1845(2)
_cell_length_c 10.7325(2)
_cell_angle_alpha 93.921(1)
_cell_angle_beta 104.338(1)
_cell_angle_gamma 113.913(1)
_cell_formula_units_Z 1
loop_
_atom_type_symbol
_atom_type_radius_bond
C 0.68
H 0.23
Cl 0.99
Mn 1.35
N 0.68
O 0.68
loop_
_atom_site_label
_atom_site_type_symbol
_atom_site_fract_x
_atom_site_fract_y
_atom_site_fract_z
Mn1 Mn 0.00000 0.00000 0.00000
O1 O 0.0683(3) -0.0593(2) 0.19211(18)
H1 H 0.141(6) -0.092(5) 0.208(4)
H2 H 0.092(6) 0.009(5) 0.257(4)
O2 O -0.0139(3) 0.2137(2) 0.09217(18)
H3 H -0.082(6) 0.210(5) 0.133(4)
H4 H 0.084(6) 0.296(5) 0.134(4)
O3 O 0.2907(3) 0.1446(2) 0.0318(2)
H5 H 0.352(5) 0.196(5) -0.023(4)
H6 H 0.361(5) 0.167(4) 0.101(4)
Cl1 Cl 0.72250(8) 0.31245(7) 0.30820(6)
O4 O 0.5305(3) 0.2244(3) 0.2991(2)
O5 O 0.8032(4) 0.4581(4) 0.3988(3)
O6 O 0.7333(5) 0.3486(7) 0.1852(3)
O7 O 0.8154(4) 0.2192(4) 0.3469(6)
N1 N 0.5456(3) -0.2740(3) 0.37405(19)
C1 C 0.4434(4) -0.1745(3) 0.3689(2)
H7 H 0.53230 -0.05830 0.39250
H8 H 0.37470 -0.19790 0.43400
N2 N 0.3124(3) -0.2068(2) 0.2373(2)
C2 C 0.4187(3) -0.1709(3) 0.1427(2)
H9 H 0.50690 -0.05460 0.16480
H10 H 0.33310 -0.19220 0.05380
N3 N 0.5213(3) -0.2698(2) 0.14276(19)
C3 C 0.3884(4) -0.4426(3) 0.1118(2)
H11 H 0.45610 -0.51010 0.11340
H12 H 0.30290 -0.46780 0.02230
N4 N 0.2804(3) -0.4846(2) 0.2052(2)
C4 C 0.4110(4) -0.4461(3) 0.3381(2)
H13 H 0.34090 -0.47170 0.40240
H14 H 0.47760 -0.51460 0.34160
C5 C 0.6471(3) -0.2369(3) 0.2766(2)
H15 H 0.71610 -0.30340 0.27860
H16 H 0.73780 -0.12130 0.29990
C6 C 0.1833(3) -0.3810(3) 0.2034(3)
H17 H 0.11140 -0.40720 0.26660
H18 H 0.09530 -0.40460 0.11510
O8 O 0.8532(4) -0.1731(4) 0.6046(3)
H19 H 0.925(7) -0.201(6) 0.596(5)
H20 H 0.767(7) -0.201(5) 0.543(5)
O1A O -0.0683(3) 0.0593(2) -0.19211(18)
H1A H -0.141(6) 0.092(5) -0.208(4)
H2A H -0.092(6) -0.009(5) -0.257(4)
O2A O 0.0139(3) -0.2137(2) -0.09217(18)
H3A H 0.082(6) -0.210(5) -0.133(4)
H4A H -0.084(6) -0.296(5) -0.134(4)
O3A O -0.2907(3) -0.1446(2) -0.0318(2)
H5A H -0.352(5) -0.196(5) 0.023(4)
H6A H -0.361(5) -0.167(4) -0.101(4)
#END
