
#######################################################################
#
#                 Cambridge Crystallographic Data Centre
#                                CCDC
#
#######################################################################
#
# If this CIF has been generated from an entry in the Cambridge
# Structural Database, then it will include bibliographic, chemical,
# crystal, experimental, refinement or atomic coordinate data resulting
# from the CCDC's data processing and validation procedures.
#
#######################################################################

data_CSD_CIF_SIWSAS
_audit_creation_date 1999-02-18
_audit_creation_method CSD-ConQuest-V1
_database_code_CSD SIWSAS
_database_code_depnum_ccdc_archive 'CCDC 109602'
_database_code_depnum_ccdc_fiz 'CSD 408319'
_chemical_formula_sum 'C16 H13 Fe1 O2 P1'
_chemical_formula_moiety
;
C16 H13 Fe1 O2 P1
;
_journal_coden_Cambridge 36
_journal_volume 555
_journal_year 1998
_journal_page_first 187
_journal_name_full 'J.Organomet.Chem. '
loop_
_publ_author_name
"M.Herberhold"
"A.Hofmann"
"W.Milius"
_chemical_name_systematic
;
2-Phenyl-1,3-dioxa-2-phospha(3)ferrocenophane
;
_chemical_melting_point 401.15
_cell_volume    659.829
_exptl_crystal_colour 'orange'
_exptl_special_details
;
air- and moisture-sensitive

;
_exptl_crystal_description 'irregular'
_diffrn_ambient_temperature ?
_diffrn_special_details
;
The study was carried out at room temperature,in the range 283-303K

;
#These two values have been output from a single CSD field.
_refine_ls_R_factor_gt 0.0256
_refine_ls_wR_factor_gt 0.0256
_symmetry_cell_setting triclinic
_symmetry_space_group_name_H-M 'P -1'
_symmetry_Int_Tables_number 2
loop_
_symmetry_equiv_pos_site_id
_symmetry_equiv_pos_as_xyz
1 x,y,z
2 -x,-y,-z
_cell_length_a 7.576(2)
_cell_length_b 9.763(2)
_cell_length_c 9.881(2)
_cell_angle_alpha 96.52(3)
_cell_angle_beta 97.13(3)
_cell_angle_gamma 112.45(3)
_cell_formula_units_Z 2
loop_
_atom_type_symbol
_atom_type_radius_bond
C 0.68
H 0.23
Fe 1.34
O 0.68
P 1.05
loop_
_atom_site_label
_atom_site_type_symbol
_atom_site_fract_x
_atom_site_fract_y
_atom_site_fract_z
Fe1 Fe 0.19354(3) 0.75249(3) 0.25897(2)
P1 P 0.42445(6) 0.65169(5) 0.51446(4)
O1 O 0.29105(16) 0.74565(14) 0.56018(11)
O2 O 0.56052(16) 0.76209(15) 0.41792(12)
C1 C 0.14779(22) 0.73960(19) 0.45346(16)
C2 C 0.13108(24) 0.87112(21) 0.41625(17)
H1 H 0.20761(24) 0.97315(21) 0.46148(17)
C3 C -0.02362(25) 0.82129(23) 0.29973(19)
H2 H -0.06639(25) 0.88511(23) 0.24974(19)
C4 C -0.09833(24) 0.66308(23) 0.26655(19)
H3 H -0.20070(24) 0.60141(23) 0.19076(19)
C5 C 0.00671(23) 0.61037(21) 0.36245(18)
H4 H -0.01436(23) 0.50743(21) 0.36536(18)
C6 C 0.46417(23) 0.75898(20) 0.28730(16)
C7 C 0.46644(23) 0.89212(21) 0.24060(18)
H5 H 0.53890(23) 0.99371(21) 0.28841(18)
C8 C 0.34139(25) 0.84500(23) 0.10860(18)
H6 H 0.31125(25) 0.91011(23) 0.05261(18)
C9 C 0.26428(26) 0.68629(23) 0.07604(17)
H7 H 0.17324(26) 0.62562(23) -0.00583(17)
C10 C 0.34119(26) 0.63132(21) 0.18663(18)
H8 H 0.31466(26) 0.52795(21) 0.19199(18)
C11 C 0.60510(22) 0.72172(18) 0.67272(16)
C12 C 0.54957(25) 0.73069(22) 0.80077(18)
H9 H 0.41623(25) 0.70959(22) 0.80590(18)
C13 C 0.68655(28) 0.77104(25) 0.92198(18)
H10 H 0.64729(28) 0.77652(25) 1.01045(18)
C14 C 0.87755(28) 0.80212(24) 0.91516(20)
H11 H 0.97192(28) 0.83080(24) 0.99888(20)
C15 C 0.93437(26) 0.79292(24) 0.78778(21)
H12 H 1.06793(26) 0.81407(24) 0.78340(21)
C16 C 0.79907(25) 0.75235(22) 0.66660(18)
H13 H 0.83867(25) 0.74550(22) 0.57837(18)
#END
