
#######################################################################
#
#                 Cambridge Crystallographic Data Centre
#                                CCDC
#
#######################################################################
#
# If this CIF has been generated from an entry in the Cambridge
# Structural Database, then it will include bibliographic, chemical,
# crystal, experimental, refinement or atomic coordinate data resulting
# from the CCDC's data processing and validation procedures.
#
#######################################################################

data_CSD_CIF_SIWVAV
_audit_creation_date 1991-11-25
_audit_creation_method CSD-ConQuest-V1
_database_code_CSD SIWVAV
_database_code_depnum_ccdc_archive 'CCDC 1260346'
_chemical_formula_sum 'C10 H10 Cl2 Fe1 N2 S2'
_chemical_formula_moiety
;
C10 H10 Cl2 Fe1 N2 S2
;
_journal_coden_Cambridge 582
_journal_volume 21
_journal_year 1991
_journal_page_first 9
_journal_name_full 'J.Crystallogr.Spectrosc.Res. '
loop_
_publ_author_name
"D.C.Povey"
"G.W.Smith"
"T.S.Lobana"
"P.K.Bhatia"
_chemical_name_systematic
;
Dichloro-bis(2(1H)-pyridinethione-S)-iron(ii)
;
_cell_volume   1382.820
_exptl_crystal_colour 'yellow'
_exptl_crystal_density_diffrn 1.677
_diffrn_ambient_temperature ?
_diffrn_special_details
;
The study was carried out at room temperature,in the range 283-303K

;
#These two values have been output from a single CSD field.
_refine_ls_R_factor_gt 0.049
_refine_ls_wR_factor_gt 0.049
_symmetry_cell_setting monoclinic
_symmetry_space_group_name_H-M 'C 2/c'
_symmetry_Int_Tables_number 15
loop_
_symmetry_equiv_pos_site_id
_symmetry_equiv_pos_as_xyz
1 x,y,z
2 1/2+x,1/2+y,z
3 -x,y,1/2-z
4 1/2-x,1/2+y,1/2-z
5 -x,-y,-z
6 -1/2-x,-1/2-y,-z
7 x,-y,-1/2+z
8 -1/2+x,-1/2-y,-1/2+z
_cell_length_a 9.394(4)
_cell_length_b 11.418(6)
_cell_length_c 13.649(2)
_cell_angle_alpha 90
_cell_angle_beta 109.17(2)
_cell_angle_gamma 90
_cell_formula_units_Z 4
loop_
_atom_type_symbol
_atom_type_radius_bond
C 0.68
H 0.23
Cl 0.99
Fe 1.34
N 0.68
S 1.02
loop_
_atom_site_label
_atom_site_type_symbol
_atom_site_fract_x
_atom_site_fract_y
_atom_site_fract_z
Fe1 Fe 0.00000 0.30760(7) 0.25000
Cl1 Cl 0.1172(1) 0.4141(1) 0.39633(9)
S1 S 0.1664(1) 0.17391(9) 0.21475(8)
N1 N 0.3734(4) 0.1910(3) 0.1247(3)
C1 C 0.2815(4) 0.2532(4) 0.1638(3)
C2 C 0.2901(5) 0.3740(4) 0.1591(3)
C3 C 0.3881(5) 0.4252(4) 0.1166(4)
C4 C 0.4818(5) 0.3583(5) 0.0790(3)
C5 C 0.4714(5) 0.2410(6) 0.0832(3)
H1 H 0.372(5) 0.116(4) 0.133(4)
H2 H 0.22500 0.42430 0.18730
H3 H 0.39140 0.51360 0.11230
H4 H 0.55480 0.39640 0.04940
H5 H 0.53680 0.19060 0.05400
Cl1B Cl -0.1172(1) 0.4141(1) 0.10367(9)
S1B S -0.1664(1) 0.17391(9) 0.28525(8)
C1B C -0.2815(4) 0.2532(4) 0.3362(3)
N1B N -0.3734(4) 0.1910(3) 0.3753(3)
C2B C -0.2901(5) 0.3740(4) 0.3409(3)
C5B C -0.4714(5) 0.2410(6) 0.4168(3)
H1B H -0.372(5) 0.116(4) 0.367(4)
C3B C -0.3881(5) 0.4252(4) 0.3834(4)
H2B H -0.22500 0.42430 0.31270
C4B C -0.4818(5) 0.3583(5) 0.4210(3)
H5B H -0.53680 0.19060 0.44600
H3B H -0.39140 0.51360 0.38770
H4B H -0.55480 0.39640 0.45060
#END
