
#######################################################################
#
#                 Cambridge Crystallographic Data Centre
#                                CCDC
#
#######################################################################
#
# If this CIF has been generated from an entry in the Cambridge
# Structural Database, then it will include bibliographic, chemical,
# crystal, experimental, refinement or atomic coordinate data resulting
# from the CCDC's data processing and validation procedures.
#
#######################################################################

data_CSD_CIF_SOBQUW
_audit_creation_date 2008-10-28
_audit_creation_method CSD-ConQuest-V1
_database_code_CSD SOBQUW
_database_code_depnum_ccdc_archive 'CCDC 294654'
_chemical_formula_sum 'C14 H12 Mn1 N6 O6'
_chemical_formula_moiety
;
C14 H12 Mn1 N6 O6
;
_journal_coden_Cambridge 211
_journal_volume 61
_journal_year 2008
_journal_page_first 1606
_journal_name_full 'J.Coord.Chem. '
loop_
_publ_author_name
"Rui-Feng Zhang"
"Wei Shi"
"Hong-Sheng Wang"
"Peng Cheng"
_chemical_name_systematic
;
Diaqua-bis(pyridine-2,3-dicarbo-2,3-hydrazide)-manganese(ii)
;
_chemical_name_common
;
Diaqua-bis(8-oxypyrido[2,3-d]pyridazin-5(6H)-one)-manganese(ii)
;
_cell_volume    400.167
_exptl_crystal_density_diffrn 1.723
_exptl_special_details
;
triclinic polymorph

;
_diffrn_ambient_temperature 293
#These two values have been output from a single CSD field.
_refine_ls_R_factor_gt 0.0288
_refine_ls_wR_factor_gt 0.0288
_symmetry_cell_setting triclinic
_symmetry_space_group_name_H-M 'P -1'
_symmetry_Int_Tables_number 2
loop_
_symmetry_equiv_pos_site_id
_symmetry_equiv_pos_as_xyz
1 x,y,z
2 -x,-y,-z
_cell_length_a 5.1979(14)
_cell_length_b 8.634(2)
_cell_length_c 9.548(3)
_cell_angle_alpha 102.563(4)
_cell_angle_beta 95.674(4)
_cell_angle_gamma 104.207(4)
_cell_formula_units_Z 1
loop_
_atom_type_symbol
_atom_type_radius_bond
C 0.68
H 0.23
Mn 1.35
N 0.68
O 0.68
loop_
_atom_site_label
_atom_site_type_symbol
_atom_site_fract_x
_atom_site_fract_y
_atom_site_fract_z
Mn1 Mn 0.50000 0.00000 0.50000
N1 N 0.4492(3) 0.19475(18) 0.38111(15)
N2 N 0.8527(3) 0.03439(19) 0.13158(16)
N3 N 0.8263(3) 0.1274(2) 0.03159(16)
H1 H 0.922(4) 0.103(3) -0.037(2)
O1 O 0.7536(3) -0.02432(16) 0.34200(13)
O2 O 0.6947(3) 0.31810(17) -0.06294(14)
O3 O 0.8457(3) 0.18618(18) 0.66221(15)
H2 H 0.982(5) 0.150(3) 0.673(3)
H3 H 0.811(5) 0.221(3) 0.734(3)
C1 C 0.3095(4) 0.3062(2) 0.40058(19)
H4 H 0.21890 0.31570 0.47990
C2 C 0.2923(4) 0.4090(2) 0.3081(2)
H5 H 0.19780 0.48770 0.32760
C3 C 0.4177(4) 0.3925(2) 0.1869(2)
H6 H 0.40680 0.45830 0.12250
C4 C 0.5613(3) 0.2744(2) 0.16333(18)
C5 C 0.5752(3) 0.1799(2) 0.26345(17)
C6 C 0.7328(3) 0.0582(2) 0.24456(18)
C7 C 0.6973(4) 0.2451(2) 0.03562(19)
N1A N 0.5508(3) -0.19475(18) 0.61889(15)
N2A N 0.1473(3) -0.03439(19) 0.86842(16)
N3A N 0.1737(3) -0.1274(2) 0.96841(16)
H1A H 0.078(4) -0.103(3) 1.037(2)
O1A O 0.2464(3) 0.02432(16) 0.65800(13)
O2A O 0.3053(3) -0.31810(17) 1.06294(14)
O3A O 0.1543(3) -0.18618(18) 0.33779(15)
H2A H 0.018(5) -0.150(3) 0.327(3)
H3A H 0.189(5) -0.221(3) 0.266(3)
C1A C 0.6905(4) -0.3062(2) 0.59942(19)
H4A H 0.78110 -0.31570 0.52010
C2A C 0.7077(4) -0.4090(2) 0.6919(2)
H5A H 0.80220 -0.48770 0.67240
C3A C 0.5823(4) -0.3925(2) 0.8131(2)
H6A H 0.59320 -0.45830 0.87750
C4A C 0.4387(3) -0.2744(2) 0.83667(18)
C5A C 0.4248(3) -0.1799(2) 0.73655(17)
C6A C 0.2672(3) -0.0582(2) 0.75544(18)
C7A C 0.3027(4) -0.2451(2) 0.96438(19)
#END
