
#######################################################################
#
#                 Cambridge Crystallographic Data Centre
#                                CCDC
#
#######################################################################
#
# If this CIF has been generated from an entry in the Cambridge
# Structural Database, then it will include bibliographic, chemical,
# crystal, experimental, refinement or atomic coordinate data resulting
# from the CCDC's data processing and validation procedures.
#
#######################################################################

data_CSD_CIF_SOFYES
_audit_creation_date 2008-10-28
_audit_creation_method CSD-ConQuest-V1
_database_code_CSD SOFYES
_database_code_depnum_ccdc_archive 'CCDC 696420'
_chemical_formula_sum 'C12 H36 Cl3 Cr1 O6 S6'
_chemical_formula_moiety
;
C12 H36 Cr1 O6 S6 3+,3(Cl1 1-)
;
_journal_coeditor_code "IUCr CV2410"
_journal_coden_Cambridge 1370
_journal_volume 64
_journal_year 2008
_journal_page_first m904
_journal_name_full 'Acta Crystallogr.,Sect.E:Struct.Rep.Online '
loop_
_publ_author_name
"Y.M.Mikhaylichenko"
"M.Haukka"
"V.O.Pavlenko"
"I.O.Fritsky"
"T.S.Iskenderov"
_chemical_name_systematic
;
hexakis(Dimethylsulfoxide-\kO)-chromium(iii) trichloride
;
_cell_volume   2037.374
_exptl_crystal_colour 'green'
_exptl_crystal_density_diffrn 1.533
_exptl_crystal_description 'block'
_diffrn_ambient_temperature 120
#These two values have been output from a single CSD field.
_refine_ls_R_factor_gt 0.0415
_refine_ls_wR_factor_gt 0.0415
_symmetry_cell_setting rhombohedral
_symmetry_space_group_name_H-M 'R -3'
_symmetry_Int_Tables_number 148
loop_
_symmetry_equiv_pos_site_id
_symmetry_equiv_pos_as_xyz
1 x,y,z
2 -y,x-y,z
3 -x+y,-x,z
4 2/3+x,1/3+y,1/3+z
5 2/3-y,1/3+x-y,1/3+z
6 2/3-x+y,1/3-x,1/3+z
7 1/3+x,2/3+y,2/3+z
8 1/3-y,2/3+x-y,2/3+z
9 1/3-x+y,2/3-x,2/3+z
10 -x,-y,-z
11 y,-x+y,-z
12 x-y,x,-z
13 -2/3-x,-1/3-y,-1/3-z
14 -2/3+y,-1/3-x+y,-1/3-z
15 -2/3+x-y,-1/3+x,-1/3-z
16 -1/3-x,-2/3-y,-2/3-z
17 -1/3+y,-2/3-x+y,-2/3-z
18 -1/3+x-y,-2/3+x,-2/3-z
_cell_length_a 10.5499(6)
_cell_length_b 10.5499(6)
_cell_length_c 21.1370(13)
_cell_angle_alpha 90
_cell_angle_beta 90
_cell_angle_gamma 120
_cell_formula_units_Z 3
loop_
_atom_type_symbol
_atom_type_radius_bond
C 0.68
H 0.23
Cl 0.99
Cr 1.35
O 0.68
S 1.02
loop_
_atom_site_label
_atom_site_type_symbol
_atom_site_fract_x
_atom_site_fract_y
_atom_site_fract_z
Cr1 Cr 0.33330 0.66670 0.16670
S1 S 0.24193(8) 0.38772(8) 0.08860(4)
O1 O 0.3687(2) 0.5325(2) 0.11455(10)
C1 C 0.3083(4) 0.3721(4) 0.01371(16)
H1 H 0.31410 0.44850 -0.01450
H2 H 0.24160 0.27570 -0.00440
H3 H 0.40580 0.38340 0.01860
C2 C 0.2577(4) 0.2497(4) 0.12936(18)
H4 H 0.35760 0.26700 0.12480
H5 H 0.18830 0.15380 0.11160
H6 H 0.23600 0.25180 0.17430
Cl1 Cl 0.00000 0.00000 0.00000
Cl2 Cl 0.00000 0.00000 0.25064(7)
S1A S 0.61228(8) 0.85421(8) 0.08860(4)
S1B S 0.14579(8) 0.75807(8) 0.08860(4)
S1P S 0.054387(80) 0.479123(80) 0.244733(40)
S1Q S 0.520877(80) 0.575263(80) 0.244733(40)
S1O S 0.424737(80) 0.945613(80) 0.244733(40)
O1A O 0.4675(2) 0.8362(2) 0.11455(10)
O1B O 0.1638(2) 0.6313(2) 0.11455(10)
O1P O 0.199167(200) 0.497133(200) 0.218783(100)
O1Q O 0.502867(200) 0.702033(200) 0.218783(100)
O1O O 0.297967(200) 0.800833(200) 0.218783(100)
C1A C 0.6279(4) 0.9362(4) 0.01371(16)
C1B C 0.0638(4) 0.6917(4) 0.01371(16)
C1P C 0.038767(400) 0.397133(400) 0.319623(160)
C1Q C 0.602867(400) 0.641633(400) 0.319623(160)
C1O C 0.358367(400) 0.961233(400) 0.319623(160)
H1A H 0.55150 0.86560 -0.01450
H1B H 0.13440 0.68590 -0.01450
H1P H 0.11517 0.46773 0.34783
H1Q H 0.53227 0.64743 0.34783
H1O H 0.35257 0.88483 0.34783
H2A H 0.72430 0.96590 -0.00440
H2B H 0.03410 0.75840 -0.00440
H2P H -0.05763 0.36743 0.33773
H2Q H 0.63257 0.57493 0.33773
H2O H 0.42507 1.05763 0.33773
H3A H 0.61660 1.02240 0.01860
H3B H -0.02240 0.59420 0.01860
H3P H 0.05007 0.31093 0.31473
H3Q H 0.68907 0.73913 0.31473
H3O H 0.26087 0.94993 0.31473
C2A C 0.7503(4) 1.0080(4) 0.12936(18)
C2B C -0.0080(4) 0.7423(4) 0.12936(18)
C2P C -0.083633(400) 0.325333(400) 0.203973(180)
C2Q C 0.674667(400) 0.591033(400) 0.203973(180)
C2O C 0.408967(400) 1.083633(400) 0.203973(180)
H4A H 0.73300 1.09060 0.12480
H4B H -0.09060 0.64240 0.12480
H4P H -0.06633 0.24273 0.20853
H4Q H 0.75727 0.69093 0.20853
H4O H 0.30907 1.06633 0.20853
H5A H 0.84620 1.03450 0.11160
H5B H -0.03450 0.81170 0.11160
H5P H -0.17953 0.29883 0.22173
H5Q H 0.70117 0.52163 0.22173
H5O H 0.47837 1.17953 0.22173
H6A H 0.74820 0.98420 0.17430
H6B H 0.01580 0.76400 0.17430
H6P H -0.08153 0.34913 0.15903
H6Q H 0.65087 0.56933 0.15903
H6O H 0.43067 1.08153 0.15903
#END
