
#######################################################################
#
#                 Cambridge Crystallographic Data Centre
#                                CCDC
#
#######################################################################
#
# If this CIF has been generated from an entry in the Cambridge
# Structural Database, then it will include bibliographic, chemical,
# crystal, experimental, refinement or atomic coordinate data resulting
# from the CCDC's data processing and validation procedures.
#
#######################################################################

data_CSD_CIF_SOHKAC
_audit_creation_date 2009-03-18
_audit_creation_method CSD-ConQuest-V1
_database_code_CSD SOHKAC
_database_code_depnum_ccdc_archive 'CCDC 685091'
_chemical_formula_sum 'C15 H11 Mn1 N3 Se5'
_chemical_formula_moiety
;
C15 H11 Mn1 N3 Se5
;
_journal_coden_Cambridge 29
_journal_volume 634
_journal_year 2008
_journal_page_first 2191
_journal_name_full 'Z.Anorg.Allg.Chem. '
loop_
_publ_author_name
"A.Kromm"
"Y.Geldmacher"
"W.S.Sheldrick"
_chemical_name_systematic
;
(2,2':6',2''-Terpyridyl)-(pentaselenide-Se,Se'''')-manganese(ii)
;
_cell_volume    951.615
_exptl_crystal_colour 'black'
_exptl_crystal_density_diffrn 2.384
_exptl_crystal_description 'block'
_diffrn_ambient_temperature 294
#These two values have been output from a single CSD field.
_refine_ls_R_factor_gt 0.0681
_refine_ls_wR_factor_gt 0.0681
_symmetry_cell_setting triclinic
_symmetry_space_group_name_H-M 'P -1'
_symmetry_Int_Tables_number 2
loop_
_symmetry_equiv_pos_site_id
_symmetry_equiv_pos_as_xyz
1 x,y,z
2 -x,-y,-z
_cell_length_a 7.2500(14)
_cell_length_b 10.496(2)
_cell_length_c 13.739(3)
_cell_angle_alpha 90.65(2)
_cell_angle_beta 104.98(3)
_cell_angle_gamma 108.69(1)
_cell_formula_units_Z 2
loop_
_atom_type_symbol
_atom_type_radius_bond
C 0.68
H 0.23
Mn 1.35
N 0.68
Se 1.22
loop_
_atom_site_label
_atom_site_type_symbol
_atom_site_fract_x
_atom_site_fract_y
_atom_site_fract_z
Se1 Se 0.1052(2) 0.46062(14) 0.21234(13)
Se2 Se 0.2402(2) 0.42825(15) 0.07821(11)
Se3 Se 0.5816(2) 0.45098(14) 0.14989(12)
Se4 Se 0.7512(3) 0.68746(15) 0.17447(13)
Se5 Se 0.6901(3) 0.76618(17) 0.31988(13)
Mn1 Mn 0.3011(3) 0.7175(2) 0.25726(16)
N1 N 0.2713(17) 0.7166(11) 0.4198(9)
C1 C 0.280(3) 0.6107(16) 0.4749(11)
H1 H 0.29780 0.53660 0.44600
C2 C 0.261(3) 0.6101(17) 0.5760(12)
H2 H 0.26280 0.53600 0.61230
C3 C 0.240(3) 0.7219(17) 0.6178(14)
H3 H 0.22930 0.72480 0.68380
C4 C 0.234(2) 0.8343(16) 0.5609(11)
H4 H 0.22220 0.91120 0.58900
C5 C 0.247(2) 0.8249(13) 0.4633(10)
C6 C 0.237(2) 0.9344(13) 0.3931(11)
C7 C 0.219(2) 1.0565(13) 0.4242(12)
H5 H 0.21140 1.07390 0.48930
C8 C 0.214(2) 1.1512(14) 0.3541(12)
H6 H 0.20170 1.23300 0.37280
C9 C 0.225(2) 1.1253(13) 0.2564(11)
H7 H 0.21750 1.18740 0.20900
C10 C 0.250(2) 1.0017(14) 0.2319(11)
N2 N 0.2509(16) 0.908(1) 0.3012(9)
C11 C 0.253(2) 0.9571(12) 0.1310(11)
C12 C 0.244(2) 1.0379(13) 0.0486(10)
H8 H 0.23920 1.12440 0.05850
C13 C 0.242(2) 0.9883(15) -0.0488(11)
H9 H 0.23560 1.04020 -0.10320
C14 C 0.252(2) 0.8562(14) -0.0586(12)
H10 H 0.24850 0.81790 -0.12060
C15 C 0.266(2) 0.7855(13) 0.0253(10)
H11 H 0.27620 0.70010 0.01790
N3 N 0.2653(16) 0.8309(10) 0.1176(8)
#END
