
#######################################################################
#
#                 Cambridge Crystallographic Data Centre
#                                CCDC
#
#######################################################################
#
# If this CIF has been generated from an entry in the Cambridge
# Structural Database, then it will include bibliographic, chemical,
# crystal, experimental, refinement or atomic coordinate data resulting
# from the CCDC's data processing and validation procedures.
#
#######################################################################

data_CSD_CIF_SOMTAP
_audit_creation_date 1992-05-18
_audit_creation_method CSD-ConQuest-V1
_database_code_CSD SOMTAP
_database_code_depnum_ccdc_archive 'CCDC 1261900'
_database_code_depnum_ccdc_fiz 'CSD 55439'
_chemical_formula_sum 'C17 H14 B2 Fe1 O3'
_chemical_formula_moiety
;
C17 H14 B2 Fe1 O3
;
_journal_coden_Cambridge 48
_journal_volume 124
_journal_year 1991
_journal_page_first 2203
_journal_name_full 'Chem.Ber. '
loop_
_publ_author_name
"H.Schulz"
"H.Pritzkow"
"W.Siebert"
_chemical_name_systematic
;
Tricarbonyl-(\h^6^-9,10-dihydro-9,10-dimethyl-9,10-dibora-anthracene)-iron
;
_chemical_melting_point 414.15
_cell_volume    787.797
_exptl_crystal_colour 'green'
_exptl_crystal_density_diffrn 1.45
_diffrn_ambient_temperature ?
_diffrn_special_details
;
The study was carried out at room temperature,in the range 283-303K

;
#These two values have been output from a single CSD field.
_refine_ls_R_factor_gt 0.034
_refine_ls_wR_factor_gt 0.034
_symmetry_cell_setting triclinic
_symmetry_space_group_name_H-M 'P -1'
_symmetry_Int_Tables_number 2
loop_
_symmetry_equiv_pos_site_id
_symmetry_equiv_pos_as_xyz
1 x,y,z
2 -x,-y,-z
_cell_length_a 8.282(6)
_cell_length_b 9.408(7)
_cell_length_c 11.404(8)
_cell_angle_alpha 71.69(5)
_cell_angle_beta 83.87(6)
_cell_angle_gamma 69.05(5)
_cell_formula_units_Z 2
loop_
_atom_type_symbol
_atom_type_radius_bond
C 0.68
H 0.23
B 0.83
Fe 1.34
O 0.68
loop_
_atom_site_label
_atom_site_type_symbol
_atom_site_fract_x
_atom_site_fract_y
_atom_site_fract_z
Fe1 Fe 0.57067(4) 0.16840(3) 0.17250(3)
C1 C 0.8137(3) -0.0705(3) 0.4223(2)
C2 C 0.8712(4) -0.2291(3) 0.4357(3)
C3 C 0.7697(4) -0.2958(3) 0.3954(3)
C4 C 0.6127(4) -0.2031(3) 0.3431(3)
C5 C 0.5404(3) -0.0353(3) 0.33107(19)
C6 C 0.6458(3) 0.0337(3) 0.37185(18)
B1 B 0.5842(3) 0.2128(3) 0.3588(2)
B2 B 0.3594(3) 0.0677(3) 0.2734(2)
C7 C 0.3392(4) 0.4867(3) 0.2765(3)
C8 C 0.1831(4) 0.5794(4) 0.2255(3)
C9 C 0.0809(4) 0.5134(4) 0.1864(3)
C10 C 0.1369(3) 0.3551(4) 0.1999(3)
C11 C 0.2991(3) 0.2487(3) 0.2578(2)
C12 C 0.4044(3) 0.3165(3) 0.2984(2)
C13 C 0.6994(4) 0.2879(5) 0.4061(4)
C14 C 0.2398(5) -0.0096(5) 0.2325(4)
C15 C 0.7592(3) 0.0321(3) 0.1298(2)
O1 O 0.8802(2) -0.0575(2) 0.10373(18)
C16 C 0.6572(3) 0.3264(3) 0.1199(2)
O2 O 0.7127(3) 0.4270(3) 0.0827(2)
C17 C 0.4534(3) 0.1913(3) 0.0408(2)
O3 O 0.3833(3) 0.2082(2) -0.04605(17)
H1 H 0.887(3) -0.024(3) 0.452(2)
H2 H 0.990(4) -0.293(4) 0.466(3)
H3 H 0.822(4) -0.408(4) 0.403(3)
H4 H 0.545(3) -0.247(3) 0.319(2)
H5 H 0.399(4) 0.532(4) 0.300(3)
H6 H 0.156(5) 0.691(5) 0.214(4)
H7 H -0.025(4) 0.578(4) 0.145(3)
H8 H 0.075(4) 0.312(3) 0.174(3)
H9 H 0.836(7) 0.238(6) 0.396(5)
H10 H 0.682(6) 0.272(6) 0.491(5)
H11 H 0.689(6) 0.375(6) 0.364(4)
H12 H 0.173(5) 0.061(5) 0.166(4)
H13 H 0.165(6) -0.029(5) 0.297(4)
H14 H 0.315(8) -0.107(7) 0.207(5)
#END
