
#######################################################################
#
#                 Cambridge Crystallographic Data Centre
#                                CCDC
#
#######################################################################
#
# If this CIF has been generated from an entry in the Cambridge
# Structural Database, then it will include bibliographic, chemical,
# crystal, experimental, refinement or atomic coordinate data resulting
# from the CCDC's data processing and validation procedures.
#
#######################################################################

data_CSD_CIF_SOPBII
_audit_creation_date 1992-05-18
_audit_creation_method CSD-ConQuest-V1
_database_code_CSD SOPBII
_database_code_depnum_ccdc_archive 'CCDC 1262059'
_database_code_depnum_ccdc_fiz 'CSD 55366'
_chemical_formula_sum 'C18 H30 Fe1 Si4'
_chemical_formula_moiety
;
C18 H30 Fe1 Si4
;
_journal_coden_Cambridge 48
_journal_volume 124
_journal_year 1991
_journal_page_first 2391
_journal_name_full 'Chem.Ber. '
loop_
_publ_author_name
"P.Jutzi"
"R.Krallmann"
"G.Wolf"
"B.Neumann"
"H.-G.Stammler"
_chemical_name_systematic
;
1,1':2,2'-bis(1,1,2,2-Tetramethyldisilane-1,2-diyl)ferrocene
;
_chemical_melting_point 422.15
_cell_volume   2119.827
_exptl_crystal_colour 'orange-red'
_exptl_crystal_density_diffrn 1.299
_exptl_special_details
;
Melting point range 422.15-423.15K

;
_diffrn_ambient_temperature ?
_diffrn_special_details
;
The study was carried out at room temperature,in the range 283-303K

;
#These two values have been output from a single CSD field.
_refine_ls_R_factor_gt 0.0446
_refine_ls_wR_factor_gt 0.0446
_symmetry_cell_setting monoclinic
_symmetry_space_group_name_H-M 'C 2/c'
_symmetry_Int_Tables_number 15
loop_
_symmetry_equiv_pos_site_id
_symmetry_equiv_pos_as_xyz
1 x,y,z
2 1/2+x,1/2+y,z
3 -x,y,1/2-z
4 1/2-x,1/2+y,1/2-z
5 -x,-y,-z
6 -1/2-x,-1/2-y,-z
7 x,-y,-1/2+z
8 -1/2+x,-1/2-y,-1/2+z
_cell_length_a 12.107(4)
_cell_length_b 12.904(6)
_cell_length_c 14.472(4)
_cell_angle_alpha 90
_cell_angle_beta 110.35(2)
_cell_angle_gamma 90
_cell_formula_units_Z 4
loop_
_atom_type_symbol
_atom_type_radius_bond
C 0.68
H 0.23
Fe 1.34
Si 1.20
loop_
_atom_site_label
_atom_site_type_symbol
_atom_site_fract_x
_atom_site_fract_y
_atom_site_fract_z
Fe1 Fe 0.00000 0.0936(2) 0.25000
Si1 Si -0.0518(3) 0.2970(3) 0.3723(2)
Si2 Si -0.2115(3) 0.2622(2) 0.2255(2)
C1 C 0.0473(7) 0.1812(6) 0.3752(5)
C2 C 0.1448(7) 0.1681(6) 0.3432(5)
C3 C 0.1687(7) 0.0604(6) 0.3432(5)
C4 C 0.0861(7) 0.0069(6) 0.3753(5)
C5 C 0.0111(7) 0.0815(6) 0.3951(5)
C6 C -0.1035(10) 0.2844(10) 0.4820(7)
C7 C 0.0255(9) 0.4249(8) 0.3873(7)
C8 C -0.3220(9) 0.1866(8) 0.2644(8)
C9 C -0.2961(9) 0.3706(8) 0.1457(7)
H1 H 0.22690 0.02750 0.32320
H2 H 0.08150 -0.06750 0.38020
H3 H -0.05150 0.06380 0.41750
H4 H -0.03730 0.29900 0.54040
H5 H -0.16600 0.33220 0.47710
H6 H -0.13020 0.21490 0.48520
H7 H 0.08820 0.42830 0.45000
H8 H 0.05690 0.43470 0.33550
H9 H -0.03120 0.47810 0.38370
H10 H -0.39010 0.16920 0.20850
H11 H -0.28550 0.12430 0.29730
H12 H -0.34520 0.22880 0.30910
H13 H -0.35670 0.34080 0.09010
H14 H -0.33150 0.41350 0.18200
H15 H -0.24460 0.41180 0.12310
C1B C -0.0473(7) 0.1812(6) 0.1248(5)
C2B C -0.1448(7) 0.1681(6) 0.1568(5)
C3B C -0.1687(7) 0.0604(6) 0.1568(5)
C4B C -0.0861(7) 0.0069(6) 0.1247(5)
C5B C -0.0111(7) 0.0815(6) 0.1049(5)
Si2B Si 0.2115(3) 0.2622(2) 0.2745(2)
Si1B Si 0.0518(3) 0.2970(3) 0.1277(2)
H1B H -0.22690 0.02750 0.17680
H2B H -0.08150 -0.06750 0.11980
H3B H 0.05150 0.06380 0.08250
C8B C 0.3220(9) 0.1866(8) 0.2356(8)
C9B C 0.2961(9) 0.3706(8) 0.3543(7)
C6B C 0.1035(10) 0.2844(10) 0.0180(7)
C7B C -0.0255(9) 0.4249(8) 0.1127(7)
H10B H 0.39010 0.16920 0.29150
H11B H 0.28550 0.12430 0.20270
H12B H 0.34520 0.22880 0.19090
H13B H 0.35670 0.34080 0.40990
H14B H 0.33150 0.41350 0.31800
H15B H 0.24460 0.41180 0.37690
H4B H 0.03730 0.29900 -0.04040
H5B H 0.16600 0.33220 0.02290
H6B H 0.13020 0.21490 0.01480
H7B H -0.08820 0.42830 0.05000
H8B H -0.05690 0.43470 0.16450
H9B H 0.03120 0.47810 0.11630
#END
