
#######################################################################
#
#                 Cambridge Crystallographic Data Centre
#                                CCDC
#
#######################################################################
#
# If this CIF has been generated from an entry in the Cambridge
# Structural Database, then it will include bibliographic, chemical,
# crystal, experimental, refinement or atomic coordinate data resulting
# from the CCDC's data processing and validation procedures.
#
#######################################################################

data_CSD_CIF_SOQVEA
_audit_creation_date 2009-07-30
_audit_creation_method CSD-ConQuest-V1
_database_code_CSD SOQVEA
_database_code_depnum_ccdc_archive 'CCDC 681503'
_chemical_formula_sum 'C6 H16 Mn1 N10 O8'
_chemical_formula_moiety
;
C6 H16 Mn1 N10 O8
;
_journal_coden_Cambridge 155
_journal_volume 362
_journal_year 2009
_journal_page_first 1234
_journal_name_full 'Inorg.Chim.Acta '
loop_
_publ_author_name
"Gao-Wen Yang"
"Qiao-Yun Li"
"Yi Zhou"
"Guo-Qing Gu"
"Yun-Sheng Ma"
"Rong-Xin Yuan"
_chemical_name_systematic
;
bis((5-amino-1H-tetrazol-1-yl)acetato-O)-tetraaqua-manganese(ii)
;
_cell_volume    371.305
_exptl_crystal_colour 'colorless'
_exptl_crystal_density_diffrn 1.839
_exptl_crystal_description 'block'
_diffrn_ambient_temperature 293
#These two values have been output from a single CSD field.
_refine_ls_R_factor_gt 0.0274
_refine_ls_wR_factor_gt 0.0274
_symmetry_cell_setting triclinic
_symmetry_space_group_name_H-M 'P -1'
_symmetry_Int_Tables_number 2
loop_
_symmetry_equiv_pos_site_id
_symmetry_equiv_pos_as_xyz
1 x,y,z
2 -x,-y,-z
_cell_length_a 6.127(2)
_cell_length_b 6.612(2)
_cell_length_c 9.640(3)
_cell_angle_alpha 79.16(3)
_cell_angle_beta 83.56(3)
_cell_angle_gamma 76.03(3)
_cell_formula_units_Z 1
loop_
_atom_type_symbol
_atom_type_radius_bond
C 0.68
H 0.23
Mn 1.61
N 0.68
O 0.68
loop_
_atom_site_label
_atom_site_type_symbol
_atom_site_fract_x
_atom_site_fract_y
_atom_site_fract_z
Mn1 Mn 0.50000 0.00000 0.50000
N1 N -0.4319(3) 0.2411(2) 1.00903(16)
N2 N -0.5728(3) 0.3089(3) 0.90145(17)
N3 N -0.4720(2) 0.3856(3) 0.78616(16)
N4 N -0.2553(2) 0.3689(2) 0.81713(15)
N5 N -0.0468(3) 0.2477(3) 1.0213(2)
H1 H -0.038(4) 0.167(4) 1.097(2)
H2 H 0.076(5) 0.268(4) 0.970(3)
O1 O 0.2208(2) 0.2337(2) 0.57004(14)
O2 O 0.0139(2) 0.0326(2) 0.71155(13)
O3 O 0.3017(3) -0.2483(3) 0.55937(16)
H3 H 0.201(5) -0.185(5) 0.613(3)
H4 H 0.359(5) -0.361(5) 0.603(3)
O4 O 0.6222(3) -0.0983(2) 0.71289(15)
H5 H 0.555(5) -0.128(5) 0.791(3)
H6 H 0.727(5) -0.041(4) 0.722(3)
C1 C -0.2352(3) 0.2808(3) 0.95349(18)
C2 C -0.0799(3) 0.4076(3) 0.70858(19)
H7 H 0.01810 0.47800 0.74460
H8 H -0.14870 0.50210 0.62760
C3 C 0.0619(3) 0.2064(3) 0.66015(17)
N1A N 1.4319(3) -0.2411(2) -0.00903(16)
N2A N 1.5728(3) -0.3089(3) 0.09855(17)
N3A N 1.4720(2) -0.3856(3) 0.21384(16)
N4A N 1.2553(2) -0.3689(2) 0.18287(15)
N5A N 1.0468(3) -0.2477(3) -0.0213(2)
H1A H 1.038(4) -0.167(4) -0.097(2)
H2A H 0.924(5) -0.268(4) 0.030(3)
O1A O 0.7792(2) -0.2337(2) 0.42996(14)
O2A O 0.9861(2) -0.0326(2) 0.28845(13)
O3A O 0.6983(3) 0.2483(3) 0.44063(16)
H3A H 0.799(5) 0.185(5) 0.387(3)
H4A H 0.641(5) 0.361(5) 0.397(3)
O4A O 0.3778(3) 0.0983(2) 0.28711(15)
H5A H 0.445(5) 0.128(5) 0.209(3)
H6A H 0.273(5) 0.041(4) 0.278(3)
C1A C 1.2352(3) -0.2808(3) 0.04651(18)
C2A C 1.0799(3) -0.4076(3) 0.29142(19)
H7A H 0.98190 -0.47800 0.25540
H8A H 1.14870 -0.50210 0.37240
C3A C 0.9381(3) -0.2064(3) 0.33985(17)
#END
