
#######################################################################
#
#                 Cambridge Crystallographic Data Centre
#                                CCDC
#
#######################################################################
#
# If this CIF has been generated from an entry in the Cambridge
# Structural Database, then it will include bibliographic, chemical,
# crystal, experimental, refinement or atomic coordinate data resulting
# from the CCDC's data processing and validation procedures.
#
#######################################################################

data_CSD_CIF_SOQVOK
_audit_creation_date 2009-07-30
_audit_creation_method CSD-ConQuest-V1
_database_code_CSD SOQVOK
_database_code_depnum_ccdc_archive 'CCDC 681505'
_chemical_formula_sum 'C16 H20 Mn1 N10 O8'
_chemical_formula_moiety
;
(C16 H16 Mn1 N10 O6)n,2n(H2 O1)
;
_journal_coden_Cambridge 155
_journal_volume 362
_journal_year 2009
_journal_page_first 1234
_journal_name_full 'Inorg.Chim.Acta '
loop_
_publ_author_name
"Gao-Wen Yang"
"Qiao-Yun Li"
"Yi Zhou"
"Guo-Qing Gu"
"Yun-Sheng Ma"
"Rong-Xin Yuan"
_chemical_name_systematic
;
catena-(bis(\m~3~-3-[1-(carboxylatomethyl)pyridinium-4-yl]tetrazol-2-yl)-diaqu
a-manganese(ii) dihydrate)
;
_cell_volume    509.503
_exptl_crystal_colour 'colorless'
_exptl_crystal_density_diffrn 1.745
_exptl_crystal_description 'block'
_diffrn_ambient_temperature 173
#These two values have been output from a single CSD field.
_refine_ls_R_factor_gt 0.0437
_refine_ls_wR_factor_gt 0.0437
_symmetry_cell_setting triclinic
_symmetry_space_group_name_H-M 'P -1'
_symmetry_Int_Tables_number 2
loop_
_symmetry_equiv_pos_site_id
_symmetry_equiv_pos_as_xyz
1 x,y,z
2 -x,-y,-z
_cell_length_a 7.5460(9)
_cell_length_b 8.8890(14)
_cell_length_c 9.0009(12)
_cell_angle_alpha 72.29(2)
_cell_angle_beta 66.35(2)
_cell_angle_gamma 69.88(2)
_cell_formula_units_Z 1
loop_
_atom_type_symbol
_atom_type_radius_bond
C 0.68
H 0.23
Mn 1.61
N 0.68
O 0.68
loop_
_atom_site_label
_atom_site_type_symbol
_atom_site_fract_x
_atom_site_fract_y
_atom_site_fract_z
Mn1 Mn 0.00000 0.00000 1.00000
O1 O 0.1484(3) 0.1381(2) 1.0497(2)
O2 O 0.3682(3) 0.0738(2) 1.1822(2)
O3 O -0.2783(3) 0.0997(3) 1.1876(3)
H1 H -0.392(4) 0.107(5) 1.187(5)
H2 H -0.282(5) 0.081(4) 1.281(3)
O4 O 0.7891(4) 1.0087(3) 0.4776(3)
H3 H 0.750(6) 0.995(5) 0.581(3)
H4 H 0.900(5) 0.936(4) 0.446(5)
N1 N 0.1016(3) 0.7574(3) 0.3329(3)
N2 N 0.0897(3) 0.7715(3) 0.1845(3)
N3 N 0.1649(4) 0.6274(3) 0.1395(3)
N4 N 0.2276(3) 0.5162(3) 0.2580(3)
N5 N 0.3278(3) 0.3723(3) 0.8119(3)
C1 C 0.1868(4) 0.5983(3) 0.3752(3)
C2 C 0.2298(4) 0.5216(3) 0.5294(3)
C3 C 0.1822(4) 0.6087(3) 0.6511(4)
H5 H 0.11540 0.72160 0.63690
C4 C 0.2318(4) 0.5317(3) 0.7914(4)
H6 H 0.19810 0.59130 0.87470
C5 C 0.3739(4) 0.2850(3) 0.6967(3)
H7 H 0.44120 0.17240 0.71380
C6 C 0.3254(4) 0.3559(3) 0.5548(3)
H8 H 0.35670 0.29270 0.47520
C7 C 0.3932(4) 0.2902(3) 0.9572(3)
H9 H 0.36620 0.37320 1.02140
H10 H 0.53970 0.24290 0.91830
C8 C 0.2927(4) 0.1553(3) 1.0719(3)
Mn1* Mn 0.00000 1.00000 0.00000
O1A O -0.1484(3) 0.8619(2) -0.0497(2)
O1A* O -0.1484(3) -0.1381(2) 0.9503(2)
O2A O -0.3682(3) 0.9262(2) -0.1822(2)
O3A O 0.2783(3) -0.0997(3) 0.8124(3)
H1A H 0.392(4) -0.107(5) 0.813(5)
H2A H 0.282(5) -0.081(4) 0.719(3)
N1A N -0.1016(3) 0.2426(3) 0.6671(3)
N2A N -0.0897(3) 0.2285(3) 0.8155(3)
N2* N 0.0897(3) -0.2285(3) 1.1845(3)
N3A N -0.1649(4) 0.3726(3) 0.8605(3)
N4A N -0.2276(3) 0.4838(3) 0.7420(3)
N5A N -0.3278(3) 0.6277(3) 0.1881(3)
C1A C -0.1868(4) 0.4017(3) 0.6248(3)
C2A C -0.2298(4) 0.4784(3) 0.4706(3)
C3A C -0.1822(4) 0.3913(3) 0.3489(4)
H5A H -0.11540 0.27840 0.36310
C4A C -0.2318(4) 0.4683(3) 0.2086(4)
H6A H -0.19810 0.40870 0.12530
C5A C -0.3739(4) 0.7150(3) 0.3033(3)
H7A H -0.44120 0.82760 0.28620
C6A C -0.3254(4) 0.6441(3) 0.4452(3)
H8A H -0.35670 0.70730 0.52480
C7A C -0.3932(4) 0.7098(3) 0.0428(3)
H9A H -0.36620 0.62680 -0.02140
H10A H -0.53970 0.75710 0.08170
C8A C -0.2927(4) 0.8447(3) -0.0719(3)
#END
