
#######################################################################
#
#                 Cambridge Crystallographic Data Centre
#                                CCDC
#
#######################################################################
#
# If this CIF has been generated from an entry in the Cambridge
# Structural Database, then it will include bibliographic, chemical,
# crystal, experimental, refinement or atomic coordinate data resulting
# from the CCDC's data processing and validation procedures.
#
#######################################################################

data_CSD_CIF_SOSGEN03
_audit_creation_date 2009-07-30
_audit_creation_method CSD-ConQuest-V1
_database_code_CSD SOSGEN03
_database_code_depnum_ccdc_archive 'CCDC 707184'
_chemical_formula_sum 'C24 H16 Fe1 N10 S2'
_chemical_formula_moiety
;
C24 H16 Fe1 N10 S2
;
_journal_coden_Cambridge 1220
_journal_volume 15
_journal_year 2009
_journal_page_first 2384
_journal_name_full 'Chem.-Eur.J. '
loop_
_publ_author_name
"Chou-Fu Sheu"
"Kowa Chen"
"Szu-Miao Chen"
"Yuh-Sheng Wen"
"Gene-Hsiang Lee"
"Jin-Ming Chen"
"Jyh-Fu Lee"
"Bing-Ming Cheng"
"Hwo-Shuenn Sheu"
"N.Yasuda"
"Y.Ozawa"
"K.Toriumi"
"Yu Wang"
_chemical_name_systematic
;
bis(3-(2-Pyridinyl)[1,2,3]triazolo[1,5-a]pyridine)-bis(isothiocyanato)-iron(ii
)
;
_cell_volume    592.907
_exptl_crystal_colour 'brown'
_exptl_crystal_density_diffrn 1.581
_exptl_special_details
;
magnetic properties
high-spin polymorph B
undergoes a spin transition at 102 K
;
_exptl_crystal_description 'plate'
_diffrn_ambient_temperature 150
#These two values have been output from a single CSD field.
_refine_ls_R_factor_gt 0.0301
_refine_ls_wR_factor_gt 0.0301
_symmetry_cell_setting triclinic
_symmetry_space_group_name_H-M 'P -1'
_symmetry_Int_Tables_number 2
loop_
_symmetry_equiv_pos_site_id
_symmetry_equiv_pos_as_xyz
1 x,y,z
2 -x,-y,-z
_cell_length_a 8.2884(3)
_cell_length_b 8.7652(3)
_cell_length_c 9.3434(3)
_cell_angle_alpha 68.071(2)
_cell_angle_beta 72.302(2)
_cell_angle_gamma 75.648(2)
_cell_formula_units_Z 1
loop_
_atom_type_symbol
_atom_type_radius_bond
C 0.68
H 0.23
Fe 1.52
N 0.68
S 1.02
loop_
_atom_site_label
_atom_site_type_symbol
_atom_site_fract_x
_atom_site_fract_y
_atom_site_fract_z
Fe1 Fe 0.00000 0.00000 0.00000
S1 S -0.21295(6) -0.50964(6) 0.38002(6)
N1 N -0.15764(17) 0.01334(17) -0.15626(17)
N2 N -0.24537(17) 0.13921(17) 0.08127(17)
N3 N -0.30796(18) 0.20044(17) 0.19998(17)
N4 N -0.46672(17) 0.28259(17) 0.18145(17)
N5 N -0.08704(17) -0.21928(18) 0.16914(17)
C1 C -0.3111(2) 0.1142(2) -0.1433(2)
C2 C -0.4137(2) 0.1491(2) -0.2471(2)
H1 H -0.51740 0.22010 -0.23720
C3 C -0.3603(2) 0.0772(2) -0.3657(2)
H2 H -0.42790 0.09930 -0.43650
C4 C -0.2064(2) -0.0272(2) -0.3782(2)
H3 H -0.16850 -0.07770 -0.45660
C5 C -0.1092(2) -0.0553(2) -0.2715(2)
H4 H -0.00480 -0.12550 -0.28030
C6 C -0.5767(2) 0.3670(2) 0.2796(2)
H5 H -0.54660 0.37150 0.36590
C7 C -0.7296(2) 0.4432(2) 0.2465(2)
H6 H -0.80750 0.49970 0.31210
C8 C -0.7736(2) 0.4386(2) 0.1136(2)
H7 H -0.87930 0.49330 0.09200
C9 C -0.6637(2) 0.3553(2) 0.0175(2)
H8 H -0.69320 0.35230 -0.06970
C10 C -0.5040(2) 0.2732(2) 0.0515(2)
C11 C -0.3567(2) 0.1780(2) -0.0107(2)
C12 C -0.1397(2) -0.3394(2) 0.2597(2)
S1A S 0.21295(6) 0.50964(6) -0.38002(6)
N1A N 0.15764(17) -0.01334(17) 0.15626(17)
N2A N 0.24537(17) -0.13921(17) -0.08127(17)
N3A N 0.30796(18) -0.20044(17) -0.19998(17)
N4A N 0.46672(17) -0.28259(17) -0.18145(17)
N5A N 0.08704(17) 0.21928(18) -0.16914(17)
C1A C 0.3111(2) -0.1142(2) 0.1433(2)
C2A C 0.4137(2) -0.1491(2) 0.2471(2)
H1A H 0.51740 -0.22010 0.23720
C3A C 0.3603(2) -0.0772(2) 0.3657(2)
H2A H 0.42790 -0.09930 0.43650
C4A C 0.2064(2) 0.0272(2) 0.3782(2)
H3A H 0.16850 0.07770 0.45660
C5A C 0.1092(2) 0.0553(2) 0.2715(2)
H4A H 0.00480 0.12550 0.28030
C6A C 0.5767(2) -0.3670(2) -0.2796(2)
H5A H 0.54660 -0.37150 -0.36590
C7A C 0.7296(2) -0.4432(2) -0.2465(2)
H6A H 0.80750 -0.49970 -0.31210
C8A C 0.7736(2) -0.4386(2) -0.1136(2)
H7A H 0.87930 -0.49330 -0.09200
C9A C 0.6637(2) -0.3553(2) -0.0175(2)
H8A H 0.69320 -0.35230 0.06970
C10A C 0.5040(2) -0.2732(2) -0.0515(2)
C11A C 0.3567(2) -0.1780(2) 0.0107(2)
C12A C 0.1397(2) 0.3394(2) -0.2597(2)
#END
