
#######################################################################
#
#                 Cambridge Crystallographic Data Centre
#                                CCDC
#
#######################################################################
#
# If this CIF has been generated from an entry in the Cambridge
# Structural Database, then it will include bibliographic, chemical,
# crystal, experimental, refinement or atomic coordinate data resulting
# from the CCDC's data processing and validation procedures.
#
#######################################################################

data_CSD_CIF_SOVJIX
_audit_creation_date 2009-07-30
_audit_creation_method CSD-ConQuest-V1
_database_code_CSD SOVJIX
_database_code_depnum_ccdc_archive 'CCDC 702656'
_chemical_formula_sum 'C13 H12 Fe1 N4 O2'
_chemical_formula_moiety
;
C13 H12 Fe1 N4 O2
;
_journal_coden_Cambridge 119
_journal_volume 920
_journal_year 2009
_journal_page_first 134
_journal_name_full 'J.Mol.Struct. '
loop_
_publ_author_name
"M.Cetina"
"S.Djakovic"
"M.C.Semencic"
"V.Rapic"
_chemical_name_systematic
;
1'-Acetamidoferrocene-1-carboxazide
;
_chemical_melting_point 397.15
_cell_volume    643.876
_exptl_crystal_colour 'red'
_exptl_crystal_density_diffrn 1.61
_exptl_special_details
;
Melting point range 397.15-398.15K

;
_exptl_crystal_description 'prism'
_exptl_crystal_preparation 'dichloromethane'
_diffrn_ambient_temperature 295
#These two values have been output from a single CSD field.
_refine_ls_R_factor_gt 0.0337
_refine_ls_wR_factor_gt 0.0337
_symmetry_cell_setting triclinic
_symmetry_space_group_name_H-M 'P -1'
_symmetry_Int_Tables_number 2
loop_
_symmetry_equiv_pos_site_id
_symmetry_equiv_pos_as_xyz
1 x,y,z
2 -x,-y,-z
_cell_length_a 7.2009(3)
_cell_length_b 8.3703(3)
_cell_length_c 10.9625(4)
_cell_angle_alpha 83.819(3)
_cell_angle_beta 78.669(4)
_cell_angle_gamma 87.297(3)
_cell_formula_units_Z 2
loop_
_atom_type_symbol
_atom_type_radius_bond
C 0.68
H 0.23
Fe 1.52
N 0.68
O 0.68
loop_
_atom_site_label
_atom_site_type_symbol
_atom_site_fract_x
_atom_site_fract_y
_atom_site_fract_z
Fe1 Fe 0.80677(3) 0.22352(3) 0.18011(2)
N1 N 0.8559(2) -0.08603(18) 0.36152(15)
H1 H 0.806(2) -0.066(2) 0.4315(17)
N2 N 0.4553(2) -0.1000(2) 0.21677(15)
N3 N 0.3762(3) -0.2157(2) 0.28576(18)
N4 N 0.3103(4) -0.3251(3) 0.3404(2)
O1 O 0.9329(3) -0.27187(18) 0.22400(14)
O2 O 0.3670(2) 0.04560(17) 0.38683(12)
C1 C 0.9361(2) 0.0476(2) 0.28607(16)
C2 C 1.0270(3) 0.0585(2) 0.15834(17)
H2 H 1.04130 -0.02360 0.10620
C3 C 1.0918(3) 0.2171(3) 0.1249(2)
H3 H 1.15820 0.25690 0.04680
C4 C 1.0387(3) 0.3048(3) 0.2301(2)
H4 H 1.06380 0.41210 0.23340
C5 C 0.9414(3) 0.2015(2) 0.32857(18)
H5 H 0.88910 0.22910 0.40830
C6 C 0.5292(2) 0.1765(2) 0.19621(16)
C7 C 0.6258(3) 0.1755(3) 0.06897(17)
H6 H 0.63690 0.08900 0.02120
C8 C 0.7009(3) 0.3281(3) 0.02925(19)
H7 H 0.76950 0.36030 -0.05000
C9 C 0.6551(3) 0.4243(3) 0.1291(2)
H8 H 0.68870 0.53070 0.12690
C10 C 0.5504(3) 0.3331(2) 0.23235(19)
H9 H 0.50300 0.36810 0.31050
C11 C 0.8598(3) -0.2375(2) 0.32805(17)
C12 C 0.7703(4) -0.3597(3) 0.4297(2)
H10 H 0.86070 -0.39760 0.48070
H11 H 0.73030 -0.44830 0.39330
H12 H 0.66260 -0.31160 0.48030
C13 C 0.4426(2) 0.0430(2) 0.27854(16)
#END
