
#######################################################################
#
#                 Cambridge Crystallographic Data Centre
#                                CCDC
#
#######################################################################
#
# If this CIF has been generated from an entry in the Cambridge
# Structural Database, then it will include bibliographic, chemical,
# crystal, experimental, refinement or atomic coordinate data resulting
# from the CCDC's data processing and validation procedures.
#
#######################################################################

data_CSD_CIF_SOWZEJ
_audit_creation_date 1992-10-02
_audit_creation_method CSD-ConQuest-V1
_database_code_CSD SOWZEJ
_chemical_formula_sum 'C17 H21 Cr1 N1 O5'
_chemical_formula_moiety
;
C17 H21 Cr1 N1 O5
;
_journal_coeditor_code "IUCr HU0386"
_journal_coden_Cambridge 591
_journal_volume 48
_journal_year 1992
_journal_page_first 636
_journal_name_full 'Acta Crystallogr.,Sect.C:Cryst.Struct.Commun. '
loop_
_publ_author_name
"G.R.Clark"
"Kee Chee Lee"
"P.D.Woodgate"
_chemical_name_systematic
;
Tricarbonyl-(\h^6^-N,N-diethyl-2-methoxy-4,5-dimethylbenzamide)-chromium(0)
;
_chemical_melting_point 441
_cell_volume    875.709
_exptl_crystal_density_diffrn 1.408
_exptl_special_details
;
Melting point range 441-443K

;
_diffrn_ambient_temperature ?
_diffrn_special_details
;
The study was carried out at room temperature,in the range 283-303K

;
#These two values have been output from a single CSD field.
_refine_ls_R_factor_gt 0.037
_refine_ls_wR_factor_gt 0.037
_symmetry_cell_setting triclinic
_symmetry_space_group_name_H-M 'P -1'
_symmetry_Int_Tables_number 2
loop_
_symmetry_equiv_pos_site_id
_symmetry_equiv_pos_as_xyz
1 x,y,z
2 -x,-y,-z
_cell_length_a 11.131(1)
_cell_length_b 12.708(1)
_cell_length_c 6.902(1)
_cell_angle_alpha 97.58(1)
_cell_angle_beta 103.39(1)
_cell_angle_gamma 67.38(1)
_cell_formula_units_Z 2
loop_
_atom_type_symbol
_atom_type_radius_bond
C 0.68
H 0.23
Cr 1.35
N 0.68
O 0.68
loop_
_atom_site_label
_atom_site_type_symbol
_atom_site_fract_x
_atom_site_fract_y
_atom_site_fract_z
Cr1 Cr 0.75017(3) 0.72436(3) 0.00042(6)
O1 O 0.39960(17) 0.87978(17) -0.0796(3)
O2 O 0.57746(16) 0.60720(14) 0.1697(3)
O3 O 0.6609(3) 0.5670(2) -0.3081(4)
O4 O 0.6525(3) 0.89903(19) -0.3075(3)
O5 O 1.0101(2) 0.6310(2) -0.1288(4)
N1 N 0.35359(18) 0.84568(17) 0.2018(3)
C1 C 0.5856(2) 0.78933(18) 0.1714(4)
C2 C 0.6533(2) 0.67190(18) 0.2070(4)
C3 C 0.7920(2) 0.6294(2) 0.2723(4)
C4 C 0.8641(2) 0.7022(2) 0.3121(4)
C5 C 0.7970(2) 0.8208(2) 0.2867(3)
C6 C 0.6585(2) 0.86121(19) 0.2113(4)
C7 C 0.4376(2) 0.84091(18) 0.0874(4)
C8 C 0.2112(2) 0.9043(2) 0.1229(5)
C9 C 0.3927(3) 0.8181(3) 0.4118(4)
C10 C 0.1515(3) 0.8324(4) -0.0270(7)
C11 C 0.3390(4) 0.7344(4) 0.4602(7)
C12 C 0.6446(3) 0.4860(2) 0.1932(6)
C13 C 1.0132(3) 0.6511(3) 0.3864(6)
C14 C 0.8683(3) 0.9032(3) 0.3379(5)
C15 C 0.6950(3) 0.6291(2) -0.1892(4)
C16 C 0.6901(3) 0.8327(2) -0.1877(4)
C17 C 0.9090(3) 0.6674(2) -0.0794(4)
H1 H 0.845(3) 0.549(3) 0.287(5)
H2 H 0.610(3) 0.948(2) 0.184(4)
H3 H 0.167(3) 0.922(3) 0.223(5)
H4 H 0.207(3) 0.974(3) 0.061(5)
H5 H 0.487(3) 0.787(2) 0.437(4)
H6 H 0.361(3) 0.897(3) 0.494(5)
H7 H 0.159(5) 0.772(4) 0.011(7)
H8 H 0.066(4) 0.868(3) -0.080(6)
H9 H 0.193(4) 0.806(3) -0.137(6)
H10 H 0.233(4) 0.772(3) 0.442(6)
H11 H 0.374(3) 0.710(3) 0.599(5)
H12 H 0.368(4) 0.666(3) 0.381(5)
H13 H 0.700(4) 0.475(3) 0.334(6)
H14 H 0.567(3) 0.463(3) 0.166(5)
H15 H 0.716(4) 0.462(3) 0.104(5)
H16 H 1.055(3) 0.678(3) 0.326(5)
H17 H 1.045(4) 0.571(4) 0.373(6)
H18 H 1.032(5) 0.687(4) 0.516(8)
H19 H 0.940(4) 0.883(3) 0.275(6)
H20 H 0.814(4) 0.979(3) 0.282(5)
H21 H 0.904(4) 0.907(3) 0.484(7)
#END
