
#######################################################################
#
#                 Cambridge Crystallographic Data Centre
#                                CCDC
#
#######################################################################
#
# If this CIF has been generated from an entry in the Cambridge
# Structural Database, then it will include bibliographic, chemical,
# crystal, experimental, refinement or atomic coordinate data resulting
# from the CCDC's data processing and validation procedures.
#
#######################################################################

data_CSD_CIF_SOXVIM
_audit_creation_date 2015-03-20
_audit_creation_method CSD-ConQuest-V1
_database_code_CSD SOXVIM
_database_code_depnum_ccdc_archive 'CCDC 998481'
_chemical_formula_sum 'C16 H20 Mn1 N10 O8'
_chemical_formula_moiety
;
(C16 H16 Mn1 N10 O6)n,2(H2 O1)
;
_journal_coden_Cambridge 29
_journal_volume 640
_journal_year 2014
_journal_page_first 2566
_journal_name_full 'Z.Anorg.Allg.Chem. '
loop_
_publ_author_name
"Jian Hua Zou"
"He Tian"
"Zhong Wang"
"Fu Song Li"
"Fei Fei Zhang"
"Li Yang Zhao"
"Ping Zhang"
"Da Liang Zhu"
"Gao Wen Yang"
"Qiao Yun Li"
_chemical_name_systematic
;
catena-[bis(\m-(5-(pyridin-3-yl)-2H-tetrazol-2-yl)acetato)-manganese(ii) 
dihydrate]
;
_cell_volume    629.165
_exptl_crystal_density_diffrn 1.413
_diffrn_ambient_temperature 293
#These two values have been output from a single CSD field.
_refine_ls_R_factor_gt 0.0549
_refine_ls_wR_factor_gt 0.0549
_symmetry_cell_setting triclinic
_symmetry_space_group_name_H-M 'P -1'
_symmetry_Int_Tables_number 2
loop_
_symmetry_equiv_pos_site_id
_symmetry_equiv_pos_as_xyz
1 x,y,z
2 -x,-y,-z
_cell_length_a 7.2507(15)
_cell_length_b 9.3814(19)
_cell_length_c 10.667(2)
_cell_angle_alpha 64.79(3)
_cell_angle_beta 73.84(3)
_cell_angle_gamma 79.87(3)
_cell_formula_units_Z 1
loop_
_atom_type_symbol
_atom_type_radius_bond
C 0.68
H 0.23
Mn 1.61
N 0.68
O 0.68
loop_
_atom_site_label
_atom_site_type_symbol
_atom_site_fract_x
_atom_site_fract_y
_atom_site_fract_z
Mn1 Mn 0.00000 1.50000 0.00000
O1 O 0.0412(3) 1.0856(2) 0.1749(3)
O2 O 0.1883(3) 1.3071(2) 0.1040(2)
O3 O -0.2170(3) 1.3329(3) 0.0715(2)
N1 N 0.2866(3) 0.8218(2) 0.3968(2)
N2 N 0.3550(3) 0.8977(2) 0.2578(2)
N3 N 0.4008(4) 0.8078(3) 0.1854(2)
N4 N 0.3612(3) 0.6631(3) 0.2810(2)
N5 N 0.1025(3) 0.4477(3) 0.7963(2)
C1 C 0.1792(4) 1.1582(3) 0.1549(3)
C2 C 0.3680(4) 1.0683(3) 0.1894(3)
H1 H 0.46720 1.09390 0.10190
H2 H 0.40650 1.10300 0.25140
C3 C 0.1029(4) 0.3027(3) 0.8000(3)
H3 H 0.06000 0.22120 0.88730
C4 C 0.1638(4) 0.2691(3) 0.6808(3)
H4 H 0.16070 0.16720 0.68770
C5 C 0.2296(4) 0.3886(3) 0.5507(3)
H5 H 0.27330 0.36820 0.46890
C6 C 0.2296(4) 0.5397(3) 0.5437(3)
C7 C 0.1651(4) 0.5628(3) 0.6682(3)
H6 H 0.16480 0.66420 0.66350
C8 C 0.2916(4) 0.6733(3) 0.4076(3)
H7 H -0.329(2) 1.344(3) 0.120(3)
H8 H -0.172(4) 1.242(2) 0.119(3)
O4 O 0.4341(3) 0.3910(3) 0.2128(3)
H9 H 0.358(4) 0.386(3) 0.168(3)
H10 H 0.413(4) 0.4829(19) 0.213(3)
O1A O -0.0412(3) 0.9144(2) 0.8251(3)
O2A O -0.1883(3) 0.6929(2) 0.8960(2)
N1A N -0.2866(3) 1.1782(2) 0.6032(2)
N2A N -0.3550(3) 1.1023(2) 0.7422(2)
N3A N -0.4008(4) 1.1922(3) 0.8146(2)
N4A N -0.3612(3) 1.3369(3) 0.7190(2)
N5A N -0.1025(3) 1.5523(3) 0.2037(2)
C1A C -0.1792(4) 0.8418(3) 0.8451(3)
C2A C -0.3680(4) 0.9317(3) 0.8106(3)
H1A H -0.46720 0.90610 0.89810
H2A H -0.40650 0.89700 0.74860
C3A C -0.1029(4) 1.6973(3) 0.2000(3)
H3A H -0.06000 1.77880 0.11270
C4A C -0.1638(4) 1.7309(3) 0.3192(3)
H4A H -0.16070 1.83280 0.31230
C5A C -0.2296(4) 1.6114(3) 0.4493(3)
H5A H -0.27330 1.63180 0.53110
C6A C -0.2296(4) 1.4603(3) 0.4563(3)
C7A C -0.1651(4) 1.4372(3) 0.3318(3)
H6A H -0.16480 1.33580 0.33650
C8A C -0.2916(4) 1.3267(3) 0.5924(3)
O3A O 0.2170(3) 1.6671(3) -0.0715(2)
H7A H 0.329(2) 1.656(3) -0.120(3)
H8A H 0.172(4) 1.758(2) -0.119(3)
Mn1* Mn 0.00000 0.50000 1.00000
O2A* O -0.1883(3) 1.6929(2) -0.1040(2)
N5* N 0.1025(3) 1.4477(3) -0.2037(2)
#END
