
#######################################################################
#
#                 Cambridge Crystallographic Data Centre
#                                CCDC
#
#######################################################################
#
# If this CIF has been generated from an entry in the Cambridge
# Structural Database, then it will include bibliographic, chemical,
# crystal, experimental, refinement or atomic coordinate data resulting
# from the CCDC's data processing and validation procedures.
#
#######################################################################

data_CSD_CIF_SOZFIW
_audit_creation_date 1992-11-02
_audit_creation_method CSD-ConQuest-V1
_database_code_CSD SOZFIW
_chemical_formula_sum 'C12 H24 Co1 N6 O12 Rh1'
_chemical_formula_moiety
;
C6 H24 Co1 N6 3+,C6 O12 Rh1 3-
;
_journal_coden_Cambridge 9
_journal_volume 30
_journal_year 1991
_journal_page_first 4954
_journal_name_full 'Inorg.Chem. '
loop_
_publ_author_name
"R.Kuroda"
_chemical_name_systematic
;
\L-tris(Ethylenediamine-N,N')-cobalt(iii) \L-tris(oxalato-O,O')-rhodium(iii)
;
_cell_volume   1460.967
_exptl_crystal_colour 'orange'
_exptl_crystal_density_diffrn 2.067
_diffrn_ambient_temperature ?
_diffrn_special_details
;
The study was carried out at room temperature,in the range 283-303K

;
#These two values have been output from a single CSD field.
_refine_ls_R_factor_gt 0.025
_refine_ls_wR_factor_gt 0.025
loop_
_citation_database_id_CSD
_citation_special_details
SOZFOC "is a stereoisomer of this entry"
_symmetry_cell_setting rhombohedral
_symmetry_space_group_name_H-M 'R 3'
_symmetry_Int_Tables_number 146
loop_
_symmetry_equiv_pos_site_id
_symmetry_equiv_pos_as_xyz
1 x,y,z
2 1/3+x,2/3+y,2/3+z
3 2/3+x,1/3+y,1/3+z
4 -y,x-y,z
5 -x+y,-x,z
6 1/3-y,2/3+x-y,2/3+z
7 1/3-x+y,2/3-x,2/3+z
8 2/3-y,1/3+x-y,1/3+z
9 2/3-x+y,1/3-x,1/3+z
_cell_length_a 13.069(2)
_cell_length_b 13.069(2)
_cell_length_c 9.877(3)
_cell_angle_alpha 90
_cell_angle_beta 90
_cell_angle_gamma 120
_cell_formula_units_Z 3
loop_
_atom_type_symbol
_atom_type_radius_bond
C 0.68
H 0.23
Co 1.33
N 0.68
O 0.68
Rh 1.45
loop_
_atom_site_label
_atom_site_type_symbol
_atom_site_fract_x
_atom_site_fract_y
_atom_site_fract_z
Co1 Co 0.00000 0.00000 0.5034(2)
N1 N 0.0140(3) 0.1290(3) 0.3906(4)
N2 N 0.1241(3) 0.1258(3) 0.6152(3)
C1 C 0.1137(4) 0.2446(4) 0.4369(5)
C2 C 0.1244(4) 0.2381(4) 0.5876(5)
Rh1 Rh 0.00000 0.00000 0.0000(2)
O1 O -0.0039(3) 0.1279(2) -0.1110(3)
O2 O 0.1167(2) 0.1358(3) 0.1123(3)
O3 O 0.0728(3) 0.3219(3) -0.1059(3)
O4 O 0.1958(3) 0.3300(3) 0.1247(4)
C3 C 0.0621(3) 0.2321(3) -0.0594(5)
C4 C 0.1316(3) 0.2355(3) 0.0700(4)
H1 H 0.016(5) 0.119(5) 0.293(7)
H2 H -0.050(4) 0.140(4) 0.405(4)
H3 H 0.115(4) 0.117(4) 0.701(5)
H4 H 0.196(4) 0.136(4) 0.593(4)
H5 H 0.181(4) 0.264(4) 0.402(4)
H6 H 0.095(5) 0.314(5) 0.415(5)
H7 H 0.210(6) 0.308(6) 0.63(1)
H8 H 0.057(5) 0.243(5) 0.637(7)
N1C N -0.1290(3) -0.1150(3) 0.3906(4)
N1D N 0.1150(3) -0.0140(3) 0.3906(4)
N2C N -0.1258(3) -0.0017(3) 0.6152(3)
N2D N 0.0017(3) -0.1241(3) 0.6152(3)
C1C C -0.2446(4) -0.1309(4) 0.4369(5)
H1C H -0.119(5) -0.103(5) 0.293(7)
H2C H -0.140(4) -0.190(4) 0.405(4)
C1D C 0.1309(4) -0.1137(4) 0.4369(5)
H1D H 0.103(5) -0.016(5) 0.293(7)
H2D H 0.190(4) 0.050(4) 0.405(4)
C2C C -0.2381(4) -0.1137(4) 0.5876(5)
H3C H -0.117(4) -0.002(4) 0.701(5)
H4C H -0.136(4) 0.060(4) 0.593(4)
C2D C 0.1137(4) -0.1244(4) 0.5876(5)
H3D H 0.002(4) -0.115(4) 0.701(5)
H4D H -0.060(4) -0.196(4) 0.593(4)
H5C H -0.264(4) -0.083(4) 0.402(4)
H6C H -0.314(5) -0.219(5) 0.415(5)
H5D H 0.083(4) -0.181(4) 0.402(4)
H6D H 0.219(5) -0.095(5) 0.415(5)
H7C H -0.308(6) -0.098(6) 0.63(1)
H8C H -0.243(5) -0.186(5) 0.637(7)
H7D H 0.098(6) -0.210(6) 0.63(1)
H8D H 0.186(5) -0.057(5) 0.637(7)
O1C O -0.1279(3) -0.1318(2) -0.1110(3)
O1D O 0.1318(3) 0.0039(2) -0.1110(3)
O2C O -0.1358(2) -0.0191(3) 0.1123(3)
O2D O 0.0191(2) -0.1167(3) 0.1123(3)
C3C C -0.2321(3) -0.1700(3) -0.0594(5)
C3D C 0.1700(3) -0.0621(3) -0.0594(5)
C4C C -0.2355(3) -0.1039(3) 0.0700(4)
C4D C 0.1039(3) -0.1316(3) 0.0700(4)
O3C O -0.3219(3) -0.2491(3) -0.1059(3)
O3D O 0.2491(3) -0.0728(3) -0.1059(3)
O4C O -0.3300(3) -0.1342(3) 0.1247(4)
O4D O 0.1342(3) -0.1958(3) 0.1247(4)
#END
