
#######################################################################
#
#                 Cambridge Crystallographic Data Centre
#                                CCDC
#
#######################################################################
#
# If this CIF has been generated from an entry in the Cambridge
# Structural Database, then it will include bibliographic, chemical,
# crystal, experimental, refinement or atomic coordinate data resulting
# from the CCDC's data processing and validation procedures.
#
#######################################################################

data_CSD_CIF_SUBGOO
_audit_creation_date 2020-01-17
_audit_creation_method CSD-ConQuest-V1
_database_code_CSD SUBGOO
_database_code_depnum_ccdc_archive 'CCDC 1922867'
_chemical_formula_sum 'C18 H15 Br3 Mn1 N2'
_chemical_formula_moiety
;
C9 H7 Br3 Mn1 N1 1-,C9 H8 N1 1+
;
_journal_coden_Cambridge 3045
_journal_volume 3
_journal_year 2020
_journal_page_first 135
_journal_name_full 'Nat. Catal. '
loop_
_publ_author_name
"V.Papa"
"Yixuan Cao"
"A.Spannenberg"
"Kathrin Junge"
"M.Beller"
_chemical_name_systematic
;
quinolinium tribromo-(quinoline)-manganese(ii)
;
_cell_volume    928.683
_exptl_crystal_colour 'pale yellow'
_exptl_crystal_density_diffrn 1.981
_exptl_crystal_description 'prism'
_diffrn_ambient_temperature 150
#These two values have been output from a single CSD field.
_refine_ls_R_factor_gt 0.0305
_refine_ls_wR_factor_gt 0.0305
_symmetry_cell_setting triclinic
_symmetry_space_group_name_H-M 'P -1'
_symmetry_Int_Tables_number 2
loop_
_symmetry_equiv_pos_site_id
_symmetry_equiv_pos_as_xyz
1 x,y,z
2 -x,-y,-z
_cell_length_a 8.0878(4)
_cell_length_b 8.7931(4)
_cell_length_c 14.4971(6)
_cell_angle_alpha 91.1344(15)
_cell_angle_beta 106.0370(15)
_cell_angle_gamma 109.2138(14)
_cell_formula_units_Z 2
loop_
_atom_type_symbol
_atom_type_radius_bond
C 0.68
H 0.23
Br 1.21
Mn 1.61
N 0.68
loop_
_atom_site_label
_atom_site_type_symbol
_atom_site_fract_x
_atom_site_fract_y
_atom_site_fract_z
Br1 Br 0.39062(5) 1.04585(5) 0.68521(3)
Br2 Br 0.35020(5) 1.40346(4) 0.85653(2)
Br3 Br -0.03952(5) 1.18760(5) 0.59795(3)
C1 C -0.1607(4) 0.9788(4) 0.8039(2)
H1 H -0.20420 1.04130 0.75680
C2 C -0.2825(4) 0.8850(4) 0.8511(2)
H2 H -0.40520 0.88330 0.83510
C3 C -0.2218(4) 0.7965(4) 0.9198(2)
H3 H -0.30160 0.73330 0.95300
C4 C -0.0395(4) 0.7992(4) 0.9417(2)
C5 C 0.0318(5) 0.7087(4) 1.0114(2)
H4 H -0.04310 0.64660 1.04720
C6 C 0.2069(5) 0.7092(4) 1.0280(3)
H5 H 0.25310 0.64740 1.07480
C7 C 0.3185(5) 0.8025(4) 0.9749(2)
H6 H 0.43930 0.80120 0.98540
C8 C 0.2553(4) 0.8946(4) 0.9087(2)
H7 H 0.33340 0.95870 0.87500
C9 C 0.0747(4) 0.8949(4) 0.8902(2)
Mn1 Mn 0.18053(7) 1.14777(6) 0.74536(4)
N1 N 0.0109(4) 0.9851(3) 0.82153(19)
C10 C 0.4888(6) 0.7594(5) 0.5178(3)
H8 H 0.43880 0.82090 0.47220
C11 C 0.3766(6) 0.6495(5) 0.5609(3)
H9 H 0.24980 0.63510 0.54480
C12 C 0.4485(5) 0.5618(5) 0.6266(3)
H10 H 0.37110 0.48690 0.65640
C13 C 0.6363(5) 0.5807(4) 0.6511(2)
C14 C 0.7181(5) 0.4919(5) 0.7178(3)
H11 H 0.64560 0.41490 0.74900
C15 C 0.9013(6) 0.5163(5) 0.7378(3)
H12 H 0.95590 0.45640 0.78260
C16 C 1.0082(5) 0.6303(5) 0.6918(3)
H13 H 1.13510 0.64660 0.70600
C17 C 0.9346(5) 0.7175(5) 0.6275(3)
H14 H 1.00950 0.79420 0.59730
C18 C 0.7475(5) 0.6940(4) 0.6058(2)
N2 N 0.6666(5) 0.7799(4) 0.5397(2)
H15 H 0.748(7) 0.861(6) 0.505(4)
#END
