
#######################################################################
#
#                 Cambridge Crystallographic Data Centre
#                                CCDC
#
#######################################################################
#
# If this CIF has been generated from an entry in the Cambridge
# Structural Database, then it will include bibliographic, chemical,
# crystal, experimental, refinement or atomic coordinate data resulting
# from the CCDC's data processing and validation procedures.
#
#######################################################################

data_CSD_CIF_SUFZAU
_audit_creation_date 1993-08-06
_audit_creation_method CSD-ConQuest-V1
_database_code_CSD SUFZAU
_chemical_formula_sum 'C14 H24 Co1 N10 O10'
_chemical_formula_moiety
;
C14 H24 Co1 N8 O4 2+,2(N1 O3 1-)
;
_journal_coden_Cambridge 580
_journal_volume 11
_journal_year 1992
_journal_page_first 2903
_journal_name_full 'Polyhedron '
loop_
_publ_author_name
"J.M.Salas"
"C.Enrique"
"M.A.Romero"
"K.Takagi"
"K.Aoki"
"Y.Miyashita"
"I.-H.Suh"
_chemical_name_systematic
;
Tetra-aqua-bis(5,7-dimethyl(1,2,4)triazolo(1,5-a)pyrimidine-N^3^)-cobalt(ii) 
dinitrate
;
_cell_volume    545.325
_exptl_crystal_colour 'orange'
_exptl_special_details
;
Isostructural with the cadmium analogue
Dx reported as 1.62; we calculate 1.68
;
_diffrn_ambient_temperature ?
_diffrn_special_details
;
The study was carried out at room temperature,in the range 283-303K

;
#These two values have been output from a single CSD field.
_refine_ls_R_factor_gt 0.026
_refine_ls_wR_factor_gt 0.026
_symmetry_cell_setting triclinic
_symmetry_space_group_name_H-M 'P -1'
_symmetry_Int_Tables_number 2
loop_
_symmetry_equiv_pos_site_id
_symmetry_equiv_pos_as_xyz
1 x,y,z
2 -x,-y,-z
_cell_length_a 7.957(1)
_cell_length_b 9.257(2)
_cell_length_c 7.927(1)
_cell_angle_alpha 103.95(1)
_cell_angle_beta 100.21(1)
_cell_angle_gamma 75.95(1)
_cell_formula_units_Z 1
loop_
_atom_type_symbol
_atom_type_radius_bond
C 0.68
H 0.23
Co 1.33
N 0.68
O 0.68
loop_
_atom_site_label
_atom_site_type_symbol
_atom_site_fract_x
_atom_site_fract_y
_atom_site_fract_z
Co1 Co 0.00000 1.00000 0.00000
N1 N 0.5607(2) 0.8135(2) 0.0745(3)
C1 C 0.4116(3) 0.9069(3) 0.1121(3)
N2 N 0.2643(2) 0.8650(2) 0.0180(3)
C2 C 0.3258(3) 0.7329(2) -0.0873(3)
N3 N 0.2363(2) 0.6405(2) -0.2050(3)
C3 C 0.3305(3) 0.5151(3) -0.2923(3)
C4 C 0.5143(3) 0.4810(3) -0.2649(3)
C5 C 0.6039(3) 0.5748(3) -0.1450(3)
N4 N 0.5045(2) 0.7015(2) -0.0550(2)
C6 C 0.2344(3) 0.4075(3) -0.4205(4)
C7 C 0.7976(3) 0.5517(3) -0.1049(4)
N5 N 0.7294(3) 0.1096(2) 0.4801(3)
O1 O 0.8237(3) 0.1941(2) 0.5762(3)
O2 O 0.6053(3) 0.1633(2) 0.3801(3)
O3 O 0.7589(3) -0.0279(2) 0.4848(3)
O4 O -0.0676(2) 0.8663(2) 0.1446(2)
O5 O -0.0778(2) 0.8551(2) -0.2322(2)
H1 H 0.41500 0.99900 0.20500
H2 H 0.57700 0.39400 -0.33400
H3 H 0.32800 0.31000 -0.48200
H4 H 0.15200 0.36800 -0.35300
H5 H 0.15300 0.46500 -0.52100
H6 H 0.83200 0.64600 0.00300
H7 H 0.84900 0.44500 -0.06000
H8 H 0.85300 0.54700 -0.22300
H9 H -0.16200 0.85800 0.16200
H10 H 0.00700 0.85300 0.25600
H11 H -0.11100 0.89300 -0.31100
H12 H -0.00100 0.78400 -0.25300
N2A N -0.2643(2) 1.1350(2) -0.0180(3)
O4A O 0.0676(2) 1.1337(2) -0.1446(2)
O5A O 0.0778(2) 1.1449(2) 0.2322(2)
C1A C -0.4116(3) 1.0931(3) -0.1121(3)
C2A C -0.3258(3) 1.2671(2) 0.0873(3)
H9A H 0.16200 1.14200 -0.16200
H10A H -0.00700 1.14700 -0.25600
H11A H 0.11100 1.10700 0.31100
H12A H 0.00100 1.21600 0.25300
N1A N -0.5607(2) 1.1865(2) -0.0745(3)
H1A H -0.41500 1.00100 -0.20500
N3A N -0.2363(2) 1.3595(2) 0.2050(3)
N4A N -0.5045(2) 1.2985(2) 0.0550(2)
C3A C -0.3305(3) 1.4849(3) 0.2923(3)
C5A C -0.6039(3) 1.4252(3) 0.1450(3)
C4A C -0.5143(3) 1.5190(3) 0.2649(3)
C6A C -0.2344(3) 1.5925(3) 0.4205(4)
C7A C -0.7976(3) 1.4483(3) 0.1049(4)
H2A H -0.57700 1.60600 0.33400
H3A H -0.32800 1.69000 0.48200
H4A H -0.15200 1.63200 0.35300
H5A H -0.15300 1.53500 0.52100
H6A H -0.83200 1.35400 -0.00300
H7A H -0.84900 1.55500 0.06000
H8A H -0.85300 1.45300 0.22300
#END
