
#######################################################################
#
#                 Cambridge Crystallographic Data Centre
#                                CCDC
#
#######################################################################
#
# If this CIF has been generated from an entry in the Cambridge
# Structural Database, then it will include bibliographic, chemical,
# crystal, experimental, refinement or atomic coordinate data resulting
# from the CCDC's data processing and validation procedures.
#
#######################################################################

data_CSD_CIF_SUGNOA
_audit_creation_date 2020-01-21
_audit_creation_method CSD-ConQuest-V1
_database_code_CSD SUGNOA
_database_code_depnum_ccdc_archive 'CCDC 1876838'
_chemical_formula_sum 'C12 H10 Fe1 N2 O3 S1'
_chemical_formula_moiety
;
C12 H10 Fe1 N2 O3 S1
;
_journal_coden_Cambridge 15
_journal_volume 97
_journal_year 2019
_journal_page_first 704
_journal_name_full 'Can.J.Chem. '
loop_
_publ_author_name
"S.Merniz"
"L.Himed"
"M.Mokhtari"
"A.Mousser"
_chemical_name_systematic
;
(N-(cyclohexa-2,4-dien-1-yl)-1,3-thiazol-2-amine)-tris(carbonyl)-iron
;
_cell_volume    651.656
_exptl_crystal_colour 'red'
_exptl_crystal_density_diffrn 1.621
_exptl_crystal_description 'prism'
_diffrn_ambient_temperature 293
#These two values have been output from a single CSD field.
_refine_ls_R_factor_gt 0.0269
_refine_ls_wR_factor_gt 0.0269
_symmetry_cell_setting triclinic
_symmetry_space_group_name_H-M 'P -1'
_symmetry_Int_Tables_number 2
loop_
_symmetry_equiv_pos_site_id
_symmetry_equiv_pos_as_xyz
1 x,y,z
2 -x,-y,-z
_cell_length_a 6.5245(4)
_cell_length_b 8.0331(5)
_cell_length_c 12.7831(9)
_cell_angle_alpha 97.404(3)
_cell_angle_beta 96.658(3)
_cell_angle_gamma 98.074(3)
_cell_formula_units_Z 2
loop_
_atom_type_symbol
_atom_type_radius_bond
C 0.68
H 0.23
Fe 1.52
N 0.68
O 0.68
S 1.02
loop_
_atom_site_label
_atom_site_type_symbol
_atom_site_fract_x
_atom_site_fract_y
_atom_site_fract_z
Fe1 Fe 0.40861(4) 0.26123(3) 0.13176(2)
C1 C 0.1196(3) 0.2735(2) 0.51452(14)
N1 N 0.1420(3) 0.3299(2) 0.42101(12)
H1 H 0.08160 0.41380 0.40570
C2 C 0.2288(4) 0.2042(3) 0.01036(17)
C3 C 0.6274(4) 0.3088(3) 0.06248(18)
C4 C 0.4301(3) 0.0536(3) 0.16168(17)
C5 C 0.5821(3) 0.3904(3) 0.27632(17)
H2 H 0.73420 0.41260 0.27840
O1 O 0.4367(3) -0.0784(2) 0.18336(17)
C6 C 0.1820(3) 0.2853(3) 0.23432(14)
H3 H 0.03920 0.23020 0.20600
C7 C 0.2513(4) 0.4407(3) 0.19898(16)
H4 H 0.15740 0.49900 0.15640
C8 C 0.4667(4) 0.4970(3) 0.22152(19)
H5 H 0.53440 0.59740 0.19540
C9 C 0.2651(3) 0.2537(2) 0.34467(14)
H6 H 0.24200 0.13060 0.34510
O2 O 0.1184(3) 0.1640(3) -0.06698(14)
C10 C 0.5019(3) 0.3159(3) 0.36880(16)
H7 H 0.53160 0.40120 0.43180
H8 H 0.57330 0.22150 0.38310
C11 C 0.0055(4) 0.2411(2) 0.66689(16)
H9 H -0.07390 0.26270 0.72160
C12 C 0.1325(4) 0.1253(3) 0.66876(16)
H10 H 0.15070 0.05830 0.72220
O3 O 0.7716(3) 0.3443(3) 0.02246(17)
S1 S 0.25837(9) 0.11796(7) 0.55739(4)
N2 N -0.0034(3) 0.32803(19) 0.58021(13)
#END
