
#######################################################################
#
#                 Cambridge Crystallographic Data Centre
#                                CCDC
#
#######################################################################
#
# If this CIF has been generated from an entry in the Cambridge
# Structural Database, then it will include bibliographic, chemical,
# crystal, experimental, refinement or atomic coordinate data resulting
# from the CCDC's data processing and validation procedures.
#
#######################################################################

data_CSD_CIF_SUKJIU
_audit_creation_date 2020-01-23
_audit_creation_method CSD-ConQuest-V1
_database_code_CSD SUKJIU
_database_code_depnum_ccdc_archive 'CCDC 1400091'
_chemical_formula_sum 'C15 H9 Br1 Mn1 N3 O3'
_chemical_formula_moiety
;
C15 H9 Br1 Mn1 N3 O3
;
_journal_coden_Cambridge 1290
_journal_year 2015
_journal_page_first 4921
_journal_name_full 'Eur.J.Inorg.Chem. '
loop_
_publ_author_name
"C.M.Alvarez"
"L.Alvarez-Miguel"
"R.Garcia-Rodriguez"
"J.M.Martin-Alvarez"
"D.Miguel"
_chemical_name_systematic
;
bromo-tricarbonyl-(3-(pyridin-2-yl)imidazo[1,5-a]pyridine)-manganese
;
_cell_volume    789.389
_exptl_crystal_density_diffrn 1.742
_diffrn_ambient_temperature 293
#These two values have been output from a single CSD field.
_refine_ls_R_factor_gt 0.0317
_refine_ls_wR_factor_gt 0.0317
_symmetry_cell_setting triclinic
_symmetry_space_group_name_H-M 'P -1'
_symmetry_Int_Tables_number 2
loop_
_symmetry_equiv_pos_site_id
_symmetry_equiv_pos_as_xyz
1 x,y,z
2 -x,-y,-z
_cell_length_a 7.2998(5)
_cell_length_b 10.6028(8)
_cell_length_c 10.6341(8)
_cell_angle_alpha 89.137(6)
_cell_angle_beta 86.392(6)
_cell_angle_gamma 73.945(6)
_cell_formula_units_Z 2
loop_
_atom_type_symbol
_atom_type_radius_bond
C 0.68
H 0.23
Br 1.21
Mn 1.61
N 0.68
O 0.68
loop_
_atom_site_label
_atom_site_type_symbol
_atom_site_fract_x
_atom_site_fract_y
_atom_site_fract_z
Mn1 Mn 1.00892(7) 0.79169(5) 0.22231(4)
Br1 Br 1.30129(5) 0.72905(4) 0.35312(4)
N1 N 0.9755(4) 0.6059(2) 0.2507(2)
N2 N 0.8497(3) 0.8159(2) 0.3867(2)
N3 N 0.6970(3) 0.7363(2) 0.5412(2)
C1 C 0.8090(5) 0.8318(3) 0.1259(3)
O1 O 0.6839(4) 0.8581(3) 0.0619(3)
C2 C 1.0200(5) 0.9584(3) 0.2096(3)
O2 O 1.0221(4) 1.0655(2) 0.1956(3)
C3 C 1.1738(5) 0.7515(3) 0.0869(3)
O3 O 1.2800(4) 0.7282(3) 0.0008(3)
C4 C 1.0470(5) 0.5027(3) 0.1738(3)
H1 H 1.12110 0.51320 0.10210
C5 C 1.0155(5) 0.3811(3) 0.1962(3)
H2 H 1.06560 0.31200 0.14000
C6 C 0.9092(5) 0.3647(3) 0.3026(3)
H3 H 0.88880 0.28330 0.32070
C7 C 0.8325(5) 0.4694(3) 0.3827(3)
H4 H 0.75850 0.45970 0.45470
C8 C 0.8669(4) 0.5898(3) 0.3548(3)
C9 C 0.7990(4) 0.7094(3) 0.4279(3)
C10 C 0.6120(5) 0.6613(3) 0.6212(3)
H5 H 0.61820 0.57530 0.60040
C11 C 0.5208(5) 0.7153(4) 0.7291(3)
H6 H 0.46440 0.66530 0.78330
C12 C 0.5078(5) 0.8465(4) 0.7629(3)
H7 H 0.44420 0.88120 0.83860
C13 C 0.5878(5) 0.9209(4) 0.6855(3)
H8 H 0.57910 1.00710 0.70720
C14 C 0.6844(4) 0.8673(3) 0.5715(3)
C15 C 0.7809(4) 0.9120(3) 0.4733(3)
H9 H 0.79660 0.99600 0.46730
#END
