
#######################################################################
#
#                 Cambridge Crystallographic Data Centre
#                                CCDC
#
#######################################################################
#
# If this CIF has been generated from an entry in the Cambridge
# Structural Database, then it will include bibliographic, chemical,
# crystal, experimental, refinement or atomic coordinate data resulting
# from the CCDC's data processing and validation procedures.
#
#######################################################################

data_CSD_CIF_SULCMN
_audit_creation_date 1978-07-28
_audit_creation_method CSD-ConQuest-V1
_database_code_CSD SULCMN
_database_code_depnum_ccdc_archive 'CCDC 1264198'
_chemical_formula_sum 'C12 H18 F6 Mn1 O2 P1 S1'
_chemical_formula_moiety
;
C12 H18 Mn1 O2 S1 1+,F6 P1 1-
;
_journal_coden_Cambridge 4
_journal_volume 100
_journal_year 1978
_journal_page_first 812
_journal_name_full 'J.Am.Chem.Soc. '
loop_
_publ_author_name
"R.D.Adams"
"D.F.Chodosh"
_chemical_name_systematic
;
Dicarbonyl(methylcyclopentadienyl)(ethyl-dimethylsulfonium) manganese 
hexafluorophosphate
;
_chemical_melting_point 384.15
_cell_volume    866.692
_exptl_crystal_density_diffrn 1.637
_exptl_special_details
;
Melting point range 384.15-385.15K

;
_diffrn_ambient_temperature ?
_diffrn_special_details
;
The study was carried out at room temperature,in the range 283-303K

;
#These two values have been output from a single CSD field.
_refine_ls_R_factor_gt 0.064
_refine_ls_wR_factor_gt 0.064
_symmetry_cell_setting triclinic
_symmetry_space_group_name_H-M 'P -1'
_symmetry_Int_Tables_number 2
loop_
_symmetry_equiv_pos_site_id
_symmetry_equiv_pos_as_xyz
1 x,y,z
2 -x,-y,-z
_cell_length_a 8.945(2)
_cell_length_b 9.324(2)
_cell_length_c 10.544(2)
_cell_angle_alpha 92.01(2)
_cell_angle_beta 94.28(2)
_cell_angle_gamma 98.36(2)
_cell_formula_units_Z 2
loop_
_atom_type_symbol
_atom_type_radius_bond
C 0.68
H 0.23
F 0.64
Mn 1.35
O 0.68
P 1.05
S 1.02
loop_
_atom_site_label
_atom_site_type_symbol
_atom_site_fract_x
_atom_site_fract_y
_atom_site_fract_z
Mn1 Mn 0.12130 0.35310 0.19590
S1 S 0.29440 0.21410 0.22190
O1 O 0.29250 0.55360 0.02990
O2 O -0.04460 0.17810 -0.02080
C1 C 0.22630 0.47360 0.09550
C2 C 0.02450 0.24340 0.06240
C3 C 0.09880 0.53110 0.32930
C4 C -0.03620 0.48950 0.24680
C5 C -0.09400 0.34790 0.26690
C6 C -0.00140 0.29590 0.35780
C7 C 0.11800 0.40790 0.39620
C8 C 0.18960 0.67520 0.34530
C9 C 0.37130 0.15650 0.08040
C10 C 0.23990 0.04340 0.29140
C11 C 0.46510 0.28060 0.32740
C12 C 0.53600 0.42890 0.29850
H1 H 0.26600 0.65600 0.38900
H2 H 0.13500 0.74300 0.39200
H3 H 0.20900 0.71800 0.26600
H4 H -0.08300 0.55000 0.19100
H5 H -0.18500 0.29100 0.23500
H6 H -0.01200 0.19700 0.39100
H7 H 0.19900 0.40100 0.45800
H8 H 0.46500 0.09400 0.10900
H9 H 0.26800 0.06300 0.02900
H10 H 0.41900 0.23800 0.02700
H11 H 0.29900 0.00000 0.27700
H12 H 0.19900 0.06300 0.38900
H13 H 0.16600 0.00000 0.22100
H14 H 0.43200 0.28100 0.44300
H15 H 0.53300 0.18800 0.30500
H16 H 0.46500 0.50000 0.30500
H17 H 0.55500 0.43000 0.20900
H18 H 0.62100 0.46200 0.34900
P1 P 0.29410 0.11630 -0.29800
F1 F 0.25750 0.23510 -0.20190
F2 F 0.44680 0.13690 -0.22290
F3 F 0.25080 0.00090 -0.20550
F4 F 0.14150 0.09570 -0.36960
F5 F 0.33780 0.23390 -0.38710
F6 F 0.32980 -0.00270 -0.39070
#END
