
#######################################################################
#
#                 Cambridge Crystallographic Data Centre
#                                CCDC
#
#######################################################################
#
# If this CIF has been generated from an entry in the Cambridge
# Structural Database, then it will include bibliographic, chemical,
# crystal, experimental, refinement or atomic coordinate data resulting
# from the CCDC's data processing and validation procedures.
#
#######################################################################

data_CSD_CIF_SUYQIO
_audit_creation_date 2015-12-24
_audit_creation_method CSD-ConQuest-V1
_database_code_CSD SUYQIO
_database_code_depnum_ccdc_archive 'CCDC 1424688'
_chemical_formula_sum 'C15 H8 Fe1 N2 O3'
_chemical_formula_moiety
;
C15 H8 Fe1 N2 O3
;
_journal_coden_Cambridge 36
_journal_volume 805
_journal_year 2016
_journal_page_first 34
_journal_name_full 'J.Organomet.Chem. '
loop_
_publ_author_name
"Md A.H.Chowdhury"
"Md S.Rahman"
"Md R.Islam"
"Subas Rajbangshi"
"Shishir Ghosh"
"G.Hogarth"
"D.A.Tocher"
"Li Yang"
"M.G.Richmond"
"S.E.Kabir"
_chemical_name_systematic
;
(\h-phenazine)-tricarbonyl-iron
;
_cell_volume    644.380
_exptl_crystal_colour 'orange'
_exptl_crystal_density_diffrn 1.65
_exptl_crystal_description 'block'
_diffrn_ambient_temperature 150.2
#These two values have been output from a single CSD field.
_refine_ls_R_factor_gt 0.0327
_refine_ls_wR_factor_gt 0.0327
_symmetry_cell_setting triclinic
_symmetry_space_group_name_H-M 'P -1'
_symmetry_Int_Tables_number 2
loop_
_symmetry_equiv_pos_site_id
_symmetry_equiv_pos_as_xyz
1 x,y,z
2 -x,-y,-z
_cell_length_a 6.7417(14)
_cell_length_b 9.7046(19)
_cell_length_c 10.249(2)
_cell_angle_alpha 75.491(3)
_cell_angle_beta 86.227(3)
_cell_angle_gamma 83.399(3)
_cell_formula_units_Z 2
loop_
_atom_type_symbol
_atom_type_radius_bond
C 0.68
H 0.23
Fe 1.52
N 0.68
O 0.68
loop_
_atom_site_label
_atom_site_type_symbol
_atom_site_fract_x
_atom_site_fract_y
_atom_site_fract_z
Fe1 Fe 0.61243(3) 0.63154(2) 0.67484(2)
N1 N 0.5312(2) 1.00820(15) 0.78280(15)
N2 N 0.9407(2) 0.94491(15) 0.70594(15)
O1 O 0.2514(2) 0.48111(18) 0.72203(16)
O2 O 0.8506(2) 0.38963(15) 0.59688(14)
O3 O 0.7274(3) 0.58908(16) 0.95508(14)
C1 C 0.3918(3) 0.5384(2) 0.70386(19)
C2 C 0.7577(3) 0.4828(2) 0.62848(18)
C3 C 0.6840(3) 0.60393(19) 0.84703(19)
C4 C 0.8294(3) 0.77898(19) 0.59037(19)
C5 C 0.6843(3) 0.77352(19) 0.49690(18)
C6 C 0.4841(3) 0.80383(19) 0.53492(19)
C7 C 0.4469(3) 0.83789(19) 0.66276(19)
C8 C 0.5887(3) 0.91766(17) 0.70890(17)
C9 C 0.7944(3) 0.88678(17) 0.66992(17)
C10 C 0.8841(3) 1.04094(18) 0.78568(17)
C11 C 0.6820(3) 1.07124(18) 0.82351(17)
C12 C 0.6312(3) 1.16705(19) 0.90659(19)
C13 C 0.7788(3) 1.2290(2) 0.95049(19)
C14 C 0.9794(3) 1.1991(2) 0.91214(19)
C15 C 1.0328(3) 1.10624(19) 0.83126(19)
H1 H 0.493(4) 1.185(3) 0.932(3)
H2 H 0.735(3) 1.289(3) 1.004(2)
H3 H 1.073(3) 1.250(3) 0.942(2)
H4 H 1.166(3) 1.084(2) 0.806(2)
H5 H 0.967(3) 0.746(2) 0.574(2)
H6 H 0.724(3) 0.745(2) 0.415(2)
H7 H 0.374(3) 0.800(2) 0.480(2)
H8 H 0.313(3) 0.848(2) 0.694(2)
#END
