
#######################################################################
#
#                 Cambridge Crystallographic Data Centre
#                                CCDC
#
#######################################################################
#
# If this CIF has been generated from an entry in the Cambridge
# Structural Database, then it will include bibliographic, chemical,
# crystal, experimental, refinement or atomic coordinate data resulting
# from the CCDC's data processing and validation procedures.
#
#######################################################################

data_CSD_CIF_TACNAN
_audit_creation_date 2003-08-14
_audit_creation_method CSD-ConQuest-V1
_database_code_CSD TACNAN
_database_code_depnum_ccdc_archive 'CCDC 190001'
_chemical_formula_sum 'C15 H22 B1 Mn1 O4 P2'
_chemical_formula_moiety
;
C15 H22 B1 Mn1 O4 P2
;
_journal_coden_Cambridge 179
_journal_volume 42
_journal_year 2003
_journal_page_first 1727
_journal_name_full 'Angew.Chem.,Int.Ed. '
loop_
_publ_author_name
"T.Yasue"
"Y.Kawano"
"M.Shimoi"
_chemical_name_systematic
;
(Trimethylphosphineboryl)-tetracarbonyl-(dimethylphenylphosphine)-manganese(i)
;
_cell_volume    955.684
_exptl_crystal_colour 'pale yellow'
_exptl_crystal_density_diffrn 1.369
_exptl_crystal_description 'block'
_exptl_crystal_preparation 'hexane'
_diffrn_ambient_temperature 150
#These two values have been output from a single CSD field.
_refine_ls_R_factor_gt 0.0238
_refine_ls_wR_factor_gt 0.0238
_symmetry_cell_setting triclinic
_symmetry_space_group_name_H-M 'P -1'
_symmetry_Int_Tables_number 2
loop_
_symmetry_equiv_pos_site_id
_symmetry_equiv_pos_as_xyz
1 x,y,z
2 -x,-y,-z
_cell_length_a 10.5746(8)
_cell_length_b 10.6779(9)
_cell_length_c 9.0029(7)
_cell_angle_alpha 109.026(2)
_cell_angle_beta 96.043(3)
_cell_angle_gamma 88.092(2)
_cell_formula_units_Z 2
loop_
_atom_type_symbol
_atom_type_radius_bond
C 0.68
H 0.23
B 0.83
Mn 1.35
O 0.68
P 1.05
loop_
_atom_site_label
_atom_site_type_symbol
_atom_site_fract_x
_atom_site_fract_y
_atom_site_fract_z
Mn1 Mn 0.67312(2) 0.30413(2) 0.22513(2)
P1 P 0.63752(3) 0.19661(3) 0.40078(4)
P2 P 0.99516(3) 0.27198(4) 0.13546(4)
O1 O 0.70932(13) 0.44619(12) 0.00268(14)
O2 O 0.80382(14) 0.52323(12) 0.48142(14)
O3 O 0.66828(12) 0.05284(12) -0.04299(14)
O4 O 0.40710(11) 0.39619(13) 0.2255(2)
C1 C 0.69770(14) 0.38973(14) 0.0893(2)
C2 C 0.75123(15) 0.43777(15) 0.3849(2)
C3 C 0.66772(14) 0.14867(15) 0.0635(2)
C4 C 0.51010(14) 0.35851(14) 0.2269(2)
C5 C 0.4705(2) 0.1769(2) 0.4206(2)
C6 C 0.6986(2) 0.2787(2) 0.6045(2)
C7 C 0.69431(13) 0.02717(14) 0.3628(2)
C8 C 0.7963(2) -0.0052(2) 0.4527(2)
C9 C 0.8339(2) -0.1364(2) 0.4219(2)
C10 C 0.7713(2) -0.2349(2) 0.3010(2)
C11 C 0.6721(2) -0.2047(2) 0.2088(2)
C12 C 0.6334(2) -0.0741(2) 0.2393(2)
C13 C 1.0222(2) 0.4469(2) 0.1818(2)
C14 C 0.9583(2) 0.2082(2) -0.0759(2)
C15 C 1.1497(2) 0.2049(2) 0.1692(3)
B1 B 0.87681(15) 0.2226(2) 0.2515(2)
H1 H 0.9175(18) 0.2554(19) 0.3732(23)
H2 H 0.8786(19) 0.112(2) 0.2025(24)
H3 H 0.8369(17) 0.0595(19) 0.5310(22)
H4 H 0.9034(23) -0.1504(24) 0.4856(28)
H5 H 0.7952(21) -0.3227(23) 0.2835(26)
H6 H 0.6316(21) -0.2714(23) 0.1253(27)
H7 H 0.5629(20) -0.0522(20) 0.1769(24)
H8 H 0.4637(20) 0.1290(22) 0.4969(26)
H9 H 0.4387(22) 0.2574(24) 0.4646(27)
H10 H 0.4290(22) 0.1285(23) 0.3150(29)
H11 H 0.7900(24) 0.2877(23) 0.6127(27)
H12 H 0.6784(20) 0.2271(21) 0.6727(26)
H13 H 0.6603(22) 0.3595(25) 0.6377(27)
H14 H 1.0346(21) 0.4851(22) 0.2933(28)
H15 H 0.9477(20) 0.4877(21) 0.1422(24)
H16 H 1.0922(20) 0.4599(21) 0.1328(25)
H17 H 1.0226(24) 0.2262(24) -0.1288(28)
H18 H 0.9503(23) 0.1166(27) -0.1081(29)
H19 H 0.8781(25) 0.2421(25) -0.1027(29)
H20 H 1.1767(23) 0.2366(24) 0.2746(31)
H21 H 1.1434(21) 0.1099(24) 0.1431(26)
H22 H 1.2036(25) 0.2228(25) 0.1064(30)
#END
