
#######################################################################
#
#                 Cambridge Crystallographic Data Centre
#                                CCDC
#
#######################################################################
#
# If this CIF has been generated from an entry in the Cambridge
# Structural Database, then it will include bibliographic, chemical,
# crystal, experimental, refinement or atomic coordinate data resulting
# from the CCDC's data processing and validation procedures.
#
#######################################################################

data_CSD_CIF_TADQUN
_audit_creation_date 2016-02-10
_audit_creation_method CSD-ConQuest-V1
_database_code_CSD TADQUN
_database_code_depnum_ccdc_archive 'CCDC 1431574'
_chemical_formula_sum 'C28 H26 Fe1 N4 O12'
_chemical_formula_moiety
;
C28 H26 Fe1 N4 O12
;
_journal_coden_Cambridge 1186
_journal_volume 28
_journal_year 2016
_journal_page_first 151
_journal_name_full 'Supramol.Chem. '
loop_
_publ_author_name
"V.Nicholas Vukotic"
"S.J.Loeb"
_chemical_name_systematic
;
diaqua-bis(hydrogen fumarato)-bis(4-(pyridin-4-yl)pyridin-1-oxido)-iron(ii)
;
_cell_volume    661.650
_exptl_crystal_colour 'yellow'
_exptl_crystal_density_diffrn 1.667
_exptl_crystal_description 'block'
_diffrn_ambient_temperature 173
#These two values have been output from a single CSD field.
_refine_ls_R_factor_gt 0.029
_refine_ls_wR_factor_gt 0.029
_symmetry_cell_setting triclinic
_symmetry_space_group_name_H-M 'P -1'
_symmetry_Int_Tables_number 2
loop_
_symmetry_equiv_pos_site_id
_symmetry_equiv_pos_as_xyz
1 x,y,z
2 -x,-y,-z
_cell_length_a 5.2195(8)
_cell_length_b 7.1916(12)
_cell_length_c 18.433(3)
_cell_angle_alpha 79.6072(17)
_cell_angle_beta 84.7505(18)
_cell_angle_gamma 76.7947(18)
_cell_formula_units_Z 1
loop_
_atom_type_symbol
_atom_type_radius_bond
C 0.68
H 0.23
Fe 1.52
N 0.68
O 0.68
loop_
_atom_site_label
_atom_site_type_symbol
_atom_site_fract_x
_atom_site_fract_y
_atom_site_fract_z
Fe1 Fe 1.00000 0.00000 0.00000
O1 O 1.1640(2) 0.22746(18) 0.02775(6)
O2 O 0.8381(2) -0.07349(18) 0.10795(6)
O3 O 1.1851(2) -0.25412(19) 0.16959(7)
O4 O 0.4365(2) -0.1192(2) 0.36623(7)
O5 O 0.7913(3) -0.2842(2) 0.42752(7)
H1 H 0.68930 -0.28560 0.46620
O6 O 1.3383(2) -0.21291(18) 0.02758(7)
H2 H 1.49670 -0.20990 0.01280
H3 H 1.34100 -0.23500 0.07440
N1 N 1.0812(3) 0.2684(2) 0.09523(8)
N2 N 0.5005(3) 0.3130(2) 0.45266(8)
C1 C 0.8433(3) 0.3861(3) 0.10403(10)
H4 H 0.74800 0.45260 0.06210
C2 C 0.7390(3) 0.4098(3) 0.17376(10)
H5 H 0.57090 0.49250 0.17960
C3 C 0.8764(3) 0.3140(2) 0.2363(1)
C4 C 1.1301(4) 0.2056(3) 0.22384(10)
H6 H 1.23540 0.14540 0.26460
C5 C 1.2293(3) 0.1853(3) 0.15314(10)
H7 H 1.40280 0.11230 0.14530
C6 C 0.7512(3) 0.3195(2) 0.31165(10)
C7 C 0.4979(4) 0.4285(3) 0.32291(10)
H8 H 0.40590 0.50770 0.28230
C8 C 0.3810(4) 0.4211(3) 0.39335(10)
H9 H 0.20800 0.49610 0.39990
C9 C 0.7452(4) 0.2115(3) 0.44247(10)
H10 H 0.83350 0.13640 0.48440
C10 C 0.8764(4) 0.2102(3) 0.37403(10)
H11 H 1.05060 0.13540 0.36940
C11 C 0.9479(3) -0.1705(3) 0.16568(9)
C12 C 0.7699(3) -0.1760(2) 0.2342(1)
H12 H 0.58780 -0.16790 0.22940
C13 C 0.8545(4) -0.1916(3) 0.30116(10)
H13 H 1.03670 -0.20240 0.30670
C14 C 0.6713(4) -0.1925(3) 0.3677(1)
O1A O 0.8360(2) -0.22746(18) -0.02775(6)
O2A O 1.1619(2) 0.07349(18) -0.10795(6)
O3A O 0.8149(2) 0.25412(19) -0.16959(7)
O4A O 1.5635(2) 0.1192(2) -0.36623(7)
O5A O 1.2087(3) 0.2842(2) -0.42752(7)
H1A H 1.31070 0.28560 -0.46620
O6A O 0.6617(2) 0.21291(18) -0.02758(7)
H2A H 0.50330 0.20990 -0.01280
H3A H 0.65900 0.23500 -0.07440
N1A N 0.9188(3) -0.2684(2) -0.09523(8)
N2A N 1.4995(3) -0.3130(2) -0.45266(8)
C1A C 1.1567(3) -0.3861(3) -0.10403(10)
H4A H 1.25200 -0.45260 -0.06210
C2A C 1.2610(3) -0.4098(3) -0.17376(10)
H5A H 1.42910 -0.49250 -0.17960
C3A C 1.1236(3) -0.3140(2) -0.2363(1)
C4A C 0.8699(4) -0.2056(3) -0.22384(10)
H6A H 0.76460 -0.14540 -0.26460
C5A C 0.7707(3) -0.1853(3) -0.15314(10)
H7A H 0.59720 -0.11230 -0.14530
C6A C 1.2488(3) -0.3195(2) -0.31165(10)
C7A C 1.5021(4) -0.4285(3) -0.32291(10)
H8A H 1.59410 -0.50770 -0.28230
C8A C 1.6190(4) -0.4211(3) -0.39335(10)
H9A H 1.79200 -0.49610 -0.39990
C9A C 1.2548(4) -0.2115(3) -0.44247(10)
H10A H 1.16650 -0.13640 -0.48440
C10A C 1.1236(4) -0.2102(3) -0.37403(10)
H11A H 0.94940 -0.13540 -0.36940
C11A C 1.0521(3) 0.1705(3) -0.16568(9)
C12A C 1.2301(3) 0.1760(2) -0.2342(1)
H12A H 1.41220 0.16790 -0.22940
C13A C 1.1455(4) 0.1916(3) -0.30116(10)
H13A H 0.96330 0.20240 -0.30670
C14A C 1.3287(4) 0.1925(3) -0.3677(1)
#END
