
#######################################################################
#
#                 Cambridge Crystallographic Data Centre
#                                CCDC
#
#######################################################################
#
# If this CIF has been generated from an entry in the Cambridge
# Structural Database, then it will include bibliographic, chemical,
# crystal, experimental, refinement or atomic coordinate data resulting
# from the CCDC's data processing and validation procedures.
#
#######################################################################

data_CSD_CIF_TAFREX
_audit_creation_date 1991-05-01
_audit_creation_method CSD-ConQuest-V1
_database_code_CSD TAFREX
_chemical_formula_sum 'C15 H31 Mn1 O2 P2 S2'
_chemical_formula_moiety
;
C15 H31 Mn1 O2 P2 S2
;
_journal_coden_Cambridge 186
_journal_year 1990
_journal_page_first 2719
_journal_name_full 'J.Chem.Soc.,Dalton Trans. '
loop_
_publ_author_name
"D.Miguel"
"V.Riera"
"J.A.Miguel"
"F.Diego"
"C.Bois"
"Y.Jeannin"
_chemical_name_systematic
;
Dicarbonyl-(dithioformato-S,S')-bis(triethylphosphine)-manganese
;
_cell_volume   2151.419
_exptl_crystal_colour 'red'
_exptl_crystal_density_diffrn 1.31
_diffrn_ambient_temperature ?
_diffrn_special_details
;
The study was carried out at room temperature,in the range 283-303K

;
#These two values have been output from a single CSD field.
_refine_ls_R_factor_gt 0.031
_refine_ls_wR_factor_gt 0.031
_symmetry_cell_setting orthorhombic
_symmetry_space_group_name_H-M 'C 2 c b'
_symmetry_Int_Tables_number 41
loop_
_symmetry_equiv_pos_site_id
_symmetry_equiv_pos_as_xyz
1 x,y,z
2 1/2+x,1/2+y,z
3 x,1/2-y,1/2+z
4 1/2+x,-y,1/2+z
5 x,1/2+y,1/2-z
6 1/2+x,y,1/2-z
7 x,-y,-z
8 1/2+x,1/2-y,-z
_cell_length_a 11.230(4)
_cell_length_b 13.499(6)
_cell_length_c 14.192(2)
_cell_angle_alpha 90
_cell_angle_beta 90
_cell_angle_gamma 90
_cell_formula_units_Z 4
loop_
_atom_type_symbol
_atom_type_radius_bond
C 0.68
H 0.23
Mn 1.35
O 0.68
P 1.05
S 1.02
loop_
_atom_site_label
_atom_site_type_symbol
_atom_site_fract_x
_atom_site_fract_y
_atom_site_fract_z
Mn1 Mn 0.00010 0.00000 0.00000
P1 P -0.0007(2) -0.12272(7) 0.11228(7)
S1 S 0.1761(2) 0.0713(2) 0.0716(2)
O1 O -0.1885(5) -0.1032(3) -0.1021(3)
C1 C -0.1090(5) -0.0641(4) -0.0646(4)
C2 C 0.254(1) 0.00000 0.00000
C3 C 0.0668(7) -0.0942(6) 0.2277(5)
C4 C 0.013(1) -0.0054(8) 0.2783(6)
C5 C 0.0752(5) -0.2408(4) 0.0855(5)
C6 C 0.0298(7) -0.2941(5) 0.0009(6)
C7 C -0.1520(4) -0.1635(4) 0.1436(4)
C8 C -0.1599(8) -0.2396(5) 0.2222(6)
H1 H 0.366(4) 0.00000 0.00000
H2 H 0.128(7) -0.090(6) 0.216(6)
H3 H 0.056(7) -0.143(4) 0.262(5)
H4 H 0.021(9) 0.050(4) 0.242(5)
H5 H 0.045(5) -0.003(5) 0.348(4)
H6 H -0.048(8) -0.010(7) 0.292(6)
H7 H 0.136(7) -0.230(5) 0.089(6)
H8 H 0.072(6) -0.283(4) 0.148(5)
H9 H 0.072(6) -0.364(4) -0.018(5)
H10 H 0.016(8) -0.265(4) -0.062(4)
H11 H -0.025(8) -0.317(5) 0.003(6)
H12 H -0.190(7) -0.199(5) 0.089(5)
H13 H -0.189(7) -0.098(5) 0.176(4)
H14 H -0.140(7) -0.214(5) 0.279(5)
H15 H -0.236(8) -0.262(5) 0.230(5)
H16 H -0.124(7) -0.296(5) 0.210(5)
P1F P -0.0007(2) 0.12272(7) -0.11228(7)
S1F S 0.1761(2) -0.0713(2) -0.0716(2)
C1F C -0.1090(5) 0.0641(4) 0.0646(4)
C3F C 0.0668(7) 0.0942(6) -0.2277(5)
C5F C 0.0752(5) 0.2408(4) -0.0855(5)
C7F C -0.1520(4) 0.1635(4) -0.1436(4)
O1F O -0.1885(5) 0.1032(3) 0.1021(3)
C4F C 0.013(1) 0.0054(8) -0.2783(6)
H2F H 0.128(7) 0.090(6) -0.216(6)
H3F H 0.056(7) 0.143(4) -0.262(5)
C6F C 0.0298(7) 0.2941(5) -0.0009(6)
H7F H 0.136(7) 0.230(5) -0.089(6)
H8F H 0.072(6) 0.283(4) -0.148(5)
C8F C -0.1599(8) 0.2396(5) -0.2222(6)
H12F H -0.190(7) 0.199(5) -0.089(5)
H13F H -0.189(7) 0.098(5) -0.176(4)
H4F H 0.021(9) -0.050(4) -0.242(5)
H5F H 0.045(5) 0.003(5) -0.348(4)
H6F H -0.048(8) 0.010(7) -0.292(6)
H9F H 0.072(6) 0.364(4) 0.018(5)
H10F H 0.016(8) 0.265(4) 0.062(4)
H11F H -0.025(8) 0.317(5) -0.003(6)
H14F H -0.140(7) 0.214(5) -0.279(5)
H15F H -0.236(8) 0.262(5) -0.230(5)
H16F H -0.124(7) 0.296(5) -0.210(5)
#END
