
#######################################################################
#
#                 Cambridge Crystallographic Data Centre
#                                CCDC
#
#######################################################################
#
# If this CIF has been generated from an entry in the Cambridge
# Structural Database, then it will include bibliographic, chemical,
# crystal, experimental, refinement or atomic coordinate data resulting
# from the CCDC's data processing and validation procedures.
#
#######################################################################

data_CSD_CIF_TAKDEQ
_audit_creation_date 2011-03-21
_audit_creation_method CSD-ConQuest-V1
_database_code_CSD TAKDEQ
_database_code_depnum_ccdc_archive 'CCDC 763989'
_chemical_formula_sum 'C7 H10 F2 Mn1 N1 O6'
_chemical_formula_moiety
;
C5 H6 N1 1+,C2 H4 F2 Mn1 O6 1-
;
_journal_coden_Cambridge 29
_journal_volume 636
_journal_year 2010
_journal_page_first 1687
_journal_name_full 'Z.Anorg.Allg.Chem. '
loop_
_publ_author_name
"R.Leo"
"W.Massa"
_chemical_name_systematic
;
Pyridinium diaqua-difluoro-(oxalato-O,O')-manganese(iii)
;
_cell_volume   1080.759
_exptl_crystal_colour 'red'
_exptl_crystal_density_diffrn 1.826
_exptl_crystal_description 'block'
_diffrn_ambient_temperature 223
#These two values have been output from a single CSD field.
_refine_ls_R_factor_gt 0.0297
_refine_ls_wR_factor_gt 0.0297
_symmetry_cell_setting monoclinic
_symmetry_space_group_name_H-M 'I 2/a'
_symmetry_Int_Tables_number 15
loop_
_symmetry_equiv_pos_site_id
_symmetry_equiv_pos_as_xyz
1 x,y,z
2 1/2-x,y,-z
3 1/2+x,1/2+y,1/2+z
4 -x,1/2+y,1/2-z
5 -x,-y,-z
6 -1/2+x,-y,z
7 -1/2-x,-1/2-y,-1/2-z
8 x,-1/2-y,-1/2+z
_cell_length_a 7.2260(5)
_cell_length_b 15.2398(8)
_cell_length_c 9.916(7)
_cell_angle_alpha 90
_cell_angle_beta 98.22(5)
_cell_angle_gamma 90
_cell_formula_units_Z 4
loop_
_atom_type_symbol
_atom_type_radius_bond
C 0.68
H 0.23
F 0.64
Mn 1.58
N 0.68
O 0.68
loop_
_atom_site_label
_atom_site_type_symbol
_atom_site_fract_x
_atom_site_fract_y
_atom_site_fract_z
Mn1 Mn 0.25000 0.120364(18) 0.50000
F1 F 0.36112(15) 0.03868(6) 0.6204(1)
O1 O 0.50140(17) 0.12217(7) 0.39547(11)
H1 H 0.460(3) 0.1319(14) 0.3122(7)
H2 H 0.552(3) 0.0717(7) 0.400(2)
C1 C 0.3114(2) 0.29283(8) 0.57058(14)
O2 O 0.35175(15) 0.21578(6) 0.61825(10)
O3 O 0.36033(18) 0.36261(7) 0.62485(11)
N1 N 0.25000 0.52860(12) 0.50000
H3 H 0.25000 0.47150 0.50000
C2 C 0.1710(3) 0.57071(12) 0.3884(2)
H4 H 0.11740 0.53890 0.31130
C3 C 0.1685(3) 0.66099(12) 0.38696(19)
H5 H 0.11160 0.69140 0.30950
C4 C 0.25000 0.70631(14) 0.50000
H6 H 0.25000 0.76800 0.50000
F1A F 0.13888(15) 0.03868(6) 0.3796(1)
O1A O -0.00140(17) 0.12217(7) 0.60453(11)
H1A H 0.040(3) 0.1319(14) 0.6878(7)
H2A H -0.052(3) 0.0717(7) 0.600(2)
C1A C 0.1886(2) 0.29283(8) 0.42942(14)
O2A O 0.14825(15) 0.21578(6) 0.38175(10)
O3A O 0.13967(18) 0.36261(7) 0.37515(11)
C2A C 0.3290(3) 0.57071(12) 0.6116(2)
H4A H 0.38260 0.53890 0.68870
C3A C 0.3315(3) 0.66099(12) 0.61304(19)
H5A H 0.38840 0.69140 0.69050
#END
