
#######################################################################
#
#                 Cambridge Crystallographic Data Centre
#                                CCDC
#
#######################################################################
#
# If this CIF has been generated from an entry in the Cambridge
# Structural Database, then it will include bibliographic, chemical,
# crystal, experimental, refinement or atomic coordinate data resulting
# from the CCDC's data processing and validation procedures.
#
#######################################################################

data_CSD_CIF_TAKZOV
_audit_creation_date 2003-10-23
_audit_creation_method CSD-ConQuest-V1
_database_code_CSD TAKZOV
_database_code_depnum_ccdc_archive 'CCDC 221628'
_chemical_formula_sum 'C4 H18 Cl4 Mn1 N8 O4'
_chemical_formula_moiety
;
2(C2 H7 N4 O1 1+),H4 Cl4 Mn1 O2 2-
;
_journal_coeditor_code "IUCr CF6272"
_journal_coden_Cambridge 1370
_journal_volume 59
_journal_year 2003
_journal_page_first m596
_journal_name_full 'Acta Crystallogr.,Sect.E:Struct.Rep.Online '
loop_
_publ_author_name
"C.A.Bremner"
"W.T.A.Harrison"
_chemical_name_systematic
;
bis(1-Carbamoylguanidinium) trans-diaqua-tetrachloro-manganese(ii)
;
_cell_volume    822.490
_exptl_crystal_colour 'colorless'
_exptl_crystal_density_diffrn 1.773
_exptl_special_details
;
isostructural with the Cu and Co analogues

;
_exptl_crystal_description 'block'
_diffrn_ambient_temperature 293
#These two values have been output from a single CSD field.
_refine_ls_R_factor_gt 0.0311
_refine_ls_wR_factor_gt 0.0311
_symmetry_cell_setting monoclinic
_symmetry_space_group_name_H-M 'P 21/n'
_symmetry_Int_Tables_number 14
loop_
_symmetry_equiv_pos_site_id
_symmetry_equiv_pos_as_xyz
1 x,y,z
2 1/2-x,1/2+y,1/2-z
3 -x,-y,-z
4 -1/2+x,-1/2-y,-1/2+z
_cell_length_a 6.4106(3)
_cell_length_b 11.4036(6)
_cell_length_c 11.5775(6)
_cell_angle_alpha 90
_cell_angle_beta 103.640(1)
_cell_angle_gamma 90
_cell_formula_units_Z 2
loop_
_atom_type_symbol
_atom_type_radius_bond
C 0.68
H 0.23
Cl 0.99
Mn 1.35
N 0.68
O 0.68
loop_
_atom_site_label
_atom_site_type_symbol
_atom_site_fract_x
_atom_site_fract_y
_atom_site_fract_z
Mn1 Mn 0.00000 0.50000 0.00000
Cl1 Cl 0.00427(7) 0.49621(3) 0.21671(3)
Cl2 Cl 0.31918(6) 0.64019(3) 0.04754(3)
O1 O 0.24682(17) 0.36239(9) 0.03072(9)
H1 H 0.21700 0.29770 0.00930
H2 H 0.35900 0.38090 0.00450
O2 O 0.70236(19) 0.3542(1) 0.44553(10)
N1 N 0.4764(2) 0.29980(12) 0.27397(11)
H3 H 0.49650 0.22620 0.28870
H4 H 0.39060 0.32230 0.20900
N2 N 0.5298(2) 0.49315(10) 0.31684(11)
H5 H 0.43040 0.50440 0.25350
N3 N 0.5662(2) 0.69142(12) 0.32318(12)
H6 H 0.62070 0.75520 0.35700
H7 H 0.47330 0.69420 0.25620
N4 N 0.7653(2) 0.58247(13) 0.47515(11)
H8 H 0.82180 0.64520 0.51050
H9 H 0.80160 0.51500 0.50680
C1 C 0.5773(2) 0.37802(13) 0.35087(13)
C2 C 0.6251(2) 0.58967(13) 0.37387(13)
Cl1B Cl -0.00427(7) 0.50379(3) -0.21671(3)
Cl2B Cl -0.31918(6) 0.35981(3) -0.04754(3)
O1B O -0.24682(17) 0.63761(9) -0.03072(9)
H1B H -0.21700 0.70230 -0.00930
H2B H -0.35900 0.61910 -0.00450
#END
