
#######################################################################
#
#                 Cambridge Crystallographic Data Centre
#                                CCDC
#
#######################################################################
#
# If this CIF has been generated from an entry in the Cambridge
# Structural Database, then it will include bibliographic, chemical,
# crystal, experimental, refinement or atomic coordinate data resulting
# from the CCDC's data processing and validation procedures.
#
#######################################################################

data_CSD_CIF_TAMDAM
_audit_creation_date 1992-02-25
_audit_creation_method CSD-ConQuest-V1
_database_code_CSD TAMDAM
_chemical_formula_sum 'C12 H16 Mn1 N1 O3'
_chemical_formula_moiety
;
C12 H16 Mn1 N1 O3
;
_journal_coden_Cambridge 579
_journal_volume 10
_journal_year 1991
_journal_page_first 2616
_journal_name_full 'Organometallics '
loop_
_publ_author_name
"N.Z.Villarreal"
"M.A.Paz-Sandoval"
"P.Joseph-Nathan"
"R.O.Esquivel"
_chemical_name_systematic
;
(1-Pyrrolidyl-\h^3^-pentenyl)-tricarbonyl-manganese
;
_chemical_melting_point 323.15
_cell_volume    670.662
_exptl_crystal_colour 'yellow'
_exptl_crystal_density_diffrn 1.37
_exptl_special_details
;
Melting point range 323.15-324.15K

;
_diffrn_ambient_temperature ?
_diffrn_special_details
;
The study was carried out at room temperature,in the range 283-303K

;
#These two values have been output from a single CSD field.
_refine_ls_R_factor_gt 0.079
_refine_ls_wR_factor_gt 0.079
_symmetry_cell_setting triclinic
_symmetry_space_group_name_H-M 'P -1'
_symmetry_Int_Tables_number 2
loop_
_symmetry_equiv_pos_site_id
_symmetry_equiv_pos_as_xyz
1 x,y,z
2 -x,-y,-z
_cell_length_a 8.025(3)
_cell_length_b 9.205(4)
_cell_length_c 9.374(4)
_cell_angle_alpha 90.32(4)
_cell_angle_beta 91.41(3)
_cell_angle_gamma 104.33(3)
_cell_formula_units_Z 2
loop_
_atom_type_symbol
_atom_type_radius_bond
C 0.68
H 0.23
Mn 1.35
N 0.68
O 0.68
loop_
_atom_site_label
_atom_site_type_symbol
_atom_site_fract_x
_atom_site_fract_y
_atom_site_fract_z
Mn1 Mn 0.1827(2) 0.1329(2) 0.2331(1)
N1 N 0.2087(8) -0.0859(8) 0.2680(7)
C1 C 0.2018(12) -0.0514(11) 0.1197(10)
C2 C 0.3229(11) 0.0641(10) 0.0688(8)
C3 C 0.4468(11) 0.1626(10) 0.1588(10)
C4 C 0.5590(13) 0.3064(12) 0.1035(11)
C5 C 0.6303(14) 0.4236(12) 0.2166(12)
C6 C 0.3623(12) -0.1412(11) 0.3215(11)
C7 C 0.0567(12) -0.1974(10) 0.3210(11)
C8 C 0.3023(15) -0.3087(12) 0.3361(15)
C9 C 0.1098(16) -0.3398(14) 0.3515(18)
C10 C -0.0430(11) 0.0861(10) 0.2674(9)
O1 O -0.1869(9) 0.0671(9) 0.2931(8)
C11 C 0.1472(12) 0.2901(10) 0.1389(10)
O2 O 0.1204(11) 0.3897(8) 0.0743(9)
C12 C 0.2592(11) 0.2400(11) 0.3941(11)
O3 O 0.3097(9) 0.3075(10) 0.4978(8)
H1 H 0.1229(87) -0.1090(74) 0.0715(71)
H2 H 0.317(15) 0.095(13) -0.011(12)
H3 H 0.5008(83) 0.1304(71) 0.2327(70)
H4 H 0.48280 0.35350 0.02710
H5 H 0.66680 0.27980 0.04960
H6 H 0.71630 0.38260 0.28900
H7 H 0.52480 0.44700 0.27630
H8 H 0.70130 0.52610 0.16640
H9 H 0.40830 -0.08950 0.42460
H10 H 0.46550 -0.11340 0.24530
H11 H 0.01250 -0.15510 0.41820
H12 H -0.04650 -0.21870 0.24000
H13 H 0.33290 -0.36530 0.24150
H14 H 0.36220 -0.34580 0.43010
H15 H 0.07610 -0.37560 0.45990
H16 H 0.04510 -0.42750 0.27610
#END
