
#######################################################################
#
#                 Cambridge Crystallographic Data Centre
#                                CCDC
#
#######################################################################
#
# If this CIF has been generated from an entry in the Cambridge
# Structural Database, then it will include bibliographic, chemical,
# crystal, experimental, refinement or atomic coordinate data resulting
# from the CCDC's data processing and validation procedures.
#
#######################################################################

data_CSD_CIF_TAMSUY
_audit_creation_date 2017-03-27
_audit_creation_method CSD-ConQuest-V1
_database_code_CSD TAMSUY
_database_code_depnum_ccdc_archive 'CCDC 1534666'
_chemical_formula_sum 'C30 H32 Br6 Fe1 N6 O4 Re1'
_chemical_formula_moiety
;
C30 H32 Fe1 N6 O4 2+,Br6 Re1 2-
;
_journal_coden_Cambridge 222
_journal_volume 46
_journal_year 2017
_journal_page_first 5250
_journal_name_full 'Dalton Trans. '
loop_
_publ_author_name
"A.H.Pedersen"
"B.L.Geoghegan"
"G.S.Nichol"
"D.W.Lupton"
"K.S.Murray"
"J.Martinez-Lillo"
"I.A.Gass"
"E.K.Brechin"
_chemical_name_systematic
;
bis(4,4-dimethyl-2,2-bis(pyridin-2-yl)-1,3-oxazolidine N-oxyl 
radical)-iron(ii) hexabromo-rhenium(iv)
;
_cell_volume    887.724
_exptl_crystal_colour 'dark green'
_exptl_crystal_density_diffrn 2.361
_exptl_crystal_description 'plate'
_diffrn_ambient_temperature 120
#These two values have been output from a single CSD field.
_refine_ls_R_factor_gt 0.0493
_refine_ls_wR_factor_gt 0.0493
_symmetry_cell_setting triclinic
_symmetry_space_group_name_H-M 'P -1'
_symmetry_Int_Tables_number 2
loop_
_symmetry_equiv_pos_site_id
_symmetry_equiv_pos_as_xyz
1 x,y,z
2 -x,-y,-z
_cell_length_a 8.0539(4)
_cell_length_b 10.6650(6)
_cell_length_c 11.0535(7)
_cell_angle_alpha 105.576(5)
_cell_angle_beta 101.890(5)
_cell_angle_gamma 93.681(4)
_cell_formula_units_Z 1
loop_
_atom_type_symbol
_atom_type_radius_bond
C 0.68
H 0.23
Br 1.21
Fe 1.52
N 0.68
O 0.68
Re 1.51
loop_
_atom_site_label
_atom_site_type_symbol
_atom_site_fract_x
_atom_site_fract_y
_atom_site_fract_z
Re1 Re 0.50000 0.50000 0.50000
Br1 Br 0.46393(8) 0.25944(6) 0.38220(6)
Br2 Br 0.21879(8) 0.52298(6) 0.36612(6)
Br3 Br 0.64869(8) 0.55107(6) 0.33565(6)
Fe1 Fe 0.00000 0.00000 0.00000
O1 O -0.2248(5) 0.0346(4) -0.0507(4)
O2 O -0.2239(5) 0.1339(4) -0.3282(4)
N1 N 0.0813(6) 0.1656(5) -0.0272(5)
N2 N 0.0087(6) -0.0887(5) -0.1813(5)
N3 N -0.2707(6) 0.0584(5) -0.1629(5)
C1 C 0.2068(7) 0.2535(6) 0.0583(6)
H1 H 0.26040 0.23490 0.13330
C2 C 0.2583(8) 0.3695(6) 0.0385(6)
H2 H 0.34580 0.42860 0.09910
C3 C 0.1788(8) 0.3982(6) -0.0729(6)
H3 H 0.21310 0.47650 -0.08790
C4 C 0.0478(8) 0.3095(6) -0.1614(6)
H4 H -0.00810 0.32730 -0.23620
C5 C 0.0023(7) 0.1939(6) -0.1357(6)
C6 C 0.0803(7) -0.1996(6) -0.2154(6)
H5 H 0.12760 -0.23720 -0.15160
C7 C 0.0863(8) -0.2594(6) -0.3412(6)
H6 H 0.13910 -0.33480 -0.36170
C8 C 0.0126(8) -0.2053(6) -0.4358(6)
H7 H 0.01400 -0.24440 -0.52150
C9 C -0.0635(7) -0.0928(6) -0.4029(6)
H8 H -0.11540 -0.05570 -0.46590
C10 C -0.0613(7) -0.0366(6) -0.2756(6)
C11 C -0.1379(7) 0.0890(6) -0.2279(6)
C12 C -0.4046(8) 0.1310(7) -0.3274(6)
H9 H -0.46960 0.05210 -0.38990
H10 H -0.44890 0.20670 -0.34900
C13 C -0.4182(8) 0.1332(6) -0.1908(6)
C14 C -0.5820(8) 0.0596(6) -0.1873(6)
H11 H -0.59510 -0.02850 -0.24290
H12 H -0.67680 0.10280 -0.21610
H13 H -0.57850 0.05740 -0.10050
C15 C -0.3846(8) 0.2732(6) -0.0984(6)
H14 H -0.37470 0.26940 -0.01150
H15 H -0.47790 0.32050 -0.12120
H16 H -0.28040 0.31700 -0.10490
Br1A Br 0.53607(8) 0.74056(6) 0.61780(6)
Br2A Br 0.78121(8) 0.47702(6) 0.63388(6)
Br3A Br 0.35131(8) 0.44893(6) 0.66435(6)
O1A O 0.2248(5) -0.0346(4) 0.0507(4)
O2A O 0.2239(5) -0.1339(4) 0.3282(4)
N1A N -0.0813(6) -0.1656(5) 0.0272(5)
N2A N -0.0087(6) 0.0887(5) 0.1813(5)
N3A N 0.2707(6) -0.0584(5) 0.1629(5)
C1A C -0.2068(7) -0.2535(6) -0.0583(6)
H1A H -0.26040 -0.23490 -0.13330
C2A C -0.2583(8) -0.3695(6) -0.0385(6)
H2A H -0.34580 -0.42860 -0.09910
C3A C -0.1788(8) -0.3982(6) 0.0729(6)
H3A H -0.21310 -0.47650 0.08790
C4A C -0.0478(8) -0.3095(6) 0.1614(6)
H4A H 0.00810 -0.32730 0.23620
C5A C -0.0023(7) -0.1939(6) 0.1357(6)
C6A C -0.0803(7) 0.1996(6) 0.2154(6)
H5A H -0.12760 0.23720 0.15160
C7A C -0.0863(8) 0.2594(6) 0.3412(6)
H6A H -0.13910 0.33480 0.36170
C8A C -0.0126(8) 0.2053(6) 0.4358(6)
H7A H -0.01400 0.24440 0.52150
C9A C 0.0635(7) 0.0928(6) 0.4029(6)
H8A H 0.11540 0.05570 0.46590
C10A C 0.0613(7) 0.0366(6) 0.2756(6)
C11A C 0.1379(7) -0.0890(6) 0.2279(6)
C12A C 0.4046(8) -0.1310(7) 0.3274(6)
H9A H 0.46960 -0.05210 0.38990
H10A H 0.44890 -0.20670 0.34900
C13A C 0.4182(8) -0.1332(6) 0.1908(6)
C14A C 0.5820(8) -0.0596(6) 0.1873(6)
H11A H 0.59510 0.02850 0.24290
H12A H 0.67680 -0.10280 0.21610
H13A H 0.57850 -0.05740 0.10050
C15A C 0.3846(8) -0.2732(6) 0.0984(6)
H14A H 0.37470 -0.26940 0.01150
H15A H 0.47790 -0.32050 0.12120
H16A H 0.28040 -0.31700 0.10490
#END
