
#######################################################################
#
#                 Cambridge Crystallographic Data Centre
#                                CCDC
#
#######################################################################
#
# If this CIF has been generated from an entry in the Cambridge
# Structural Database, then it will include bibliographic, chemical,
# crystal, experimental, refinement or atomic coordinate data resulting
# from the CCDC's data processing and validation procedures.
#
#######################################################################

data_CSD_CIF_TAMTUZ
_audit_creation_date 2017-03-27
_audit_creation_method CSD-ConQuest-V1
_database_code_CSD TAMTUZ
_database_code_depnum_ccdc_archive 'CCDC 1534671'
_chemical_formula_sum 'C30 H32 Br6 Co1 N6 O4 Re1'
_chemical_formula_moiety
;
C30 H32 Co1 N6 O4 2+,Br6 Re1 2-
;
_journal_coden_Cambridge 222
_journal_volume 46
_journal_year 2017
_journal_page_first 5250
_journal_name_full 'Dalton Trans. '
loop_
_publ_author_name
"A.H.Pedersen"
"B.L.Geoghegan"
"G.S.Nichol"
"D.W.Lupton"
"K.S.Murray"
"J.Martinez-Lillo"
"I.A.Gass"
"E.K.Brechin"
_chemical_name_systematic
;
bis(4,4-dimethyl-2,2-bis(pyridin-2-yl)-1,3-oxazolidine N-oxyl 
radical)-cobalt(ii) hexabromo-rhenium(iv)
;
_cell_volume    890.353
_exptl_crystal_colour 'pale yellow'
_exptl_crystal_density_diffrn 2.36
_exptl_crystal_description 'plate'
_diffrn_ambient_temperature 120.0
#These two values have been output from a single CSD field.
_refine_ls_R_factor_gt 0.0423
_refine_ls_wR_factor_gt 0.0423
_symmetry_cell_setting triclinic
_symmetry_space_group_name_H-M 'P -1'
_symmetry_Int_Tables_number 2
loop_
_symmetry_equiv_pos_site_id
_symmetry_equiv_pos_as_xyz
1 x,y,z
2 -x,-y,-z
_cell_length_a 8.1009(3)
_cell_length_b 10.7229(3)
_cell_length_c 10.9708(3)
_cell_angle_alpha 106.156(3)
_cell_angle_beta 101.328(3)
_cell_angle_gamma 93.673(3)
_cell_formula_units_Z 1
loop_
_atom_type_symbol
_atom_type_radius_bond
C 0.68
H 0.23
Br 1.21
Co 1.26
N 0.68
O 0.68
Re 1.51
loop_
_atom_site_label
_atom_site_type_symbol
_atom_site_fract_x
_atom_site_fract_y
_atom_site_fract_z
Re1 Re 0.00000 0.00000 0.00000
Br1 Br 0.28047(7) -0.02130(5) 0.13221(5)
Br2 Br 0.03535(7) 0.23991(5) 0.11984(5)
Br3 Br 0.14681(7) 0.04866(5) -0.16724(5)
Co1 Co 0.50000 0.50000 0.50000
O1 O 0.2489(6) 0.5329(4) 0.4418(4)
O2 O 0.2759(5) 0.6327(4) 0.1699(4)
N1 N 0.5754(5) 0.6659(4) 0.4728(4)
N2 N 0.5070(5) 0.4119(4) 0.3175(4)
N3 N 0.2191(6) 0.5646(5) 0.3371(5)
C1 C 0.4973(7) 0.6932(5) 0.3660(5)
C2 C 0.5391(8) 0.8087(5) 0.3390(5)
H1 H 0.48190 0.82550 0.26420
C3 C 0.6693(9) 0.8983(5) 0.4278(6)
H2 H 0.70210 0.97640 0.41270
C4 C 0.7482(8) 0.8711(5) 0.5365(6)
H3 H 0.83480 0.93080 0.59690
C5 C 0.6994(8) 0.7535(5) 0.5575(5)
H4 H 0.75430 0.73550 0.63230
C6 C 0.5805(7) 0.3040(5) 0.2832(6)
H5 H 0.63130 0.26890 0.34770
C7 C 0.5840(7) 0.2420(5) 0.1550(6)
H6 H 0.63850 0.16770 0.13430
C8 C 0.5065(8) 0.2913(6) 0.0595(6)
H7 H 0.50550 0.25030 -0.02730
C9 C 0.4281(7) 0.4056(5) 0.0950(5)
H8 H 0.37440 0.44170 0.03230
C10 C 0.4330(6) 0.4624(5) 0.2253(5)
C11 C 0.3570(7) 0.5885(5) 0.2719(5)
C12 C 0.1010(9) 0.6348(9) 0.1667(8)
H9 H 0.03590 0.55750 0.10180
H10 H 0.06340 0.71150 0.14480
C13 C 0.0753(7) 0.6380(6) 0.3028(6)
C14 C -0.0927(8) 0.5621(6) 0.2982(8)
H11 H -0.10950 0.47930 0.23190
H12 H -0.18390 0.61140 0.27860
H13 H -0.09040 0.54790 0.38100
C15 C 0.1032(10) 0.7753(7) 0.3970(9)
H14 H 0.10710 0.77030 0.48350
H15 H 0.01160 0.82220 0.37240
H16 H 0.20840 0.82010 0.39460
Br1A Br -0.28047(7) 0.02130(5) -0.13221(5)
Br2A Br -0.03535(7) -0.23991(5) -0.11984(5)
Br3A Br -0.14681(7) -0.04866(5) 0.16724(5)
O1A O 0.7511(6) 0.4671(4) 0.5582(4)
O2A O 0.7241(5) 0.3673(4) 0.8301(4)
N1A N 0.4246(5) 0.3341(4) 0.5272(4)
N2A N 0.4930(5) 0.5881(4) 0.6825(4)
N3A N 0.7809(6) 0.4354(5) 0.6629(5)
C1A C 0.5027(7) 0.3068(5) 0.6340(5)
C2A C 0.4609(8) 0.1913(5) 0.6610(5)
H1A H 0.51810 0.17450 0.73580
C3A C 0.3307(9) 0.1017(5) 0.5722(6)
H2A H 0.29790 0.02360 0.58730
C4A C 0.2518(8) 0.1289(5) 0.4635(6)
H3A H 0.16520 0.06920 0.40310
C5A C 0.3006(8) 0.2465(5) 0.4425(5)
H4A H 0.24570 0.26450 0.36770
C6A C 0.4195(7) 0.6960(5) 0.7168(6)
H5A H 0.36870 0.73110 0.65230
C7A C 0.4160(7) 0.7580(5) 0.8450(6)
H6A H 0.36150 0.83230 0.86570
C8A C 0.4935(8) 0.7087(6) 0.9405(6)
H7A H 0.49450 0.74970 1.02730
C9A C 0.5719(7) 0.5944(5) 0.9050(5)
H8A H 0.62560 0.55830 0.96770
C10A C 0.5670(6) 0.5376(5) 0.7747(5)
C11A C 0.6430(7) 0.4115(5) 0.7281(5)
C12A C 0.8990(9) 0.3652(9) 0.8333(8)
H9A H 0.96410 0.44250 0.89820
H10A H 0.93660 0.28850 0.85520
C13A C 0.9247(7) 0.3620(6) 0.6972(6)
C14A C 1.0927(8) 0.4379(6) 0.7018(8)
H11A H 1.10950 0.52070 0.76810
H12A H 1.18390 0.38860 0.72140
H13A H 1.09040 0.45210 0.61900
C15A C 0.8968(10) 0.2247(7) 0.6030(9)
H14A H 0.89290 0.22970 0.51650
H15A H 0.98840 0.17780 0.62760
H16A H 0.79160 0.17990 0.60540
#END
