
#######################################################################
#
#                 Cambridge Crystallographic Data Centre
#                                CCDC
#
#######################################################################
#
# If this CIF has been generated from an entry in the Cambridge
# Structural Database, then it will include bibliographic, chemical,
# crystal, experimental, refinement or atomic coordinate data resulting
# from the CCDC's data processing and validation procedures.
#
#######################################################################

data_CSD_CIF_TAPBUH
_audit_creation_date 1992-04-28
_audit_creation_method CSD-ConQuest-V1
_database_code_CSD TAPBUH
_database_code_depnum_ccdc_archive 'CCDC 1266333'
_chemical_formula_sum 'C2 H20 Cr1 N1 O14 S2'
_chemical_formula_moiety
;
C2 H8 N1 1+,H12 Cr1 O6 3+,2(O4 S1 2-)
;
_journal_coeditor_code "IUCr GE0269"
_journal_coden_Cambridge 591
_journal_volume 48
_journal_year 1992
_journal_page_first 256
_journal_name_full 'Acta Crystallogr.,Sect.C:Cryst.Struct.Commun. '
loop_
_publ_author_name
"N.Galesic"
"V.B.Jordanovska"
_chemical_name_systematic
;
Dimethylammonium hexa-aqua-chromium(iii) disulfate
;
_cell_volume    769.021
_exptl_crystal_colour 'violet'
_exptl_crystal_density_diffrn 1.72
_exptl_special_details
;
Isostructural with the aluminium analogue

;
_diffrn_ambient_temperature ?
_diffrn_special_details
;
The study was carried out at room temperature,in the range 283-303K

;
_refine_special_details
;
Ammonium is disordered with 0.5 occupancy for the nitrogen atom.

;
#These two values have been output from a single CSD field.
_refine_ls_R_factor_gt 0.038
_refine_ls_wR_factor_gt 0.038
_symmetry_cell_setting monoclinic
_symmetry_space_group_name_H-M 'P 21/n'
_symmetry_Int_Tables_number 14
loop_
_symmetry_equiv_pos_site_id
_symmetry_equiv_pos_as_xyz
1 x,y,z
2 1/2-x,1/2+y,1/2-z
3 -x,-y,-z
4 -1/2+x,-1/2-y,-1/2+z
_cell_length_a 6.391(8)
_cell_length_b 10.748(3)
_cell_length_c 11.40(1)
_cell_angle_alpha 90
_cell_angle_beta 100.87(6)
_cell_angle_gamma 90
_cell_formula_units_Z 2
loop_
_atom_type_symbol
_atom_type_radius_bond
C 0.68
H 0.23
Cr 1.35
N 0.68
O 0.68
S 1.02
loop_
_atom_site_label
_atom_site_type_symbol
_atom_site_fract_x
_atom_site_fract_y
_atom_site_fract_z
S1 S 0.0692(1) 0.1828(1) 0.2400(1)
O1 O 0.0584(4) 0.0471(2) 0.2197(2)
O2 O 0.2006(5) 0.2068(2) 0.3574(3)
O3 O -0.1484(4) 0.2324(2) 0.2366(2)
O4 O 0.1605(5) 0.2430(3) 0.1461(3)
Cr1 Cr 0.00000 0.50000 0.50000
O5 O 0.2403(3) 0.4333(2) 0.4356(2)
O6 O 0.2109(4) 0.5775(2) 0.6270(2)
O7 O 0.0066(3) 0.3452(2) 0.5904(2)
H1 H 0.25590 0.35690 0.41960
H2 H 0.30350 0.47050 0.38940
H3 H 0.19200 0.64210 0.67250
H4 H 0.31710 0.54070 0.66740
H5 H -0.09360 0.31480 0.60080
H6 H 0.10120 0.31970 0.62790
N1? N 0.0565(18) 0.484(1) 1.0435(8)
C1? C 0.1442(10) 0.4736(6) 0.9395(6)
H7? H 0.05590 0.41850 1.09950
H8? H -0.04190 0.43380 0.99890
O5B O -0.2403(3) 0.5667(2) 0.5644(2)
O6B O -0.2109(4) 0.4225(2) 0.3730(2)
O7B O -0.0066(3) 0.6548(2) 0.4096(2)
H1B H -0.25590 0.64310 0.58040
H2B H -0.30350 0.52950 0.61060
H3B H -0.19200 0.35790 0.32750
H4B H -0.31710 0.45930 0.33260
H5B H 0.09360 0.68520 0.39920
H6B H -0.10120 0.68030 0.37210
#END
