
#######################################################################
#
#                 Cambridge Crystallographic Data Centre
#                                CCDC
#
#######################################################################
#
# If this CIF has been generated from an entry in the Cambridge
# Structural Database, then it will include bibliographic, chemical,
# crystal, experimental, refinement or atomic coordinate data resulting
# from the CCDC's data processing and validation procedures.
#
#######################################################################

data_CSD_CIF_TARJON
_audit_creation_date 2012-04-24
_audit_creation_method CSD-ConQuest-V1
_database_code_CSD TARJON
_database_code_depnum_ccdc_archive 'CCDC 635052'
_chemical_formula_sum 'C24 H22 Cl2 Fe1 N6 O2'
_chemical_formula_moiety
;
C24 H22 Cl2 Fe1 N6 O2
;
_journal_coden_Cambridge 211
_journal_volume 64
_journal_year 2011
_journal_page_first 4066
_journal_name_full 'J.Coord.Chem. '
loop_
_publ_author_name
"Ying-Xia Zhou"
"Xia Li"
"Hai-Yan Zhang"
"Cai-Ling Fan"
"Hong-Yun Zhang"
"Ben-Lai Wu"
_chemical_name_systematic
;
Diaqua-dichloro-bis(2-(pyridin-4-yl)-1H-benzimidazole)-iron(ii)
;
_cell_volume    566.512
_exptl_crystal_density_diffrn 1.622
_diffrn_ambient_temperature 291
#These two values have been output from a single CSD field.
_refine_ls_R_factor_gt 0.0444
_refine_ls_wR_factor_gt 0.0444
_symmetry_cell_setting triclinic
_symmetry_space_group_name_H-M 'P -1'
_symmetry_Int_Tables_number 2
loop_
_symmetry_equiv_pos_site_id
_symmetry_equiv_pos_as_xyz
1 x,y,z
2 -x,-y,-z
_cell_length_a 7.019(6)
_cell_length_b 9.215(7)
_cell_length_c 9.360(8)
_cell_angle_alpha 76.127(9)
_cell_angle_beta 74.557(9)
_cell_angle_gamma 86.709(9)
_cell_formula_units_Z 1
loop_
_atom_type_symbol
_atom_type_radius_bond
C 0.68
H 0.23
Cl 0.99
Fe 1.52
N 0.68
O 0.68
loop_
_atom_site_label
_atom_site_type_symbol
_atom_site_fract_x
_atom_site_fract_y
_atom_site_fract_z
Fe1 Fe 0.00000 1.00000 1.00000
Cl1 Cl 0.24636(12) 0.87002(8) 1.14515(8)
O1 O 0.2431(3) 1.1448(2) 0.8580(2)
H1 H 0.24080 1.22120 0.79100
H2 H 0.35050 1.13100 0.87890
N1 N 0.0705(3) 0.8415(2) 0.8490(3)
N2 N 0.2647(3) 0.3885(2) 0.6070(3)
N3 N 0.2444(3) 0.5736(2) 0.4061(3)
H3 H 0.22550 0.66130 0.35450
C1 C 0.3102(4) 0.3332(3) 0.4753(3)
C2 C 0.3631(4) 0.1889(3) 0.4559(4)
H4 H 0.37440 0.11180 0.53800
C3 C 0.3980(5) 0.1648(3) 0.3111(4)
H5 H 0.43060 0.06940 0.29600
C4 C 0.3852(4) 0.2821(4) 0.1856(4)
H6 H 0.41080 0.26220 0.08950
C5 C 0.3360(4) 0.4253(4) 0.2015(3)
H7 H 0.32820 0.50260 0.11860
C6 C 0.2981(4) 0.4483(3) 0.3493(3)
C7 C 0.2268(4) 0.5330(3) 0.5599(3)
C8 C 0.1735(4) 0.6398(3) 0.6581(3)
C9 C 0.1645(4) 0.5953(3) 0.8134(3)
H8 H 0.19150 0.49690 0.85630
C10 C 0.1154(4) 0.6978(3) 0.9023(3)
H9 H 0.11300 0.66640 1.00490
C11 C 0.0777(4) 0.8833(3) 0.6997(3)
H10 H 0.04700 0.98170 0.66010
C12 C 0.1280(4) 0.7881(3) 0.6023(3)
H11 H 0.13160 0.82280 0.49980
Cl1A Cl -0.24636(12) 1.12998(8) 0.85485(8)
O1A O -0.2431(3) 0.8552(2) 1.1420(2)
H1A H -0.24080 0.77880 1.20900
H2A H -0.35050 0.86900 1.12110
N1A N -0.0705(3) 1.1585(2) 1.1510(3)
N2A N -0.2647(3) 1.6115(2) 1.3930(3)
N3A N -0.2444(3) 1.4264(2) 1.5939(3)
H3A H -0.22550 1.33870 1.64550
C1A C -0.3102(4) 1.6668(3) 1.5247(3)
C2A C -0.3631(4) 1.8111(3) 1.5441(4)
H4A H -0.37440 1.88820 1.46200
C3A C -0.3980(5) 1.8352(3) 1.6889(4)
H5A H -0.43060 1.93060 1.70400
C4A C -0.3852(4) 1.7179(4) 1.8144(4)
H6A H -0.41080 1.73780 1.91050
C5A C -0.3360(4) 1.5747(4) 1.7985(3)
H7A H -0.32820 1.49740 1.88140
C6A C -0.2981(4) 1.5517(3) 1.6507(3)
C7A C -0.2268(4) 1.4670(3) 1.4401(3)
C8A C -0.1735(4) 1.3602(3) 1.3419(3)
C9A C -0.1645(4) 1.4047(3) 1.1866(3)
H8A H -0.19150 1.50310 1.14370
C10A C -0.1154(4) 1.3022(3) 1.0977(3)
H9A H -0.11300 1.33360 0.99510
C11A C -0.0777(4) 1.1167(3) 1.3003(3)
H10A H -0.04700 1.01830 1.33990
C12A C -0.1280(4) 1.2119(3) 1.3977(3)
H11A H -0.13160 1.17720 1.50020
#END
