
#######################################################################
#
#                 Cambridge Crystallographic Data Centre
#                                CCDC
#
#######################################################################
#
# If this CIF has been generated from an entry in the Cambridge
# Structural Database, then it will include bibliographic, chemical,
# crystal, experimental, refinement or atomic coordinate data resulting
# from the CCDC's data processing and validation procedures.
#
#######################################################################

data_CSD_CIF_TAWHIL01
_audit_creation_date 2017-03-31
_audit_creation_method CSD-ConQuest-V1
_database_code_CSD TAWHIL01
_database_code_depnum_ccdc_archive 'CCDC 1450456'
_chemical_formula_sum 'C38 H46 Br4 Co1 N2 O4'
_chemical_formula_moiety
;
C38 H46 Br4 Co1 N2 O4
;
_journal_coeditor_code "ps5056"
_journal_coden_Cambridge 1743
_journal_volume 73
_journal_year 2017
_journal_page_first 304
_journal_name_full 'Acta Crystallogr.,Sect.B:Struct.Sci.,Cryst.Eng. and Mat. '
loop_
_publ_author_name
"V.R.Hathwar"
"M.Stingaciu"
"B.Richter"
"J.Overgaard"
"B.B.Iversen"
_chemical_name_systematic
;
bis(3,5-dibromopyridine)-(3,5-di-t-butylcatecholato)-(3,5-di-t-butylsemiquinon
ato radical)-cobalt(iii)
;
_cell_volume    965.105
_exptl_crystal_colour 'blue'
_exptl_crystal_density_diffrn 1.675
_exptl_crystal_description 'block'
_diffrn_ambient_temperature 200
#These two values have been output from a single CSD field.
_refine_ls_R_factor_gt 0.0436
_refine_ls_wR_factor_gt 0.0436
_symmetry_cell_setting triclinic
_symmetry_space_group_name_H-M 'P -1'
_symmetry_Int_Tables_number 2
loop_
_symmetry_equiv_pos_site_id
_symmetry_equiv_pos_as_xyz
1 x,y,z
2 -x,-y,-z
_cell_length_a 8.9788(11)
_cell_length_b 10.1598(13)
_cell_length_c 11.6606(15)
_cell_angle_alpha 86.014(5)
_cell_angle_beta 89.423(5)
_cell_angle_gamma 65.463(4)
_cell_formula_units_Z 1
loop_
_atom_type_symbol
_atom_type_radius_bond
C 0.68
H 0.23
Br 1.21
Co 1.26
N 0.68
O 0.68
loop_
_atom_site_label
_atom_site_type_symbol
_atom_site_fract_x
_atom_site_fract_y
_atom_site_fract_z
C1 C 0.4461(7) 0.6144(5) 0.2028(4)
C2 C 0.3149(7) 0.5749(5) 0.1846(4)
C3 C 0.1867(7) 0.6075(5) 0.2657(4)
C4 C 0.2023(7) 0.6761(6) 0.3618(5)
H1 H 0.11780 0.70010 0.41670
C5 C 0.3332(7) 0.7116(6) 0.3828(4)
C6 C 0.4576(7) 0.6808(6) 0.3015(4)
H2 H 0.54780 0.70450 0.31330
C7 C 0.0482(7) 0.5607(6) 0.2514(5)
C8 C -0.0353(8) 0.6078(7) 0.1325(5)
H3 H -0.13260 0.58720 0.13120
H4 H 0.04100 0.55440 0.07410
H5 H -0.06780 0.71210 0.11610
C9 C 0.1156(9) 0.3940(7) 0.2655(7)
H6 H 0.16400 0.35980 0.34280
H7 H 0.19940 0.35180 0.20810
H8 H 0.02620 0.36420 0.25470
C10 C -0.0850(8) 0.6202(7) 0.3429(5)
H9 H -0.03460 0.58920 0.41990
H10 H -0.16820 0.58270 0.33340
H11 H -0.13630 0.72650 0.33340
C11 C 0.3421(8) 0.7836(6) 0.4935(5)
C12 C 0.2425(14) 0.9445(8) 0.4774(7)
H12 H 0.25440 0.99020 0.54600
H13 H 0.12700 0.96450 0.46560
H14 H 0.28100 0.98390 0.41020
C13 C 0.5150(12) 0.7491(15) 0.5268(8)
H15 H 0.55110 0.81650 0.48370
H16 H 0.58530 0.64950 0.50920
H17 H 0.52210 0.75880 0.60940
C14 C 0.2793(16) 0.7199(11) 0.5953(6)
H18 H 0.31020 0.74770 0.66710
H19 H 0.32770 0.61390 0.59490
H20 H 0.15980 0.75710 0.58930
C15 C 0.2072(7) 0.7399(6) -0.0861(4)
H21 H 0.15800 0.67420 -0.06940
C16 C 0.1111(7) 0.8803(6) -0.1304(5)
C17 C 0.1834(7) 0.9731(6) -0.1579(5)
H22 H 0.12070 1.06810 -0.19130
C18 C 0.3480(8) 0.9265(6) -0.1362(5)
C19 C 0.4373(7) 0.7865(6) -0.0886(5)
H23 H 0.55050 0.75520 -0.07150
N1 N 0.3674(5) 0.6957(5) -0.0668(4)
O1 O 0.5610(5) 0.5809(4) 0.1230(3)
O2 O 0.3200(4) 0.5073(4) 0.0892(3)
Co1 Co 0.50000 0.50000 0.00000
Br1 Br 0.45283(9) 1.04920(7) -0.16991(7)
Br2 Br -0.11540(8) 0.94138(7) -0.15116(6)
C1A C 0.5539(7) 0.3856(5) -0.2028(4)
C2A C 0.6851(7) 0.4251(5) -0.1846(4)
C3A C 0.8133(7) 0.3925(5) -0.2657(4)
C4A C 0.7977(7) 0.3239(6) -0.3618(5)
H1A H 0.88220 0.29990 -0.41670
C5A C 0.6668(7) 0.2884(6) -0.3828(4)
C6A C 0.5424(7) 0.3192(6) -0.3015(4)
H2A H 0.45220 0.29550 -0.31330
C7A C 0.9518(7) 0.4393(6) -0.2514(5)
C8A C 1.0353(8) 0.3922(7) -0.1325(5)
H3A H 1.13260 0.41280 -0.13120
H4A H 0.95900 0.44560 -0.07410
H5A H 1.06780 0.28790 -0.11610
C9A C 0.8844(9) 0.6060(7) -0.2655(7)
H6A H 0.83600 0.64020 -0.34280
H7A H 0.80060 0.64820 -0.20810
H8A H 0.97380 0.63580 -0.25470
C10A C 1.0850(8) 0.3798(7) -0.3429(5)
H9A H 1.03460 0.41080 -0.41990
H10A H 1.16820 0.41730 -0.33340
H11A H 1.13630 0.27350 -0.33340
C11A C 0.6579(8) 0.2164(6) -0.4935(5)
C12A C 0.7575(14) 0.0555(8) -0.4774(7)
H12A H 0.74560 0.00980 -0.54600
H13A H 0.87300 0.03550 -0.46560
H14A H 0.71900 0.01610 -0.41020
C13A C 0.4850(12) 0.2509(15) -0.5268(8)
H15A H 0.44890 0.18350 -0.48370
H16A H 0.41470 0.35050 -0.50920
H17A H 0.47790 0.24120 -0.60940
C14A C 0.7207(16) 0.2801(11) -0.5953(6)
H18A H 0.68980 0.25230 -0.66710
H19A H 0.67230 0.38610 -0.59490
H20A H 0.84020 0.24290 -0.58930
C15A C 0.7928(7) 0.2601(6) 0.0861(4)
H21A H 0.84200 0.32580 0.06940
C16A C 0.8889(7) 0.1197(6) 0.1304(5)
C17A C 0.8166(7) 0.0269(6) 0.1579(5)
H22A H 0.87930 -0.06810 0.19130
C18A C 0.6520(8) 0.0735(6) 0.1362(5)
C19A C 0.5627(7) 0.2135(6) 0.0886(5)
H23A H 0.44950 0.24480 0.07150
N1A N 0.6326(5) 0.3043(5) 0.0668(4)
O1A O 0.4390(5) 0.4191(4) -0.1230(3)
O2A O 0.6800(4) 0.4927(4) -0.0892(3)
Br1A Br 0.54717(9) -0.04920(7) 0.16991(7)
Br2A Br 1.11540(8) 0.05862(7) 0.15116(6)
#END
