
#######################################################################
#
#                 Cambridge Crystallographic Data Centre
#                                CCDC
#
#######################################################################
#
# If this CIF has been generated from an entry in the Cambridge
# Structural Database, then it will include bibliographic, chemical,
# crystal, experimental, refinement or atomic coordinate data resulting
# from the CCDC's data processing and validation procedures.
#
#######################################################################

data_CSD_CIF_TAWHIL
_audit_creation_date 2017-03-31
_audit_creation_method CSD-ConQuest-V1
_database_code_CSD TAWHIL
_database_code_depnum_ccdc_archive 'CCDC 1450455'
_chemical_formula_sum 'C38 H46 Br4 Co1 N2 O4'
_chemical_formula_moiety
;
C38 H46 Br4 Co1 N2 O4
;
_journal_coeditor_code "ps5056"
_journal_coden_Cambridge 1743
_journal_volume 73
_journal_year 2017
_journal_page_first 304
_journal_name_full 'Acta Crystallogr.,Sect.B:Struct.Sci.,Cryst.Eng. and Mat. '
loop_
_publ_author_name
"V.R.Hathwar"
"M.Stingaciu"
"B.Richter"
"J.Overgaard"
"B.B.Iversen"
_chemical_name_systematic
;
bis(3,5-dibromopyridine)-(3,5-di-t-butylcatecholato)-(3,5-di-t-butylsemiquinon
ato radical)-cobalt(iii)
;
_cell_volume    951.594
_exptl_crystal_colour 'blue'
_exptl_crystal_density_diffrn 1.698
_exptl_crystal_description 'block'
_diffrn_ambient_temperature 150
#These two values have been output from a single CSD field.
_refine_ls_R_factor_gt 0.0354
_refine_ls_wR_factor_gt 0.0354
_symmetry_cell_setting triclinic
_symmetry_space_group_name_H-M 'P -1'
_symmetry_Int_Tables_number 2
loop_
_symmetry_equiv_pos_site_id
_symmetry_equiv_pos_as_xyz
1 x,y,z
2 -x,-y,-z
_cell_length_a 8.9612(7)
_cell_length_b 10.1111(8)
_cell_length_c 11.5984(9)
_cell_angle_alpha 85.951(5)
_cell_angle_beta 89.290(3)
_cell_angle_gamma 65.221(4)
_cell_formula_units_Z 1
loop_
_atom_type_symbol
_atom_type_radius_bond
C 0.68
H 0.23
Br 1.21
Co 1.26
N 0.68
O 0.68
loop_
_atom_site_label
_atom_site_type_symbol
_atom_site_fract_x
_atom_site_fract_y
_atom_site_fract_z
C1 C 0.5543(5) 0.3859(4) 0.7966(3)
C2 C 0.6861(5) 0.4251(4) 0.8148(3)
C3 C 0.8145(5) 0.3923(4) 0.7338(3)
C4 C 0.7996(5) 0.3230(4) 0.6373(3)
H1 H 0.88480 0.29820 0.58240
C5 C 0.6680(5) 0.2877(4) 0.6160(3)
C6 C 0.5443(5) 0.3191(4) 0.6977(3)
H2 H 0.45400 0.29520 0.68590
C7 C 0.9521(5) 0.4403(4) 0.7472(3)
C8 C 0.8827(6) 0.6072(5) 0.7314(5)
H3 H 0.79990 0.64990 0.79010
H4 H 0.83180 0.64030 0.65420
H5 H 0.97180 0.63810 0.73970
C9 C 1.0356(6) 0.3923(5) 0.8669(4)
H6 H 1.13370 0.41190 0.86830
H7 H 1.06740 0.28750 0.88350
H8 H 0.95900 0.44670 0.92550
C10 C 1.0862(6) 0.3794(5) 0.6570(4)
H9 H 1.17250 0.41270 0.66940
H10 H 1.03790 0.41420 0.57920
H11 H 1.13360 0.27240 0.66460
C11 C 0.6592(6) 0.2162(5) 0.5055(4)
C12 C 0.7273(11) 0.2758(8) 0.4044(4)
H12 H 0.67460 0.38280 0.40000
H13 H 0.70490 0.24130 0.33250
H14 H 0.84620 0.24190 0.41520
C13 C 0.4856(9) 0.2479(11) 0.4724(6)
H15 H 0.44330 0.19460 0.52760
H16 H 0.48290 0.21690 0.39460
H17 H 0.41710 0.35300 0.47340
C14 C 0.7586(10) 0.0530(6) 0.5232(5)
H18 H 0.87290 0.03220 0.54210
H19 H 0.75470 0.00730 0.45220
H20 H 0.71270 0.01360 0.58680
C15 C 0.4365(5) 0.7887(4) 0.9113(3)
H21 H 0.55020 0.75770 0.92790
C16 C 0.3446(6) 0.9282(4) 0.8639(4)
C17 C 0.1800(5) 0.9762(4) 0.8423(3)
H22 H 0.11650 1.07190 0.80880
C18 C 0.1099(5) 0.8819(4) 0.8705(3)
C19 C 0.2057(5) 0.7406(4) 0.9140(3)
H23 H 0.15660 0.67440 0.92990
N1 N 0.3655(4) 0.6965(3) 0.9338(3)
O1 O 0.4390(3) 0.4196(3) 0.8770(2)
O2 O 0.6799(3) 0.4931(3) 0.9101(2)
Co1 Co 0.50000 0.50000 1.00000
Br1 Br -0.11796(5) 0.94272(5) 0.84919(4)
Br2 Br 0.45099(6) 1.05180(5) 0.82986(5)
C1A C 0.4457(5) 0.6141(4) 1.2034(3)
C2A C 0.3139(5) 0.5749(4) 1.1852(3)
C3A C 0.1855(5) 0.6077(4) 1.2662(3)
C4A C 0.2004(5) 0.6770(4) 1.3627(3)
H1A H 0.11520 0.70180 1.41760
C5A C 0.3320(5) 0.7123(4) 1.3840(3)
C6A C 0.4557(5) 0.6809(4) 1.3023(3)
H2A H 0.54600 0.70480 1.31410
C7A C 0.0479(5) 0.5597(4) 1.2528(3)
C8A C 0.1173(6) 0.3928(5) 1.2686(5)
H3A H 0.20010 0.35010 1.20990
H4A H 0.16820 0.35970 1.34580
H5A H 0.02820 0.36190 1.26030
C9A C -0.0356(6) 0.6077(5) 1.1331(4)
H6A H -0.13370 0.58810 1.13170
H7A H -0.06740 0.71250 1.11650
H8A H 0.04100 0.55330 1.07450
C10A C -0.0862(6) 0.6206(5) 1.3430(4)
H9A H -0.17250 0.58730 1.33060
H10A H -0.03790 0.58580 1.42080
H11A H -0.13360 0.72760 1.33540
C11A C 0.3408(6) 0.7838(5) 1.4945(4)
C12A C 0.2727(11) 0.7242(8) 1.5956(4)
H12A H 0.32540 0.61720 1.60000
H13A H 0.29510 0.75870 1.66750
H14A H 0.15380 0.75810 1.58480
C13A C 0.5144(9) 0.7521(11) 1.5276(6)
H15A H 0.55670 0.80540 1.47240
H16A H 0.51710 0.78310 1.60540
H17A H 0.58290 0.64700 1.52660
C14A C 0.2414(10) 0.9470(6) 1.4768(5)
H18A H 0.12710 0.96780 1.45790
H19A H 0.24530 0.99270 1.54780
H20A H 0.28730 0.98640 1.41320
C15A C 0.5635(5) 0.2113(4) 1.0887(3)
H21A H 0.44980 0.24230 1.07210
C16A C 0.6554(6) 0.0718(4) 1.1361(4)
C17A C 0.8200(5) 0.0238(4) 1.1577(3)
H22A H 0.88350 -0.07190 1.19120
C18A C 0.8901(5) 0.1181(4) 1.1295(3)
C19A C 0.7943(5) 0.2594(4) 1.0860(3)
H23A H 0.84340 0.32560 1.07010
N1A N 0.6345(4) 0.3035(3) 1.0662(3)
O1A O 0.5610(3) 0.5804(3) 1.1230(2)
O2A O 0.3201(3) 0.5069(3) 1.0899(2)
Br1A Br 1.11796(5) 0.05728(5) 1.15081(4)
Br2A Br 0.54901(6) -0.05180(5) 1.17014(5)
#END
