
#######################################################################
#
#                 Cambridge Crystallographic Data Centre
#                                CCDC
#
#######################################################################
#
# If this CIF has been generated from an entry in the Cambridge
# Structural Database, then it will include bibliographic, chemical,
# crystal, experimental, refinement or atomic coordinate data resulting
# from the CCDC's data processing and validation procedures.
#
#######################################################################

data_CSD_CIF_TAWHIL04
_audit_creation_date 2017-03-31
_audit_creation_method CSD-ConQuest-V1
_database_code_CSD TAWHIL04
_database_code_depnum_ccdc_archive 'CCDC 1450459'
_chemical_formula_sum 'C38 H46 Br4 Co1 N2 O4'
_chemical_formula_moiety
;
C38 H46 Br4 Co1 N2 O4
;
_journal_coeditor_code "ps5056"
_journal_coden_Cambridge 1743
_journal_volume 73
_journal_year 2017
_journal_page_first 304
_journal_name_full 'Acta Crystallogr.,Sect.B:Struct.Sci.,Cryst.Eng. and Mat. '
loop_
_publ_author_name
"V.R.Hathwar"
"M.Stingaciu"
"B.Richter"
"J.Overgaard"
"B.B.Iversen"
_chemical_name_systematic
;
bis(3,5-dibromopyridine)-bis(3,5-di-t-butylsemiquinonato)-cobalt(ii)
;
_cell_volume   1021.121
_exptl_crystal_colour 'blue'
_exptl_crystal_density_diffrn 1.583
_exptl_crystal_description 'block'
_diffrn_ambient_temperature 296
#These two values have been output from a single CSD field.
_refine_ls_R_factor_gt 0.0606
_refine_ls_wR_factor_gt 0.0606
_symmetry_cell_setting triclinic
_symmetry_space_group_name_H-M 'P -1'
_symmetry_Int_Tables_number 2
loop_
_symmetry_equiv_pos_site_id
_symmetry_equiv_pos_as_xyz
1 x,y,z
2 -x,-y,-z
_cell_length_a 9.0080(18)
_cell_length_b 10.899(2)
_cell_length_c 11.769(2)
_cell_angle_alpha 85.328(6)
_cell_angle_beta 87.483(6)
_cell_angle_gamma 62.462(5)
_cell_formula_units_Z 1
loop_
_atom_type_symbol
_atom_type_radius_bond
C 0.68
H 0.23
Br 1.21
Co 1.26
N 0.68
O 0.68
loop_
_atom_site_label
_atom_site_type_symbol
_atom_site_fract_x
_atom_site_fract_y
_atom_site_fract_z
Br1 Br 1.50267(9) 0.45148(7) 0.67736(8)
Br2 Br 0.82897(9) 0.55237(7) 0.65176(6)
C1 C 1.0602(6) 0.8855(5) 0.2902(4)
C2 C 0.8827(6) 0.9267(5) 0.3128(4)
C3 C 0.7891(6) 0.8951(5) 0.2356(4)
C4 C 0.8722(7) 0.8294(5) 0.1395(4)
H1 H 0.81250 0.80850 0.08860
C5 C 1.0435(7) 0.7917(5) 0.1136(4)
C6 C 1.1348(6) 0.8186(5) 0.1893(4)
H2 H 1.24720 0.79260 0.17420
C7 C 0.6013(6) 0.9399(6) 0.2555(5)
C8 C 0.5731(7) 0.8815(6) 0.3715(5)
H3 H 0.59860 0.92480 0.43040
H4 H 0.64470 0.78330 0.37890
H5 H 0.45830 0.89960 0.37860
C9 C 0.5058(8) 1.0996(7) 0.2505(7)
H6 H 0.38900 1.12860 0.26530
H7 H 0.51940 1.13660 0.17610
H8 H 0.54940 1.13300 0.30680
C10 C 0.5271(8) 0.8897(8) 0.1647(6)
H9 H 0.41210 0.91510 0.18310
H10 H 0.58930 0.79070 0.16330
H11 H 0.53380 0.93200 0.09120
C11 C 1.1192(8) 0.7230(6) 0.0014(5)
C12 C 1.0031(13) 0.7940(11) -0.0956(7)
H12 H 0.92320 0.75890 -0.09710
H13 H 1.06570 0.77700 -0.16570
H14 H 0.94540 0.89190 -0.08660
C13 C 1.2802(15) 0.7294(15) -0.0287(9)
H15 H 1.25950 0.82440 -0.03440
H16 H 1.32190 0.68970 -0.10040
H17 H 1.36150 0.67840 0.02960
C14 C 1.1621(15) 0.5735(8) 0.0154(8)
H18 H 1.24320 0.52860 0.07490
H19 H 1.20790 0.53110 -0.05480
H20 H 1.06300 0.56430 0.03510
C15 C 0.9562(7) 0.7440(6) 0.5903(4)
H21 H 0.84480 0.80400 0.57320
C16 C 0.9977(7) 0.6105(6) 0.6331(4)
C17 C 1.1591(7) 0.5217(6) 0.6614(5)
H22 H 1.18920 0.43200 0.69210
C18 C 1.2762(7) 0.5693(5) 0.6432(5)
C19 C 1.2285(6) 0.7030(5) 0.5982(5)
H23 H 1.30930 0.73310 0.58530
Co1 Co 1.00000 1.00000 0.50000
N1 N 1.0689(5) 0.7905(4) 0.5727(3)
O1 O 1.1410(4) 0.9138(4) 0.3607(3)
O2 O 0.8204(4) 0.9904(3) 0.4035(3)
Br1A Br 0.49733(9) 1.54852(7) 0.32264(8)
Br2A Br 1.17103(9) 1.44763(7) 0.34824(6)
C1A C 0.9398(6) 1.1145(5) 0.7098(4)
C2A C 1.1173(6) 1.0733(5) 0.6872(4)
C3A C 1.2109(6) 1.1049(5) 0.7644(4)
C4A C 1.1278(7) 1.1706(5) 0.8605(4)
H1A H 1.18750 1.19150 0.91140
C5A C 0.9565(7) 1.2083(5) 0.8864(4)
C6A C 0.8652(6) 1.1814(5) 0.8107(4)
H2A H 0.75280 1.20740 0.82580
C7A C 1.3987(6) 1.0601(6) 0.7445(5)
C8A C 1.4269(7) 1.1185(6) 0.6285(5)
H3A H 1.40140 1.07520 0.56960
H4A H 1.35530 1.21670 0.62110
H5A H 1.54170 1.10040 0.62140
C9A C 1.4942(8) 0.9004(7) 0.7495(7)
H6A H 1.61100 0.87140 0.73470
H7A H 1.48060 0.86340 0.82390
H8A H 1.45060 0.86700 0.69320
C10A C 1.4729(8) 1.1103(8) 0.8353(6)
H9A H 1.58790 1.08490 0.81690
H10A H 1.41070 1.20930 0.83670
H11A H 1.46620 1.06800 0.90880
C11A C 0.8808(8) 1.2770(6) 0.9986(5)
C12A C 0.9969(13) 1.2060(11) 1.0956(7)
H12A H 1.07680 1.24110 1.09710
H13A H 0.93430 1.22300 1.16570
H14A H 1.05460 1.10810 1.08660
C13A C 0.7198(15) 1.2706(15) 1.0287(9)
H15A H 0.74050 1.17560 1.03440
H16A H 0.67810 1.31030 1.10040
H17A H 0.63850 1.32160 0.97040
C14A C 0.8379(15) 1.4265(8) 0.9846(8)
H18A H 0.75680 1.47140 0.92510
H19A H 0.79210 1.46890 1.05480
H20A H 0.93700 1.43570 0.96490
C15A C 1.0438(7) 1.2560(6) 0.4097(4)
H21A H 1.15520 1.19600 0.42680
C16A C 1.0023(7) 1.3895(6) 0.3669(4)
C17A C 0.8409(7) 1.4783(6) 0.3386(5)
H22A H 0.81080 1.56800 0.30790
C18A C 0.7238(7) 1.4307(5) 0.3568(5)
C19A C 0.7715(6) 1.2970(5) 0.4018(5)
H23A H 0.69070 1.26690 0.41470
N1A N 0.9311(5) 1.2095(4) 0.4273(3)
O1A O 0.8590(4) 1.0862(4) 0.6393(3)
O2A O 1.1796(4) 1.0096(3) 0.5965(3)
#END
