
#######################################################################
#
#                 Cambridge Crystallographic Data Centre
#                                CCDC
#
#######################################################################
#
# If this CIF has been generated from an entry in the Cambridge
# Structural Database, then it will include bibliographic, chemical,
# crystal, experimental, refinement or atomic coordinate data resulting
# from the CCDC's data processing and validation procedures.
#
#######################################################################

data_CSD_CIF_TAWHIJ
_audit_creation_date 2005-12-15
_audit_creation_method CSD-ConQuest-V1
_database_code_CSD TAWHIJ
_database_code_depnum_ccdc_archive 'CCDC 263805'
_chemical_formula_sum 'C13 H18 Cr1 O5 Si2'
_chemical_formula_moiety
;
C13 H18 Cr1 O5 Si2
;
_journal_coden_Cambridge 579
_journal_volume 24
_journal_year 2005
_journal_page_first 4613
_journal_name_full 'Organometallics '
loop_
_publ_author_name
"F.-W.Grevels"
"J.Jacke"
"R.Goddard"
"C.W.Lehmann"
"S.Ozkar"
"S.Saldamli"
_chemical_name_systematic
;
(\h^2^-1,2-bis(Trimethylsilyl)ethyne)-pentacarbonyl-chromium(0)
;
_chemical_melting_point 320.15
_cell_volume    922.241
_exptl_crystal_colour 'pale yellow'
_exptl_crystal_density_diffrn 1.305
_exptl_crystal_description 'prism'
_exptl_crystal_preparation 'pentane'
_diffrn_ambient_temperature 100
#These two values have been output from a single CSD field.
_refine_ls_R_factor_gt 0.042
_refine_ls_wR_factor_gt 0.042
_symmetry_cell_setting triclinic
_symmetry_space_group_name_H-M 'P -1'
_symmetry_Int_Tables_number 2
loop_
_symmetry_equiv_pos_site_id
_symmetry_equiv_pos_as_xyz
1 x,y,z
2 -x,-y,-z
_cell_length_a 9.3397(6)
_cell_length_b 9.9580(6)
_cell_length_c 10.7707(7)
_cell_angle_alpha 103.742(3)
_cell_angle_beta 106.042(2)
_cell_angle_gamma 95.106(3)
_cell_formula_units_Z 2
loop_
_atom_type_symbol
_atom_type_radius_bond
C 0.68
H 0.23
Cr 1.35
O 0.68
Si 1.20
loop_
_atom_site_label
_atom_site_type_symbol
_atom_site_fract_x
_atom_site_fract_y
_atom_site_fract_z
C1 C 0.5366(2) 0.8624(2) 0.8638(2)
C2 C 0.7948(2) 1.0363(2) 0.8934(2)
C3 C 0.7115(3) 0.9906(2) 0.6268(2)
C4 C 0.4931(3) 0.7727(2) 0.5971(2)
C5 C 0.5200(2) 1.0485(2) 0.7401(2)
C6 C 0.7533(2) 0.7142(2) 0.7837(2)
C7 C 0.8235(2) 0.7670(2) 0.7200(2)
C8 C 0.8295(3) 0.4439(3) 0.8327(3)
H1 H 0.93440 0.48510 0.86940
H2 H 0.80460 0.40620 0.73730
H3 H 0.81010 0.37020 0.87230
C9 C 0.5084(3) 0.5020(3) 0.7995(3)
H4 H 0.48460 0.45940 0.70480
H5 H 0.44810 0.57380 0.81430
H6 H 0.48750 0.43210 0.84290
C10 C 0.7712(3) 0.6668(3) 1.0540(2)
H7 H 0.87680 0.70530 1.08450
H8 H 0.75350 0.59890 1.10060
H9 H 0.71400 0.74060 1.07190
C11 C 1.0917(3) 0.6466(3) 0.6833(3)
H10 H 1.17280 0.64790 0.64470
H11 H 1.03000 0.55550 0.64860
H12 H 1.13260 0.66740 0.77920
C12 C 1.0923(3) 0.9584(3) 0.7110(3)
H13 H 1.16980 0.96430 0.66880
H14 H 1.13790 0.97440 0.80590
H15 H 1.02980 1.02790 0.69510
C13 C 0.8844(3) 0.7388(3) 0.4545(2)
H16 H 0.96100 0.74550 0.41150
H17 H 0.81740 0.80390 0.43480
H18 H 0.82820 0.64530 0.42190
Cr1 Cr 0.63933(3) 0.90938(3) 0.74556(3)
O1 O 0.4675(2) 0.84210(19) 0.9320(2)
O2 O 0.8844(2) 1.1168(2) 0.97852(18)
O3 O 0.7471(2) 1.0503(2) 0.55858(19)
O4 O 0.4067(2) 0.6905(2) 0.5107(2)
O5 O 0.4499(2) 1.13720(19) 0.7374(2)
Si1 Si 0.71160(7) 0.58059(6) 0.87012(6)
Si2 Si 0.97457(7) 0.78085(6) 0.63948(6)
#END
