
#######################################################################
#
#                 Cambridge Crystallographic Data Centre
#                                CCDC
#
#######################################################################
#
# If this CIF has been generated from an entry in the Cambridge
# Structural Database, then it will include bibliographic, chemical,
# crystal, experimental, refinement or atomic coordinate data resulting
# from the CCDC's data processing and validation procedures.
#
#######################################################################

data_CSD_CIF_TAWHIL02
_audit_creation_date 2017-03-31
_audit_creation_method CSD-ConQuest-V1
_database_code_CSD TAWHIL02
_database_code_depnum_ccdc_archive 'CCDC 1450457'
_chemical_formula_sum 'C38 H46 Br4 Co1 N2 O4'
_chemical_formula_moiety
;
C38 H46 Br4 Co1 N2 O4
;
_journal_coeditor_code "ps5056"
_journal_coden_Cambridge 1743
_journal_volume 73
_journal_year 2017
_journal_page_first 304
_journal_name_full 'Acta Crystallogr.,Sect.B:Struct.Sci.,Cryst.Eng. and Mat. '
loop_
_publ_author_name
"V.R.Hathwar"
"M.Stingaciu"
"B.Richter"
"J.Overgaard"
"B.B.Iversen"
_chemical_name_systematic
;
bis(3,5-dibromopyridine)-(3,5-di-t-butylcatecholato)-(3,5-di-t-butylsemiquinon
ato radical)-cobalt(iii)
;
_cell_volume    976.099
_exptl_crystal_colour 'blue'
_exptl_crystal_density_diffrn 1.656
_exptl_crystal_description 'block'
_diffrn_ambient_temperature 235
#These two values have been output from a single CSD field.
_refine_ls_R_factor_gt 0.0455
_refine_ls_wR_factor_gt 0.0455
_symmetry_cell_setting triclinic
_symmetry_space_group_name_H-M 'P -1'
_symmetry_Int_Tables_number 2
loop_
_symmetry_equiv_pos_site_id
_symmetry_equiv_pos_as_xyz
1 x,y,z
2 -x,-y,-z
_cell_length_a 9.0047(11)
_cell_length_b 10.2138(12)
_cell_length_c 11.6756(14)
_cell_angle_alpha 86.394(4)
_cell_angle_beta 89.775(5)
_cell_angle_gamma 65.652(4)
_cell_formula_units_Z 1
loop_
_atom_type_symbol
_atom_type_radius_bond
C 0.68
H 0.23
Br 1.21
Co 1.26
N 0.68
O 0.68
loop_
_atom_site_label
_atom_site_type_symbol
_atom_site_fract_x
_atom_site_fract_y
_atom_site_fract_z
C1 C 0.9462(5) 0.6147(4) 0.7026(3)
C2 C 0.8149(5) 0.5754(4) 0.6844(4)
C3 C 0.6871(6) 0.6077(4) 0.7651(4)
C4 C 0.7033(6) 0.6763(5) 0.8608(4)
H1 H 0.62020 0.70050 0.91490
C5 C 0.8354(6) 0.7115(5) 0.8817(4)
C6 C 0.9570(6) 0.6815(5) 0.8014(4)
H2 H 1.04560 0.70570 0.81320
C7 C 0.5489(6) 0.5605(5) 0.7507(4)
C8 C 0.4643(7) 0.6105(6) 0.6328(5)
H3 H 0.36800 0.59060 0.63060
H4 H 0.53850 0.55950 0.57410
H5 H 0.43280 0.71320 0.61880
C9 C 0.6157(8) 0.3958(6) 0.7636(6)
H6 H 0.66160 0.36200 0.84040
H7 H 0.69970 0.35490 0.70780
H8 H 0.52800 0.36620 0.75060
C10 C 0.4167(7) 0.6215(7) 0.8414(5)
H9 H 0.46520 0.58810 0.91760
H10 H 0.33120 0.58890 0.82970
H11 H 0.37090 0.72590 0.83370
C11 C 0.8440(7) 0.7825(5) 0.9934(4)
C12 C 0.7848(16) 0.7185(11) 1.0935(6)
H12 H 0.81810 0.74400 1.16470
H13 H 0.83140 0.61450 1.09130
H14 H 0.66680 0.75560 1.08910
C13 C 1.0179(11) 0.7550(14) 1.0246(8)
H15 H 1.05640 0.80860 0.96980
H16 H 1.08670 0.65290 1.02310
H17 H 1.02190 0.78580 1.10100
C14 C 0.7440(14) 0.9425(8) 0.9776(7)
H18 H 0.76390 0.98880 1.04220
H19 H 0.62920 0.96180 0.97310
H20 H 0.77450 0.97990 0.90720
C15 C 0.7082(6) 0.7398(5) 0.4135(4)
H21 H 0.65890 0.67580 0.42980
C16 C 0.6138(6) 0.8798(5) 0.3690(4)
C17 C 0.6847(6) 0.9723(5) 0.3416(4)
H22 H 0.62320 1.06570 0.30880
C18 C 0.8501(6) 0.9241(5) 0.3638(4)
C19 C 0.9385(6) 0.7870(5) 0.4109(4)
H23 H 1.05020 0.75660 0.42790
N1 N 0.8681(5) 0.6960(4) 0.4330(3)
O1 O 1.0603(4) 0.5815(3) 0.6234(2)
O2 O 0.8199(4) 0.5084(3) 0.5896(3)
Co1 Co 1.00000 0.50000 0.50000
Br1 Br 0.95517(8) 1.04641(6) 0.32996(7)
Br2 Br 0.38695(7) 0.94016(6) 0.34839(5)
C1A C 1.0538(5) 0.3853(4) 0.2974(3)
C2A C 1.1851(5) 0.4246(4) 0.3156(4)
C3A C 1.3129(6) 0.3923(4) 0.2349(4)
C4A C 1.2967(6) 0.3237(5) 0.1392(4)
H1A H 1.37980 0.29950 0.08510
C5A C 1.1646(6) 0.2885(5) 0.1183(4)
C6A C 1.0430(6) 0.3185(5) 0.1986(4)
H2A H 0.95440 0.29430 0.18680
C7A C 1.4511(6) 0.4395(5) 0.2493(4)
C8A C 1.5357(7) 0.3895(6) 0.3672(5)
H3A H 1.63200 0.40940 0.36940
H4A H 1.46150 0.44050 0.42590
H5A H 1.56720 0.28680 0.38120
C9A C 1.3843(8) 0.6042(6) 0.2364(6)
H6A H 1.33840 0.63800 0.15960
H7A H 1.30030 0.64510 0.29220
H8A H 1.47200 0.63380 0.24940
C10A C 1.5833(7) 0.3785(7) 0.1586(5)
H9A H 1.53480 0.41190 0.08240
H10A H 1.66880 0.41110 0.17030
H11A H 1.62910 0.27410 0.16630
C11A C 1.1560(7) 0.2175(5) 0.0066(4)
C12A C 1.2152(16) 0.2815(11) -0.0935(6)
H12A H 1.18190 0.25600 -0.16470
H13A H 1.16860 0.38550 -0.09130
H14A H 1.33320 0.24440 -0.08910
C13A C 0.9821(11) 0.2450(14) -0.0246(8)
H15A H 0.94360 0.19140 0.03020
H16A H 0.91330 0.34710 -0.02310
H17A H 0.97810 0.21420 -0.10100
C14A C 1.2560(14) 0.0575(8) 0.0224(7)
H18A H 1.23610 0.01120 -0.04220
H19A H 1.37080 0.03820 0.02690
H20A H 1.22550 0.02010 0.09280
C15A C 1.2918(6) 0.2602(5) 0.5865(4)
H21A H 1.34110 0.32420 0.57020
C16A C 1.3862(6) 0.1202(5) 0.6310(4)
C17A C 1.3153(6) 0.0277(5) 0.6584(4)
H22A H 1.37680 -0.06570 0.69120
C18A C 1.1499(6) 0.0759(5) 0.6362(4)
C19A C 1.0615(6) 0.2130(5) 0.5891(4)
H23A H 0.94980 0.24340 0.57210
N1A N 1.1319(5) 0.3040(4) 0.5670(3)
O1A O 0.9397(4) 0.4185(3) 0.3766(2)
O2A O 1.1801(4) 0.4916(3) 0.4104(3)
Br1A Br 1.04483(8) -0.04641(6) 0.67004(7)
Br2A Br 1.61305(7) 0.05984(6) 0.65161(5)
#END
