
#######################################################################
#
#                 Cambridge Crystallographic Data Centre
#                                CCDC
#
#######################################################################
#
# If this CIF has been generated from an entry in the Cambridge
# Structural Database, then it will include bibliographic, chemical,
# crystal, experimental, refinement or atomic coordinate data resulting
# from the CCDC's data processing and validation procedures.
#
#######################################################################

data_CSD_CIF_TAWLOT
_audit_creation_date 2005-12-15
_audit_creation_method CSD-ConQuest-V1
_database_code_CSD TAWLOT
_database_code_depnum_ccdc_archive 'CCDC 285501'
_chemical_formula_sum 'C18 H18 Fe1 N2 O2'
_chemical_formula_moiety
;
C18 H18 Fe1 N2 O2
;
_journal_coeditor_code "IUCr BT6723"
_journal_coden_Cambridge 1370
_journal_volume 61
_journal_year 2005
_journal_page_first m1871
_journal_name_full 'Acta Crystallogr.,Sect.E:Struct.Rep.Online '
loop_
_publ_author_name
"Hong-Xing Wang"
"Ying-Jie Li"
"Hong-Fei Wu"
"Hui-Chao Zhou"
"Ren-Qing Gao"
"Feng-Ying Geng"
_chemical_name_systematic
;
(N-Methyl-N-(3-nitrophenyl)aminomethyl)ferrocene
;
_cell_volume    786.880
_exptl_crystal_colour 'yellow'
_exptl_crystal_density_diffrn 1.478
_exptl_crystal_description 'block'
_exptl_crystal_preparation 'dichloromethane/petroleum ether'
_diffrn_ambient_temperature 293
#These two values have been output from a single CSD field.
_refine_ls_R_factor_gt 0.027
_refine_ls_wR_factor_gt 0.027
_symmetry_cell_setting triclinic
_symmetry_space_group_name_H-M 'P -1'
_symmetry_Int_Tables_number 2
loop_
_symmetry_equiv_pos_site_id
_symmetry_equiv_pos_as_xyz
1 x,y,z
2 -x,-y,-z
_cell_length_a 8.2896(14)
_cell_length_b 9.7588(16)
_cell_length_c 10.5669(17)
_cell_angle_alpha 90.153(3)
_cell_angle_beta 109.629(2)
_cell_angle_gamma 101.455(2)
_cell_formula_units_Z 2
loop_
_atom_type_symbol
_atom_type_radius_bond
C 0.68
H 0.23
Fe 1.34
N 0.68
O 0.68
loop_
_atom_site_label
_atom_site_type_symbol
_atom_site_fract_x
_atom_site_fract_y
_atom_site_fract_z
Fe1 Fe 0.60324(3) 0.57687(3) 0.77733(2)
O1 O 1.0486(2) 0.60154(17) 0.39225(17)
O2 O 1.0483(3) 0.7810(2) 0.27453(17)
N1 N 1.0727(2) 0.7283(2) 0.38315(18)
N2 N 1.1589(2) 0.79651(16) 0.86146(16)
C1 C 1.1714(2) 0.84975(19) 0.7420(2)
C2 C 1.1152(2) 0.76466(19) 0.62206(19)
H1 H 1.06510 0.67010 0.61970
C3 C 1.1344(2) 0.8216(2) 0.5072(2)
C4 C 1.2097(3) 0.9597(2) 0.5025(3)
H2 H 1.22040 0.99510 0.42340
C5 C 1.2682(3) 1.0425(2) 0.6212(3)
H3 H 1.32220 1.13600 0.62280
C6 C 1.2492(3) 0.9913(2) 0.7382(2)
H4 H 1.28850 1.05110 0.81590
C7 C 1.2013(3) 0.8955(2) 0.9772(2)
H5 H 1.32280 0.94130 1.00470
H6 H 1.17900 0.84630 1.05010
H7 H 1.13010 0.96440 0.95300
C8 C 1.0213(2) 0.67246(19) 0.85545(19)
H8 H 1.05370 0.62930 0.94050
H9 H 1.01350 0.60470 0.78520
C9 C 0.8450(2) 0.70834(18) 0.82767(18)
C10 C 0.7640(3) 0.7284(2) 0.9242(2)
H10 H 0.80940 0.71730 1.01600
C11 C 0.6026(3) 0.7683(2) 0.8566(2)
H11 H 0.52370 0.78690 0.89610
C12 C 0.5831(3) 0.7746(2) 0.7183(2)
H12 H 0.48960 0.79900 0.65120
C13 C 0.7314(2) 0.73732(19) 0.70031(19)
H13 H 0.75120 0.73260 0.61900
C14 C 0.6393(3) 0.3756(2) 0.7761(2)
H14 H 0.74660 0.34900 0.79830
C15 C 0.5358(3) 0.40409(19) 0.6463(2)
H15 H 0.56320 0.39940 0.56810
C16 C 0.3833(3) 0.4409(2) 0.6560(2)
H16 H 0.29290 0.46470 0.58550
C17 C 0.3928(3) 0.4353(2) 0.7922(2)
H17 H 0.30970 0.45480 0.82680
C18 C 0.5509(3) 0.3947(2) 0.8665(2)
H18 H 0.58980 0.38280 0.95830
#END
