
#######################################################################
#
#                 Cambridge Crystallographic Data Centre
#                                CCDC
#
#######################################################################
#
# If this CIF has been generated from an entry in the Cambridge
# Structural Database, then it will include bibliographic, chemical,
# crystal, experimental, refinement or atomic coordinate data resulting
# from the CCDC's data processing and validation procedures.
#
#######################################################################

data_CSD_CIF_TAXCED
_audit_creation_date 2017-04-01
_audit_creation_method CSD-ConQuest-V1
_database_code_CSD TAXCED
_database_code_depnum_ccdc_archive 'CCDC 1539878'
_chemical_formula_sum 'C8 H14 Mn1 N4 O8'
_chemical_formula_moiety
;
C8 H14 Mn1 N4 O8
;
_journal_coeditor_code "wm5373"
_journal_coden_Cambridge 1828
_journal_volume 73
_journal_year 2017
_journal_page_first 620
_journal_name_full 'Acta Crystallogr.,Sect.E:Cryst.Commun. '
loop_
_publ_author_name
"K.A.Shennara"
"R.J.Butcher"
"F.T.Greenaway"
_chemical_name_systematic
;
Tetra-aqua-bis(pyrimidin-1-ium-4,6-diolato)-manganese(ii)
;
_cell_volume    656.477
_exptl_crystal_colour 'yellow'
_exptl_crystal_density_diffrn 1.766
_exptl_crystal_description 'block'
_diffrn_ambient_temperature 120
#These two values have been output from a single CSD field.
_refine_ls_R_factor_gt 0.0266
_refine_ls_wR_factor_gt 0.0266
_symmetry_cell_setting monoclinic
_symmetry_space_group_name_H-M 'P 21/c'
_symmetry_Int_Tables_number 14
loop_
_symmetry_equiv_pos_site_id
_symmetry_equiv_pos_as_xyz
1 x,y,z
2 -x,1/2+y,1/2-z
3 -x,-y,-z
4 x,-1/2-y,-1/2+z
_cell_length_a 5.2156(5)
_cell_length_b 14.0812(14)
_cell_length_c 9.0595(9)
_cell_angle_alpha 90
_cell_angle_beta 99.366(2)
_cell_angle_gamma 90
_cell_formula_units_Z 2
loop_
_atom_type_symbol
_atom_type_radius_bond
C 0.68
H 0.23
Mn 1.61
N 0.68
O 0.68
loop_
_atom_site_label
_atom_site_type_symbol
_atom_site_fract_x
_atom_site_fract_y
_atom_site_fract_z
Mn1 Mn 0.50000 0.50000 0.50000
O1 O 0.25688(17) 0.38379(6) 0.56407(10)
O2 O -0.08946(18) 0.07807(6) 0.62265(10)
O3 O 0.17104(18) 0.54921(7) 0.33556(11)
H1 H 0.114(5) 0.5129(16) 0.271(3)
H2 H 0.045(5) 0.5682(17) 0.370(3)
O4 O 0.6010(2) 0.40720(7) 0.32982(11)
H3 H 0.562(5) 0.3534(18) 0.353(3)
H4 H 0.702(5) 0.4026(17) 0.267(3)
N1 N 0.2263(2) 0.10486(8) 0.48187(11)
H5 H 0.219(5) 0.0429(18) 0.453(3)
N2 N 0.4089(2) 0.25411(8) 0.45266(11)
C1 C 0.2421(2) 0.29415(9) 0.54070(13)
C2 C 0.0651(2) 0.23594(9) 0.60057(13)
H6 H -0.04964 0.26321 0.66018
C3 C 0.0573(2) 0.13885(9) 0.57302(13)
C4 C 0.3920(2) 0.16342(9) 0.42645(13)
H7 H 0.50330 0.13665 0.36432
O1B O 0.74312(17) 0.61621(6) 0.43593(10)
O2B O 1.08946(18) 0.92193(6) 0.37735(10)
O3B O 0.82896(18) 0.45079(7) 0.66444(11)
H1B H 0.886(5) 0.4871(16) 0.729(3)
H2B H 0.955(5) 0.4318(17) 0.630(3)
O4B O 0.3990(2) 0.59280(7) 0.67018(11)
H3B H 0.438(5) 0.6466(18) 0.647(3)
H4B H 0.298(5) 0.5974(17) 0.733(3)
N1B N 0.7737(2) 0.89514(8) 0.51813(11)
H5B H 0.781(5) 0.9571(18) 0.547(3)
N2B N 0.5911(2) 0.74589(8) 0.54734(11)
C1B C 0.7579(2) 0.70585(9) 0.45930(13)
C2B C 0.9349(2) 0.76406(9) 0.39943(13)
H6B H 1.04964 0.73679 0.33982
C3B C 0.9427(2) 0.86115(9) 0.42698(13)
C4B C 0.6080(2) 0.83658(9) 0.57355(13)
H7B H 0.49670 0.86335 0.63568
#END
