
#######################################################################
#
#                 Cambridge Crystallographic Data Centre
#                                CCDC
#
#######################################################################
#
# If this CIF has been generated from an entry in the Cambridge
# Structural Database, then it will include bibliographic, chemical,
# crystal, experimental, refinement or atomic coordinate data resulting
# from the CCDC's data processing and validation procedures.
#
#######################################################################

data_CSD_CIF_TAXQUH
_audit_creation_date 2017-08-09
_audit_creation_method CSD-ConQuest-V1
_database_code_CSD TAXQUH
_database_code_depnum_ccdc_archive 'CCDC 1522544'
_chemical_formula_sum 'C14 H26 Fe1 O6'
_chemical_formula_moiety
;
C14 H26 Fe1 O6
;
_journal_coden_Cambridge 4
_journal_volume 139
_journal_year 2017
_journal_page_first 2484
_journal_name_full 'J.Am.Chem.Soc. '
loop_
_publ_author_name
"J.C.Lo"
"Dongyoung Kim"
"Chung-Mao Pan"
"J.T.Edwards"
"Yuki Yabe"
"Jinghan Gui"
"Tian Qin"
"S.Gutierrez"
"J.Giacoboni"
"M.W.Smith"
"P.L.Holland"
"P.S.Baran"
_chemical_name_systematic
;
bis(acetylacetonato)-bis(ethanol)-iron(ii)
;
_cell_volume    405.300
_exptl_crystal_colour 'black'
_exptl_crystal_density_diffrn 1.418
_exptl_crystal_description 'Block'
_diffrn_ambient_temperature 93
#These two values have been output from a single CSD field.
_refine_ls_R_factor_gt 0.0286
_refine_ls_wR_factor_gt 0.0286
_symmetry_cell_setting triclinic
_symmetry_space_group_name_H-M 'P -1'
_symmetry_Int_Tables_number 2
loop_
_symmetry_equiv_pos_site_id
_symmetry_equiv_pos_as_xyz
1 x,y,z
2 -x,-y,-z
_cell_length_a 5.2765(5)
_cell_length_b 8.7572(7)
_cell_length_c 9.3297(8)
_cell_angle_alpha 75.803(7)
_cell_angle_beta 82.097(7)
_cell_angle_gamma 76.752(7)
_cell_formula_units_Z 1
loop_
_atom_type_symbol
_atom_type_radius_bond
C 0.68
H 0.23
Fe 1.52
O 0.68
loop_
_atom_site_label
_atom_site_type_symbol
_atom_site_fract_x
_atom_site_fract_y
_atom_site_fract_z
Fe1 Fe 0.50000 0.50000 0.50000
O1 O 0.3156(2) 0.31069(13) 0.52999(12)
O2 O 0.6483(2) 0.39396(13) 0.69902(12)
C1 C 0.2117(3) 0.0532(2) 0.6144(2)
H1 H 0.02230 0.08880 0.63230
H2 H 0.27110 -0.04650 0.68680
H3 H 0.25330 0.03380 0.51390
C2 C 0.3471(3) 0.18110(19) 0.62988(18)
C3 C 0.4928(3) 0.1521(2) 0.75063(18)
H4 H 0.50010 0.05110 0.81870
C4 C 0.6299(3) 0.2583(2) 0.78082(18)
C5 C 0.7707(3) 0.2093(2) 0.91978(19)
H5 H 0.95860 0.20260 0.89320
H6 H 0.73970 0.10410 0.97620
H7 H 0.70560 0.28930 0.98050
O3 O 0.8543(2) 0.36802(14) 0.39391(13)
H8 H 0.994(4) 0.355(3) 0.433(2)
C6 C 0.9086(3) 0.4114(2) 0.23652(18)
H9 H 0.92780 0.52500 0.20740
H10 H 0.75930 0.40210 0.18780
C7 C 1.1537(3) 0.3064(2) 0.1831(2)
H11 H 1.18230 0.33890 0.07490
H12 H 1.13530 0.19380 0.21140
H13 H 1.30310 0.31820 0.22840
O1A O 0.6844(2) 0.68931(13) 0.47001(12)
O2A O 0.3517(2) 0.60604(13) 0.30098(12)
C1A C 0.7883(3) 0.9468(2) 0.3856(2)
H1A H 0.97770 0.91120 0.36770
H2A H 0.72890 1.04650 0.31320
H3A H 0.74670 0.96620 0.48610
C2A C 0.6529(3) 0.81890(19) 0.37012(18)
C3A C 0.5072(3) 0.8479(2) 0.24937(18)
H4A H 0.49990 0.94890 0.18130
C4A C 0.3701(3) 0.7417(2) 0.21918(18)
C5A C 0.2293(3) 0.7907(2) 0.08022(19)
H5A H 0.04140 0.79740 0.10680
H6A H 0.26030 0.89590 0.02380
H7A H 0.29440 0.71070 0.01950
O3A O 0.1457(2) 0.63198(14) 0.60609(13)
H8A H 0.006(4) 0.645(3) 0.567(2)
C6A C 0.0914(3) 0.5886(2) 0.76348(18)
H9A H 0.07220 0.47500 0.79260
H10A H 0.24070 0.59790 0.81220
C7A C -0.1537(3) 0.6936(2) 0.8169(2)
H11A H -0.18230 0.66110 0.92510
H12A H -0.13530 0.80620 0.78860
H13A H -0.30310 0.68180 0.77160
#END
