
#######################################################################
#
#                 Cambridge Crystallographic Data Centre
#                                CCDC
#
#######################################################################
#
# If this CIF has been generated from an entry in the Cambridge
# Structural Database, then it will include bibliographic, chemical,
# crystal, experimental, refinement or atomic coordinate data resulting
# from the CCDC's data processing and validation procedures.
#
#######################################################################

data_CSD_CIF_TBZQCR
_audit_creation_date 1979-09-10
_audit_creation_method CSD-ConQuest-V1
_database_code_CSD TBZQCR
_database_code_depnum_ccdc_archive 'CCDC 1267720'
_chemical_formula_sum 'C42 H60 Cr1 O6'
_chemical_formula_moiety
;
C42 H60 Cr1 O6
;
_journal_coden_Cambridge 9
_journal_volume 18
_journal_year 1979
_journal_page_first 234
_journal_name_full 'Inorg.Chem. '
loop_
_publ_author_name
"S.R.Sofen"
"D.C.Ware"
"S.R.Cooper"
"K.N.Raymond"
_chemical_name_systematic
;
tris(3,5-Di-t-butyl-o-benzoquinone)-chromium(0)
;
_cell_volume   3225.709
_exptl_crystal_density_diffrn 1.11
_diffrn_ambient_temperature ?
_diffrn_special_details
;
The study was carried out at room temperature,in the range 283-303K

;
#These two values have been output from a single CSD field.
_refine_ls_R_factor_gt 0.056
_refine_ls_wR_factor_gt 0.056
_symmetry_cell_setting rhombohedral
_symmetry_space_group_name_H-M 'R 3'
_symmetry_Int_Tables_number 146
loop_
_symmetry_equiv_pos_site_id
_symmetry_equiv_pos_as_xyz
1 x,y,z
2 1/3+x,2/3+y,2/3+z
3 2/3+x,1/3+y,1/3+z
4 -y,x-y,z
5 -x+y,-x,z
6 1/3-y,2/3+x-y,2/3+z
7 1/3-x+y,2/3-x,2/3+z
8 2/3-y,1/3+x-y,1/3+z
9 2/3-x+y,1/3-x,1/3+z
_cell_length_a 16.385(3)
_cell_length_b 16.385(3)
_cell_length_c 13.874(4)
_cell_angle_alpha 90
_cell_angle_beta 90
_cell_angle_gamma 120
_cell_formula_units_Z 3
loop_
_atom_type_symbol
_atom_type_radius_bond
C 0.68
H 0.23
Cr 1.35
O 0.68
loop_
_atom_site_label
_atom_site_type_symbol
_atom_site_fract_x
_atom_site_fract_y
_atom_site_fract_z
Cr1 Cr 0.00000 0.00000 0.00000
O1 O 0.09860 0.09820 -0.07770
O2 O 0.10680 0.02210 0.07710
C1 C 0.18140 0.12960 -0.04320
C2 C 0.18770 0.08790 0.04520
C3 C 0.27630 0.11590 0.08880
C4 C 0.35300 0.18350 0.04020
C5 C 0.34950 0.22720 -0.04610
C6 C 0.26320 0.20010 -0.08680
C7 C 0.28250 0.07160 0.18340
C8 C 0.23910 0.10500 0.26140
C9 C 0.22900 -0.03590 0.17370
C10 C 0.38460 0.10850 0.20810
C11 C 0.44220 0.30340 -0.09460
C12 C 0.51600 0.35800 -0.03320
C13 C 0.42150 0.35020 -0.17130
C14 C 0.47770 0.24360 -0.13600
H1 H 0.41350 0.20290 0.06670
H2 H 0.25900 0.22950 -0.14410
H3 H 0.17880 0.09920 0.24460
H4 H 0.28070 0.16800 0.28620
H5 H 0.23000 0.05900 0.31030
H6 H 0.26580 -0.05630 0.13710
H7 H 0.16900 -0.05680 0.14150
H8 H 0.21740 -0.05290 0.23790
H9 H 0.40870 0.17590 0.20730
H10 H 0.40620 0.09060 0.15100
H11 H 0.40740 0.09200 0.26520
H12 H 0.49940 0.39620 0.00430
H13 H 0.57050 0.39820 -0.07440
H14 H 0.53500 0.32240 0.00940
H15 H 0.36220 0.30350 -0.20000
H16 H 0.47150 0.36960 -0.21850
H17 H 0.41680 0.40450 -0.15130
H18 H 0.53790 0.28610 -0.16580
H19 H 0.43300 0.20520 -0.18560
H20 H 0.48550 0.20320 -0.09050
O1C O -0.09820 0.00040 -0.07770
O1D O -0.00040 -0.09860 -0.07770
O2C O -0.02210 0.08470 0.07710
O2D O -0.08470 -0.10680 0.07710
C1C C -0.12960 0.05180 -0.04320
C1D C -0.05180 -0.18140 -0.04320
C2C C -0.08790 0.09980 0.04520
C2D C -0.09980 -0.18770 0.04520
C6C C -0.20010 0.06310 -0.08680
C6D C -0.06310 -0.26320 -0.08680
C3C C -0.11590 0.16040 0.08880
C3D C -0.16040 -0.27630 0.08880
C5C C -0.22720 0.12230 -0.04610
H2C H -0.22950 0.02950 -0.14410
C5D C -0.12230 -0.34950 -0.04610
H2D H -0.02950 -0.25900 -0.14410
C4C C -0.18350 0.16950 0.04020
C7C C -0.07160 0.21090 0.18340
C4D C -0.16950 -0.35300 0.04020
C7D C -0.21090 -0.28250 0.18340
C11C C -0.30340 0.13880 -0.09460
C11D C -0.13880 -0.44220 -0.09460
H1C H -0.20290 0.21060 0.06670
C8C C -0.10500 0.13410 0.26140
C9C C 0.03590 0.26490 0.17370
C10C C -0.10850 0.27610 0.20810
H1D H -0.21060 -0.41350 0.06670
C8D C -0.13410 -0.23910 0.26140
C9D C -0.26490 -0.22900 0.17370
C10D C -0.27610 -0.38460 0.20810
C12C C -0.35800 0.15800 -0.03320
C13C C -0.35020 0.07130 -0.17130
C14C C -0.24360 0.23410 -0.13600
C12D C -0.15800 -0.51600 -0.03320
C13D C -0.07130 -0.42150 -0.17130
C14D C -0.23410 -0.47770 -0.13600
H3C H -0.09920 0.07960 0.24460
H4C H -0.16800 0.11270 0.28620
H5C H -0.05900 0.17100 0.31030
H6C H 0.05630 0.32210 0.13710
H7C H 0.05680 0.22580 0.14150
H8C H 0.05290 0.27030 0.23790
H9C H -0.17590 0.23280 0.20730
H10C H -0.09060 0.31560 0.15100
H11C H -0.09200 0.31540 0.26520
H3D H -0.07960 -0.17880 0.24460
H4D H -0.11270 -0.28070 0.28620
H5D H -0.17100 -0.23000 0.31030
H6D H -0.32210 -0.26580 0.13710
H7D H -0.22580 -0.16900 0.14150
H8D H -0.27030 -0.21740 0.23790
H9D H -0.23280 -0.40870 0.20730
H10D H -0.31560 -0.40620 0.15100
H11D H -0.31540 -0.40740 0.26520
H12C H -0.39620 0.10320 0.00430
H13C H -0.39820 0.17230 -0.07440
H14C H -0.32240 0.21260 0.00940
H15C H -0.30350 0.05870 -0.20000
H16C H -0.36960 0.10190 -0.21850
H17C H -0.40450 0.01230 -0.15130
H18C H -0.28610 0.25180 -0.16580
H19C H -0.20520 0.22780 -0.18560
H20C H -0.20320 0.28230 -0.09050
H12D H -0.10320 -0.49940 0.00430
H13D H -0.17230 -0.57050 -0.07440
H14D H -0.21260 -0.53500 0.00940
H15D H -0.05870 -0.36220 -0.20000
H16D H -0.10190 -0.47150 -0.21850
H17D H -0.01230 -0.41680 -0.15130
H18D H -0.25180 -0.53790 -0.16580
H19D H -0.22780 -0.43300 -0.18560
H20D H -0.28230 -0.48550 -0.09050
#END
