
#######################################################################
#
#                 Cambridge Crystallographic Data Centre
#                                CCDC
#
#######################################################################
#
# If this CIF has been generated from an entry in the Cambridge
# Structural Database, then it will include bibliographic, chemical,
# crystal, experimental, refinement or atomic coordinate data resulting
# from the CCDC's data processing and validation procedures.
#
#######################################################################

data_CSD_CIF_TEBVOM
_audit_creation_date 2006-03-28
_audit_creation_method CSD-ConQuest-V1
_database_code_CSD TEBVOM
_database_code_depnum_ccdc_archive 'CCDC 282086'
_chemical_formula_sum 'C16 H16 B1 Cl1 Fe1 O3'
_chemical_formula_moiety
;
C16 H16 B1 Cl1 Fe1 O3
;
_journal_coden_Cambridge 222
_journal_year 2006
_journal_page_first 399
_journal_name_full 'Dalton Trans. '
loop_
_publ_author_name
"D.L.Kays"
"A.Rossin"
"J.K.Day"
"Li-Ling Ooi"
"S.Aldridge"
_chemical_name_systematic
;
Dicarbonyl-(\h^5^-cyclopentadienyl)-(chloro(2,4,6-trimethylphenoxy)boryl)-iron
;
_cell_volume    824.285
_exptl_crystal_colour 'colorless'
_exptl_crystal_density_diffrn 1.444
_exptl_crystal_description 'plate'
_exptl_crystal_preparation 'hexanes'
_diffrn_ambient_temperature 180
#These two values have been output from a single CSD field.
_refine_ls_R_factor_gt 0.0516
_refine_ls_wR_factor_gt 0.0516
_symmetry_cell_setting triclinic
_symmetry_space_group_name_H-M 'P -1'
_symmetry_Int_Tables_number 2
loop_
_symmetry_equiv_pos_site_id
_symmetry_equiv_pos_as_xyz
1 x,y,z
2 -x,-y,-z
_cell_length_a 7.8325(3)
_cell_length_b 8.0671(3)
_cell_length_c 13.6886(6)
_cell_angle_alpha 81.631(2)
_cell_angle_beta 81.424(2)
_cell_angle_gamma 75.958(2)
_cell_formula_units_Z 2
loop_
_atom_type_symbol
_atom_type_radius_bond
C 0.68
H 0.23
B 0.83
Cl 0.99
Fe 1.34
O 0.68
loop_
_atom_site_label
_atom_site_type_symbol
_atom_site_fract_x
_atom_site_fract_y
_atom_site_fract_z
C1 C 0.0496(5) -0.4373(4) 0.1178(2)
C2 C 0.3403(5) -0.6728(5) 0.0885(3)
C3 C 0.4293(5) -0.5755(5) 0.2762(3)
H1 H 0.50050 -0.68540 0.29540
C4 C 0.2618(5) -0.5010(5) 0.3238(3)
H2 H 0.20050 -0.55080 0.38140
C5 C 0.2013(5) -0.3384(4) 0.2703(3)
H3 H 0.09120 -0.26040 0.28500
C6 C 0.3343(6) -0.3126(5) 0.1905(3)
H4 H 0.32980 -0.21390 0.14280
C7 C 0.4722(5) -0.4584(5) 0.1950(3)
H5 H 0.57850 -0.47600 0.15040
C8 C -0.1401(4) -0.8425(4) 0.2861(2)
C9 C -0.1813(4) -0.9340(4) 0.2181(2)
C10 C -0.2646(4) -1.0672(4) 0.2549(3)
H6 H -0.29410 -1.13140 0.20950
C11 C -0.3066(4) -1.1098(4) 0.3567(3)
C12 C -0.2673(4) -1.0101(4) 0.4215(3)
H7 H -0.29810 -1.03520 0.49090
C13 C -0.1842(4) -0.8747(4) 0.3878(2)
C14 C -0.1332(5) -0.8911(5) 0.1081(3)
H8 H -0.18970 -0.77100 0.08800
H9 H -0.17440 -0.96670 0.07140
H10 H -0.00420 -0.90760 0.09330
C15 C -0.3920(5) -1.2598(5) 0.3944(3)
H11 H -0.40890 -1.27290 0.46730
H12 H -0.31520 -1.36510 0.37100
H13 H -0.50710 -1.23850 0.36940
C16 C -0.1431(5) -0.7690(5) 0.4603(3)
H14 H -0.01460 -0.78120 0.45530
H15 H -0.18740 -0.80960 0.52810
H16 H -0.20070 -0.64770 0.44450
B1 B 0.1193(5) -0.7177(5) 0.2386(3)
Cl1 Cl 0.25061(11) -0.92238(10) 0.28790(7)
Fe1 Fe 0.23920(6) -0.53192(6) 0.17766(3)
O1 O -0.0771(4) -0.3746(3) 0.08167(19)
O2 O 0.4086(4) -0.7678(4) 0.0328(2)
O3 O -0.0574(3) -0.7053(3) 0.24893(16)
#END
