
#######################################################################
#
#                 Cambridge Crystallographic Data Centre
#                                CCDC
#
#######################################################################
#
# If this CIF has been generated from an entry in the Cambridge
# Structural Database, then it will include bibliographic, chemical,
# crystal, experimental, refinement or atomic coordinate data resulting
# from the CCDC's data processing and validation procedures.
#
#######################################################################

data_CSD_CIF_TEBVIH
_audit_creation_date 2012-11-07
_audit_creation_method CSD-ConQuest-V1
_database_code_CSD TEBVIH
_database_code_depnum_ccdc_archive 'CCDC 803666'
_chemical_formula_sum 'C6 H30 Cl2 Mn1 N6'
_chemical_formula_moiety
;
C6 H30 Mn1 N6 2+,2(Cl1 1-)
;
_journal_coden_Cambridge 29
_journal_volume 638
_journal_year 2012
_journal_page_first 129
_journal_name_full 'Z.Anorg.Allg.Chem. '
loop_
_publ_author_name
"O.Kysliak"
"J.Daniels"
"G.Schnakenburg"
"J.Beck"
_chemical_name_systematic
;
hexakis(methylamine)-manganese(ii) dichloride
;
_cell_volume   1180.360
_exptl_crystal_colour 'colorless'
_exptl_crystal_density_diffrn 1.318
_exptl_crystal_description 'prismatic'
_diffrn_ambient_temperature 123
#These two values have been output from a single CSD field.
_refine_ls_R_factor_gt 0.0246
_refine_ls_wR_factor_gt 0.0246
_symmetry_cell_setting rhombohedral
_symmetry_space_group_name_H-M 'R -3'
_symmetry_Int_Tables_number 148
loop_
_symmetry_equiv_pos_site_id
_symmetry_equiv_pos_as_xyz
1 x,y,z
2 -y,x-y,z
3 -x+y,-x,z
4 2/3+x,1/3+y,1/3+z
5 2/3-y,1/3+x-y,1/3+z
6 2/3-x+y,1/3-x,1/3+z
7 1/3+x,2/3+y,2/3+z
8 1/3-y,2/3+x-y,2/3+z
9 1/3-x+y,2/3-x,2/3+z
10 -x,-y,-z
11 y,-x+y,-z
12 x-y,x,-z
13 -2/3-x,-1/3-y,-1/3-z
14 -2/3+y,-1/3-x+y,-1/3-z
15 -2/3+x-y,-1/3+x,-1/3-z
16 -1/3-x,-2/3-y,-2/3-z
17 -1/3+y,-2/3-x+y,-2/3-z
18 -1/3+x-y,-2/3+x,-2/3-z
_cell_length_a 8.5103(3)
_cell_length_b 8.5103(3)
_cell_length_c 18.8189(6)
_cell_angle_alpha 90
_cell_angle_beta 90
_cell_angle_gamma 120
_cell_formula_units_Z 3
loop_
_atom_type_symbol
_atom_type_radius_bond
C 0.68
H 0.23
Cl 0.99
Mn 1.61
N 0.68
loop_
_atom_site_label
_atom_site_type_symbol
_atom_site_fract_x
_atom_site_fract_y
_atom_site_fract_z
Mn1 Mn 0.00000 0.00000 0.00000
Cl1 Cl 0.00000 0.00000 -0.23168(3)
N1 N 0.21197(18) 0.21053(17) 0.07643(7)
C1 C 0.2227(2) 0.3887(2) 0.07562(9)
H1 H 0.174(2) 0.163(2) 0.1170(9)
H2 H 0.317(2) 0.226(2) 0.0739(8)
H3 H 0.102(3) 0.372(2) 0.0802(8)
H4 H 0.273(2) 0.448(2) 0.0326(9)
H5 H 0.295(2) 0.469(2) 0.1155(8)
N1A N -0.21053(18) 0.00144(17) 0.07643(7)
N1B N -0.00144(18) -0.21197(17) 0.07643(7)
N1I N -0.21197(18) -0.21053(17) -0.07643(7)
N1J N 0.21053(18) -0.00144(17) -0.07643(7)
N1K N 0.00144(18) 0.21197(17) -0.07643(7)
C1A C -0.3887(2) -0.1660(2) 0.07562(9)
C1B C 0.1660(2) -0.2227(2) 0.07562(9)
C1I C -0.2227(2) -0.3887(2) -0.07562(9)
C1J C 0.3887(2) 0.1660(2) -0.07562(9)
C1K C -0.1660(2) 0.2227(2) -0.07562(9)
H1A H -0.163(2) 0.011(2) 0.1170(9)
H1B H -0.011(2) -0.174(2) 0.1170(9)
H1I H -0.174(2) -0.163(2) -0.1170(9)
H1J H 0.163(2) -0.011(2) -0.1170(9)
H1K H 0.011(2) 0.174(2) -0.1170(9)
H2A H -0.226(2) 0.091(2) 0.0739(8)
H2B H -0.091(2) -0.317(2) 0.0739(8)
H2I H -0.317(2) -0.226(2) -0.0739(8)
H2J H 0.226(2) -0.091(2) -0.0739(8)
H2K H 0.091(2) 0.317(2) -0.0739(8)
H3A H -0.372(3) -0.270(2) 0.0802(8)
H3B H 0.270(3) -0.102(2) 0.0802(8)
H3I H -0.102(3) -0.372(2) -0.0802(8)
H3J H 0.372(3) 0.270(2) -0.0802(8)
H3K H -0.270(3) 0.102(2) -0.0802(8)
H4A H -0.448(2) -0.175(2) 0.0326(9)
H4B H 0.175(2) -0.273(2) 0.0326(9)
H4I H -0.273(2) -0.448(2) -0.0326(9)
H4J H 0.448(2) 0.175(2) -0.0326(9)
H4K H -0.175(2) 0.273(2) -0.0326(9)
H5A H -0.469(2) -0.174(2) 0.1155(8)
H5B H 0.174(2) -0.295(2) 0.1155(8)
H5I H -0.295(2) -0.469(2) -0.1155(8)
H5J H 0.469(2) 0.174(2) -0.1155(8)
H5K H -0.174(2) 0.295(2) -0.1155(8)
#END
