
#######################################################################
#
#                 Cambridge Crystallographic Data Centre
#                                CCDC
#
#######################################################################
#
# If this CIF has been generated from an entry in the Cambridge
# Structural Database, then it will include bibliographic, chemical,
# crystal, experimental, refinement or atomic coordinate data resulting
# from the CCDC's data processing and validation procedures.
#
#######################################################################

data_CSD_CIF_TECFIR
_audit_creation_date 2006-03-28
_audit_creation_method CSD-ConQuest-V1
_database_code_CSD TECFIR
_database_code_depnum_ccdc_archive 'CCDC 298405'
_chemical_formula_sum 'C14 H25 Mn1 N1 O5'
_chemical_formula_moiety
;
C14 H25 Mn1 N1 O5
;
_journal_coeditor_code "IUCr CV6611"
_journal_coden_Cambridge 1370
_journal_volume 62
_journal_year 2006
_journal_page_first m224
_journal_name_full 'Acta Crystallogr.,Sect.E:Struct.Rep.Online '
loop_
_publ_author_name
"S.Muhammad"
"M.Mazhar"
"M.Zeller"
"A.D.Hunter"
_chemical_name_systematic
;
(2-(N,N-Dimethylamino)ethanol-N,O)-bis(2,4-pentanedionate-O,O')-manganese(ii)
;
_chemical_melting_point 398.15
_cell_volume    870.292
_exptl_crystal_colour 'yellowish'
_exptl_crystal_density_diffrn 1.306
_exptl_special_details
;
isostructural with the Co, Ni and Zn analogues

;
_exptl_crystal_description 'plate'
_exptl_crystal_preparation 'toluene'
_diffrn_ambient_temperature 110
#These two values have been output from a single CSD field.
_refine_ls_R_factor_gt 0.0366
_refine_ls_wR_factor_gt 0.0366
_symmetry_cell_setting triclinic
_symmetry_space_group_name_H-M 'P -1'
_symmetry_Int_Tables_number 2
loop_
_symmetry_equiv_pos_site_id
_symmetry_equiv_pos_as_xyz
1 x,y,z
2 -x,-y,-z
_cell_length_a 7.6392(14)
_cell_length_b 10.5533(19)
_cell_length_c 11.766(2)
_cell_angle_alpha 105.235(3)
_cell_angle_beta 103.187(3)
_cell_angle_gamma 98.154(3)
_cell_formula_units_Z 2
loop_
_atom_type_symbol
_atom_type_radius_bond
C 0.68
H 0.23
Mn 1.35
N 0.68
O 0.68
loop_
_atom_site_label
_atom_site_type_symbol
_atom_site_fract_x
_atom_site_fract_y
_atom_site_fract_z
Mn1 Mn 0.41002(3) 0.52507(2) 0.26919(2)
O1 O 0.64115(16) 0.58537(13) 0.44133(11)
H1 H 0.647(4) 0.616(2) 0.5166(16)
C1 C 0.8027(2) 0.53354(19) 0.43383(16)
H2 H 0.79650 0.45030 0.45800
H3 H 0.91350 0.60030 0.48980
C2 C 0.8128(2) 0.50392(18) 0.30232(16)
H4 H 0.83650 0.58940 0.28290
H5 H 0.91640 0.45920 0.29300
N1 N 0.64001(19) 0.41662(14) 0.21577(12)
C3 C 0.6198(3) 0.27949(18) 0.22543(19)
H6 H 0.50840 0.22180 0.16380
H7 H 0.61030 0.28140 0.30750
H8 H 0.72740 0.24390 0.21150
C4 C 0.6427(3) 0.4107(2) 0.08974(16)
H9 H 0.65910 0.50180 0.08260
H10 H 0.52620 0.35570 0.03210
H11 H 0.74480 0.37070 0.07060
C5 C 0.1300(3) 0.13877(18) 0.30038(18)
H12 H 0.24540 0.12350 0.34600
H13 H 0.06130 0.05540 0.23600
H14 H 0.05580 0.16690 0.35650
C6 C 0.1721(2) 0.24728(16) 0.24285(15)
C7 C 0.0875(2) 0.22396(17) 0.11908(16)
H15 H 0.00880 0.13840 0.07520
C8 C 0.1086(2) 0.31680(17) 0.05302(15)
C9 C -0.0018(3) 0.2782(2) -0.07946(16)
H16 H -0.06970 0.34790 -0.09160
H17 H -0.08890 0.19230 -0.10090
H18 H 0.08140 0.26930 -0.13190
O2 O 0.28447(16) 0.35572(11) 0.31465(10)
O3 O 0.21268(16) 0.43198(12) 0.09686(11)
C10 C 0.1792(3) 0.85390(18) 0.45908(18)
H19 H 0.05080 0.83150 0.40930
H20 H 0.22570 0.95140 0.48440
H21 H 0.18650 0.82410 0.53190
C11 C 0.2941(2) 0.78407(17) 0.38454(15)
C12 C 0.4110(2) 0.86151(17) 0.34015(16)
H22 H 0.42330 0.95620 0.36790
C13 C 0.5117(2) 0.81212(16) 0.25853(15)
C14 C 0.6188(3) 0.91068(19) 0.2129(2)
H23 H 0.75030 0.91150 0.23950
H24 H 0.59830 1.00090 0.24670
H25 H 0.57710 0.88350 0.12320
O4 O 0.27152(16) 0.65827(12) 0.36526(11)
O5 O 0.52144(17) 0.69063(11) 0.21747(11)
#END
