
#######################################################################
#
#                 Cambridge Crystallographic Data Centre
#                                CCDC
#
#######################################################################
#
# If this CIF has been generated from an entry in the Cambridge
# Structural Database, then it will include bibliographic, chemical,
# crystal, experimental, refinement or atomic coordinate data resulting
# from the CCDC's data processing and validation procedures.
#
#######################################################################

data_CSD_CIF_TEDJAN
_audit_creation_date 1997-01-23
_audit_creation_method CSD-ConQuest-V1
_database_code_CSD TEDJAN
_chemical_formula_sum 'C10 H14 Cl2 Cr1 N2 O2'
_chemical_formula_moiety
;
C10 H14 Cl2 Cr1 N2 O2
;
_journal_coden_Cambridge 155
_journal_volume 235
_journal_year 1995
_journal_page_first 21
_journal_name_full 'Inorg.Chim.Acta '
loop_
_publ_author_name
"F.A.Cotton"
"L.M.Daniels"
"Xuejun Feng"
"D.J.Maloney"
"C.A.Murillo"
"L.A.Zuniga"
_chemical_name_systematic
;
trans-Diaqua-dichloro-dipyridyl-chromium(ii)
;
_cell_volume    315.398
_exptl_crystal_colour 'green'
_exptl_crystal_density_diffrn 1.67
_exptl_special_details
;
Hygroscopic

;
_diffrn_ambient_temperature 223.15
#These two values have been output from a single CSD field.
_refine_ls_R_factor_gt 0.024
_refine_ls_wR_factor_gt 0.024
_symmetry_cell_setting triclinic
_symmetry_space_group_name_H-M 'P -1'
_symmetry_Int_Tables_number 2
loop_
_symmetry_equiv_pos_site_id
_symmetry_equiv_pos_as_xyz
1 x,y,z
2 -x,-y,-z
_cell_length_a 6.248(2)
_cell_length_b 6.640(2)
_cell_length_c 8.506(3)
_cell_angle_alpha 109.49(2)
_cell_angle_beta 100.84(2)
_cell_angle_gamma 100.31(2)
_cell_formula_units_Z 1
loop_
_atom_type_symbol
_atom_type_radius_bond
C 0.68
H 0.23
Cl 0.99
Cr 1.54
N 0.68
O 0.68
loop_
_atom_site_label
_atom_site_type_symbol
_atom_site_fract_x
_atom_site_fract_y
_atom_site_fract_z
Cr1 Cr 0.00000 0.00000 0.00000
Cl1 Cl -0.28916(9) 0.24882(9) -0.06911(8)
O1 O 0.2659(3) 0.2611(3) 0.0374(2)
N1 N 0.0264(3) 0.1442(3) 0.2692(2)
C1 C -0.1566(4) 0.1438(4) 0.3300(3)
C2 C -0.1427(4) 0.2268(4) 0.5045(3)
C3 C 0.0640(5) 0.3162(4) 0.6214(3)
C4 C 0.2549(5) 0.3186(4) 0.5614(3)
C5 C 0.2285(4) 0.2312(4) 0.3856(3)
H1 H 0.365(5) 0.249(5) 0.018(4)
H2 H 0.250(5) 0.377(5) 0.044(4)
H3 H -0.300(5) 0.084(4) 0.244(4)
H4 H -0.281(4) 0.214(4) 0.539(3)
H5 H 0.084(4) 0.374(4) 0.736(3)
H6 H 0.397(5) 0.373(4) 0.633(4)
H7 H 0.351(5) 0.236(4) 0.339(3)
Cl1A Cl 0.28916(9) -0.24882(9) 0.06911(8)
O1A O -0.2659(3) -0.2611(3) -0.0374(2)
H1A H -0.365(5) -0.249(5) -0.018(4)
H2A H -0.250(5) -0.377(5) -0.044(4)
N1A N -0.0264(3) -0.1442(3) -0.2692(2)
C1A C 0.1566(4) -0.1438(4) -0.3300(3)
C2A C 0.1427(4) -0.2268(4) -0.5045(3)
C3A C -0.0640(5) -0.3162(4) -0.6214(3)
C4A C -0.2549(5) -0.3186(4) -0.5614(3)
C5A C -0.2285(4) -0.2312(4) -0.3856(3)
H7A H -0.351(5) -0.236(4) -0.339(3)
H6A H -0.397(5) -0.373(4) -0.633(4)
H5A H -0.084(4) -0.374(4) -0.736(3)
H4A H 0.281(4) -0.214(4) -0.539(3)
H3A H 0.300(5) -0.084(4) -0.244(4)
#END
