
#######################################################################
#
#                 Cambridge Crystallographic Data Centre
#                                CCDC
#
#######################################################################
#
# If this CIF has been generated from an entry in the Cambridge
# Structural Database, then it will include bibliographic, chemical,
# crystal, experimental, refinement or atomic coordinate data resulting
# from the CCDC's data processing and validation procedures.
#
#######################################################################

data_CSD_CIF_TEGPUQ
_audit_creation_date 1996-10-31
_audit_creation_method CSD-ConQuest-V1
_database_code_CSD TEGPUQ
_database_code_depnum_ccdc_archive 'CCDC 127080'
_chemical_formula_sum 'C10 H36 Cl2 Mn1 N4 O6'
_chemical_formula_moiety
;
C10 H24 Cl2 Mn1 N4,6(H2 O1)
;
_journal_coeditor_code "IUCr CR1206"
_journal_coden_Cambridge 591
_journal_volume 52
_journal_year 1996
_journal_page_first 1924
_journal_name_full 'Acta Crystallogr.,Sect.C:Cryst.Struct.Commun. '
loop_
_publ_author_name
"Xin Chen"
"G.Long"
"R.D.Willett"
"T.Hawks"
"S.Molnar"
"K.Brewer"
_chemical_name_systematic
;
Dichloro-(1,4,8,11-tetra-azacyclotetradecane)-manganese(ii) 
dichloro-(1,4,8,11-tetra-azacyclotetradecane)-nickel(ii) hexahydrate
;
_cell_volume   1024.041
_exptl_crystal_colour 'dark green'
_exptl_crystal_density_diffrn 1.41
_diffrn_ambient_temperature ?
_diffrn_special_details
;
The study was carried out at room temperature,in the range 283-303K

;
_refine_special_details
;
The metal site was refined with Mn:Ni occupancy 0.66:0.34.

;
#These two values have been output from a single CSD field.
_refine_ls_R_factor_gt 0.077
_refine_ls_wR_factor_gt 0.077
_symmetry_cell_setting monoclinic
_symmetry_space_group_name_H-M 'P 21/c'
_symmetry_Int_Tables_number 14
loop_
_symmetry_equiv_pos_site_id
_symmetry_equiv_pos_as_xyz
1 x,y,z
2 -x,1/2+y,1/2-z
3 -x,-y,-z
4 x,-1/2-y,-1/2+z
_cell_length_a 9.892(2)
_cell_length_b 6.508(2)
_cell_length_c 16.648(3)
_cell_angle_alpha 90
_cell_angle_beta 107.16(3)
_cell_angle_gamma 90
_cell_formula_units_Z 2
loop_
_atom_type_symbol
_atom_type_radius_bond
C 0.68
H 0.23
Cl 0.99
Mn 1.35
N 0.68
O 0.68
loop_
_atom_site_label
_atom_site_type_symbol
_atom_site_fract_x
_atom_site_fract_y
_atom_site_fract_z
Mn1 Mn 0.00000 0.00000 0.00000
Cl1 Cl 0.0832(2) 0.3091(2) -0.0639(1)
N1 N 0.1816(5) 0.0150(7) 0.0969(3)
C1 C -0.0837(7) 0.180(1) 0.1458(3)
C2 C 0.0687(8) 0.2031(11) 0.1925(3)
N2 N -0.1094(5) 0.1942(7) 0.0530(3)
C3 C 0.2725(7) -0.1592(10) 0.0866(4)
C4 C -0.2614(6) 0.1749(9) 0.0047(4)
C5 C 0.1665(8) 0.0250(9) 0.1828(3)
O1 O 0.5640(4) 0.8334(5) 0.3777(3)
O2 O 0.3706(8) -0.0047(13) -0.2158(5)
O3 O 0.3868(10) 0.3134(19) 0.8944(6)
H1 H 0.2271(3) 0.1313(9) 0.0897(3)
H2 H -0.13660 0.28530 0.16350
H3 H -0.11610 0.04920 0.15940
H4 H 0.07880 0.22350 0.25110
H5 H 0.10260 0.32490 0.17220
H6 H -0.0851(6) 0.3230(4) 0.0440(4)
H7 H 0.24010 -0.28380 0.10570
H8 H 0.36920 -0.13680 0.11880
H9 H -0.31240 0.29320 0.01450
H10 H -0.30160 0.05510 0.02240
H11 H 0.25780 0.03900 0.22340
H12 H 0.12520 -0.10130 0.19400
H13 H 0.66270 0.79930 0.39180
H14 H 0.55380 0.97200 0.39490
H15 H 0.33110 -0.08860 -0.26450
H16 H 0.45700 0.05670 -0.21930
H17 H 0.44500 0.21200 0.93030
H18 H 0.33560 0.38930 0.92540
Cl1B Cl -0.0832(2) -0.3091(2) 0.0639(1)
C4B C 0.2614(6) -0.1749(9) -0.0047(4)
N2B N 0.1094(5) -0.1942(7) -0.0530(3)
N1B N -0.1816(5) -0.0150(7) -0.0969(3)
C3B C -0.2725(7) 0.1592(10) -0.0866(4)
H7B H -0.24010 0.28380 -0.10570
H8B H -0.36920 0.13680 -0.11880
C5B C -0.1665(8) -0.0250(9) -0.1828(3)
C2B C -0.0687(8) -0.2031(11) -0.1925(3)
C1B C 0.0837(7) -0.180(1) -0.1458(3)
H6B H 0.0851(6) -0.3230(4) -0.0440(4)
H2B H 0.13660 -0.28530 -0.16350
H3B H 0.11610 -0.04920 -0.15940
H4B H -0.07880 -0.22350 -0.25110
H5B H -0.10260 -0.32490 -0.17220
H11B H -0.25780 -0.03900 -0.22340
H12B H -0.12520 0.10130 -0.19400
H1B H -0.2271(3) -0.1313(9) -0.0897(3)
H9B H 0.31240 -0.29320 -0.01450
H10B H 0.30160 -0.05510 -0.02240
#END
