
#######################################################################
#
#                 Cambridge Crystallographic Data Centre
#                                CCDC
#
#######################################################################
#
# If this CIF has been generated from an entry in the Cambridge
# Structural Database, then it will include bibliographic, chemical,
# crystal, experimental, refinement or atomic coordinate data resulting
# from the CCDC's data processing and validation procedures.
#
#######################################################################

data_CSD_CIF_TEGQAX
_audit_creation_date 1996-10-31
_audit_creation_method CSD-ConQuest-V1
_database_code_CSD TEGQAX
_database_code_depnum_ccdc_archive 'CCDC 127081'
_chemical_formula_sum 'C10 H35 Cl2.5 Co0.5 Mn0.5 N4 O5.5'
_chemical_formula_moiety
;
0.5(C10 H24 Cl2 Mn1 N4),0.5(C10 H24 Cl2 Co1 N4 1+),0.5(Cl1 1-),5.5(H2 O1)
;
_journal_coeditor_code "IUCr CR1206"
_journal_coden_Cambridge 591
_journal_volume 52
_journal_year 1996
_journal_page_first 1924
_journal_name_full 'Acta Crystallogr.,Sect.C:Cryst.Struct.Commun. '
loop_
_publ_author_name
"Xin Chen"
"G.Long"
"R.D.Willett"
"T.Hawks"
"S.Molnar"
"K.Brewer"
_chemical_name_systematic
;
Dichloro-(1,4,8,11-tetra-azacyclotetradecane)-manganese(ii) 
dichloro-(1,4,8,11-tetraazacyclotetradecane)-cobalt(iii) chloride hydrate
;
_cell_volume   1003.904
_exptl_crystal_colour 'green'
_exptl_crystal_density_diffrn 1.472
_diffrn_ambient_temperature ?
_diffrn_special_details
;
The study was carried out at room temperature,in the range 283-303K

;
_refine_special_details
;
Metal site was refined with equal occupancy of Co and Mn. One water site was 
partially occupied by a Cl ion.
;
#These two values have been output from a single CSD field.
_refine_ls_R_factor_gt 0.065
_refine_ls_wR_factor_gt 0.065
_symmetry_cell_setting monoclinic
_symmetry_space_group_name_H-M 'P 21/n'
_symmetry_Int_Tables_number 14
loop_
_symmetry_equiv_pos_site_id
_symmetry_equiv_pos_as_xyz
1 x,y,z
2 1/2-x,1/2+y,1/2-z
3 -x,-y,-z
4 -1/2+x,-1/2-y,-1/2+z
_cell_length_a 6.415(2)
_cell_length_b 7.427(2)
_cell_length_c 21.074(4)
_cell_angle_alpha 90
_cell_angle_beta 90.99(3)
_cell_angle_gamma 90
_cell_formula_units_Z 2
loop_
_atom_type_symbol
_atom_type_radius_bond
C 0.68
H 0.23
Cl 0.99
Mn 1.35
N 0.68
O 0.68
loop_
_atom_site_label
_atom_site_type_symbol
_atom_site_fract_x
_atom_site_fract_y
_atom_site_fract_z
Mn1 Mn 0.00000 0.00000 0.00000
Cl1 Cl -0.2611(5) -0.2037(5) -0.0056(2)
N1 N 0.0042(15) 0.0206(16) -0.0934(4)
N2 N 0.2117(17) -0.1919(15) 0.0000(5)
C1 C -0.1865(22) 0.1228(21) -0.1129(6)
C2 C 0.2185(21) -0.2760(19) 0.0639(7)
C3 C 0.2197(23) -0.2457(20) -0.1136(7)
C4 C 0.0265(23) -0.1438(19) -0.1322(6)
C5 C 0.2154(24) -0.3301(19) -0.0508(6)
Cl2 Cl 0.1759(9) -0.2480(8) -0.3187(3)
O1 O 0.4852(15) 1.0773(14) 0.2424(5)
O2 O 0.1389(17) 0.9484(14) 0.3018(5)
H1 H 0.13320 0.08030 -0.10220
H2 H 0.327(11) -0.124(12) -0.0045(42)
H3 H -0.16870 0.17320 -0.15440
H4 H -0.30520 0.04410 -0.11340
H5 H 0.3424(79) -0.3434(82) 0.0741(30)
H6 H 0.1016(67) -0.3568(75) 0.0635(37)
H7 H 0.33510 -0.16350 -0.11410
H8 H 0.24060 -0.33870 -0.14450
H9 H -0.09280 -0.21960 -0.12630
H10 H 0.03440 -0.11030 -0.17610
H11 H 0.09300 -0.40390 -0.04800
H12 H 0.33740 -0.40370 -0.04510
H13 H 0.48820 1.20420 0.23370
H14 H 0.61800 1.04020 0.25950
H15 H 0.16650 0.87340 0.33810
H16 H 0.03660 1.03740 0.31220
Cl1B Cl 0.2611(5) 0.2037(5) 0.0056(2)
C2B C -0.2185(21) 0.2760(19) -0.0639(7)
N2B N -0.2117(17) 0.1919(15) 0.0000(5)
N1B N -0.0042(15) -0.0206(16) 0.0934(4)
C1B C 0.1865(22) -0.1228(21) 0.1129(6)
H3B H 0.16870 -0.17320 0.15440
H4B H 0.30520 -0.04410 0.11340
C4B C -0.0265(23) 0.1438(19) 0.1322(6)
C3B C -0.2197(23) 0.2457(20) 0.1136(7)
C5B C -0.2154(24) 0.3301(19) 0.0508(6)
H2B H -0.327(11) 0.124(12) 0.0045(42)
H11B H -0.09300 0.40390 0.04800
H12B H -0.33740 0.40370 0.04510
H7B H -0.33510 0.16350 0.11410
H8B H -0.24060 0.33870 0.14450
H9B H 0.09280 0.21960 0.12630
H10B H -0.03440 0.11030 0.17610
H1B H -0.13320 -0.08030 0.10220
H5B H -0.3424(79) 0.3434(82) -0.0741(30)
H6B H -0.1016(67) 0.3568(75) -0.0635(37)
#END
