
#######################################################################
#
#                 Cambridge Crystallographic Data Centre
#                                CCDC
#
#######################################################################
#
# If this CIF has been generated from an entry in the Cambridge
# Structural Database, then it will include bibliographic, chemical,
# crystal, experimental, refinement or atomic coordinate data resulting
# from the CCDC's data processing and validation procedures.
#
#######################################################################

data_CSD_CIF_TERFUS
_audit_creation_date 2007-02-21
_audit_creation_method CSD-ConQuest-V1
_database_code_CSD TERFUS
_database_code_depnum_ccdc_archive 'CCDC 629692'
_chemical_formula_sum 'C20 H18 Cr1'
_chemical_formula_moiety
;
C20 H18 Cr1
;
_journal_coden_Cambridge 579
_journal_volume 25
_journal_year 2006
_journal_page_first 4945
_journal_name_full 'Organometallics '
loop_
_publ_author_name
"M.B.Meredith"
"J.A.Crisp"
"E.D.Brady"
"T.P.Hanusa"
"G.T.Yee"
"N.R.Brooks"
"B.E.Kucera"
"V.G.Young Junior"
_chemical_name_systematic
;
bis(\h^5^-2-Methylindenyl)-chromium(ii)
;
_chemical_melting_point 433.15
_cell_volume    787.222
_exptl_crystal_colour 'black'
_exptl_crystal_density_diffrn 1.309
_exptl_special_details
;
Melting point range 433.15-435.15K
magnetic properties

;
_exptl_crystal_description 'block'
_exptl_crystal_preparation 'hexanes'
_diffrn_ambient_temperature 173
#These two values have been output from a single CSD field.
_refine_ls_R_factor_gt 0.0491
_refine_ls_wR_factor_gt 0.0491
_symmetry_cell_setting monoclinic
_symmetry_space_group_name_H-M 'P 21/c'
_symmetry_Int_Tables_number 14
loop_
_symmetry_equiv_pos_site_id
_symmetry_equiv_pos_as_xyz
1 x,y,z
2 -x,1/2+y,1/2-z
3 -x,-y,-z
4 x,-1/2-y,-1/2+z
_cell_length_a 8.703(3)
_cell_length_b 7.814(2)
_cell_length_c 11.732(4)
_cell_angle_alpha 90
_cell_angle_beta 99.357(6)
_cell_angle_gamma 90
_cell_formula_units_Z 2
loop_
_atom_type_symbol
_atom_type_radius_bond
C 0.68
H 0.23
Cr 1.35
loop_
_atom_site_label
_atom_site_type_symbol
_atom_site_fract_x
_atom_site_fract_y
_atom_site_fract_z
Cr1 Cr 0.50000 0.00000 0.50000
C1 C 0.6695(4) 0.1929(4) 0.4499(3)
C2 C 0.6091(4) 0.0976(5) 0.3509(3)
H1 H 0.67230 0.02740 0.30430
C3 C 0.4477(4) 0.1410(4) 0.3167(3)
C4 C 0.3322(4) 0.0854(5) 0.2260(3)
H2 H 0.35650 0.00400 0.17150
C5 C 0.1842(4) 0.1500(5) 0.2174(3)
H3 H 0.10700 0.11660 0.15450
C6 C 0.1449(4) 0.2653(5) 0.3008(3)
H4 H 0.04140 0.30750 0.29310
C7 C 0.2522(4) 0.3175(4) 0.3922(3)
H5 H 0.22320 0.39310 0.44850
C8 C 0.4070(4) 0.2577(4) 0.4019(3)
C9 C 0.5443(4) 0.2816(4) 0.4874(3)
H6 H 0.55440 0.36450 0.55320
C10 C 0.8349(4) 0.1928(6) 0.5106(4)
H7 H 0.88180 0.08060 0.50150
H8 H 0.83740 0.21650 0.59290
H9 H 0.89380 0.28120 0.47700
C1B C 0.3305(4) -0.1929(4) 0.5501(3)
C2B C 0.3909(4) -0.0976(5) 0.6491(3)
H1B H 0.32770 -0.02740 0.69570
C3B C 0.5523(4) -0.1410(4) 0.6833(3)
C4B C 0.6678(4) -0.0854(5) 0.7740(3)
H2B H 0.64350 -0.00400 0.82850
C5B C 0.8158(4) -0.1500(5) 0.7826(3)
H3B H 0.89300 -0.11660 0.84550
C6B C 0.8551(4) -0.2653(5) 0.6992(3)
H4B H 0.95860 -0.30750 0.70690
C7B C 0.7478(4) -0.3175(4) 0.6078(3)
H5B H 0.77680 -0.39310 0.55150
C8B C 0.5930(4) -0.2577(4) 0.5981(3)
C9B C 0.4557(4) -0.2816(4) 0.5126(3)
H6B H 0.44560 -0.36450 0.44680
C10B C 0.1651(4) -0.1928(6) 0.4894(4)
H7B H 0.11820 -0.08060 0.49850
H8B H 0.16260 -0.21650 0.40710
H9B H 0.10620 -0.28120 0.52300
#END
