
#######################################################################
#
#                 Cambridge Crystallographic Data Centre
#                                CCDC
#
#######################################################################
#
# If this CIF has been generated from an entry in the Cambridge
# Structural Database, then it will include bibliographic, chemical,
# crystal, experimental, refinement or atomic coordinate data resulting
# from the CCDC's data processing and validation procedures.
#
#######################################################################

data_CSD_CIF_TEZLAN
_audit_creation_date 2013-05-24
_audit_creation_method CSD-ConQuest-V1
_database_code_CSD TEZLAN
_database_code_depnum_ccdc_archive 'CCDC 851964'
_chemical_formula_sum 'C24 H22 Co1 N4 O12'
_chemical_formula_moiety
;
C24 H22 Co1 N4 O12
;
_journal_coden_Cambridge 923
_journal_volume 43
_journal_year 2013
_journal_page_first 203
_journal_name_full 'Synth.React.Inorg.,Met.-Org.,Nano-Met.Chem. '
loop_
_publ_author_name
"Chengjie Wang"
"Zhifang Xiong"
"Tao Wang"
"Gang Li"
_chemical_name_systematic
;
Diaqua-bis(2-(4-methoxyphenyl)-5-carboxy-1H-imidazole-4-carboxylato)-cobalt(ii
)
;
_cell_volume    623.295
_exptl_crystal_density_diffrn 1.645
_diffrn_ambient_temperature 296
#These two values have been output from a single CSD field.
_refine_ls_R_factor_gt 0.0427
_refine_ls_wR_factor_gt 0.0427
_symmetry_cell_setting triclinic
_symmetry_space_group_name_H-M 'P -1'
_symmetry_Int_Tables_number 2
loop_
_symmetry_equiv_pos_site_id
_symmetry_equiv_pos_as_xyz
1 x,y,z
2 -x,-y,-z
_cell_length_a 6.3231(15)
_cell_length_b 7.7385(19)
_cell_length_c 13.419(3)
_cell_angle_alpha 75.021(3)
_cell_angle_beta 80.218(3)
_cell_angle_gamma 83.354(3)
_cell_formula_units_Z 1
loop_
_atom_type_symbol
_atom_type_radius_bond
C 0.68
H 0.23
Co 1.26
N 0.68
O 0.68
loop_
_atom_site_label
_atom_site_type_symbol
_atom_site_fract_x
_atom_site_fract_y
_atom_site_fract_z
Co1 Co 0.00000 0.50000 0.50000
O1 O -0.2884(3) 0.6162(3) 0.45677(14)
O2 O -0.4823(3) 0.7066(3) 0.32692(14)
O3 O -0.4413(3) 0.7243(3) 0.13660(15)
H1 H -0.46040 0.71790 0.19940
O4 O -0.1925(3) 0.6361(3) 0.02025(15)
O5 O 0.9495(3) -0.0081(3) 0.27214(16)
H2 H -0.060(6) 0.174(5) 0.589(3)
H3 H -0.250(6) 0.260(5) 0.582(3)
O6 O -0.1309(4) 0.2480(3) 0.55350(16)
N1 N 0.0392(3) 0.4681(3) 0.33610(16)
N2 N 0.0708(4) 0.4699(3) 0.16975(17)
H4 H 0.115(5) 0.453(4) 0.113(2)
C1 C -0.3147(4) 0.6312(4) 0.3647(2)
C2 C -0.1396(4) 0.5575(4) 0.29543(19)
C3 C -0.1220(4) 0.5612(4) 0.1925(2)
C4 C 0.1639(4) 0.4128(4) 0.25728(19)
C5 C 0.3702(4) 0.3047(4) 0.2592(2)
C6 C 0.4461(5) 0.2224(4) 0.3529(2)
H5 H 0.36490 0.23660 0.41530
C7 C 0.6392(5) 0.1204(4) 0.3548(2)
H6 H 0.68790 0.06740 0.41820
C8 C 0.7607(4) 0.0964(4) 0.2632(2)
C9 C 0.6891(5) 0.1761(4) 0.1688(2)
H7 H 0.77010 0.16030 0.10670
C10 C 0.4950(4) 0.2797(4) 0.1681(2)
H8 H 0.44740 0.33390 0.10460
C11 C -0.2564(5) 0.6441(4) 0.1098(2)
C12 C 1.0895(5) -0.0275(5) 0.1794(3)
H9 H 1.21810 -0.09900 0.19790
H10 H 1.12640 0.08870 0.13760
H11 H 1.01800 -0.08520 0.14060
O1A O 0.2884(3) 0.3838(3) 0.54323(14)
O2A O 0.4823(3) 0.2934(3) 0.67308(14)
O3A O 0.4413(3) 0.2757(3) 0.86340(15)
H1A H 0.46040 0.28210 0.80060
O4A O 0.1925(3) 0.3639(3) 0.97975(15)
O5A O -0.9495(3) 1.0081(3) 0.72786(16)
H2A H 0.060(6) 0.826(5) 0.411(3)
H3A H 0.250(6) 0.740(5) 0.418(3)
O6A O 0.1309(4) 0.7520(3) 0.44650(16)
N1A N -0.0392(3) 0.5319(3) 0.66390(16)
N2A N -0.0708(4) 0.5301(3) 0.83025(17)
H4A H -0.115(5) 0.547(4) 0.887(2)
C1A C 0.3147(4) 0.3688(4) 0.6353(2)
C2A C 0.1396(4) 0.4425(4) 0.70457(19)
C3A C 0.1220(4) 0.4388(4) 0.8075(2)
C4A C -0.1639(4) 0.5872(4) 0.74272(19)
C5A C -0.3702(4) 0.6953(4) 0.7408(2)
C6A C -0.4461(5) 0.7776(4) 0.6471(2)
H5A H -0.36490 0.76340 0.58470
C7A C -0.6392(5) 0.8796(4) 0.6452(2)
H6A H -0.68790 0.93260 0.58180
C8A C -0.7607(4) 0.9036(4) 0.7368(2)
C9A C -0.6891(5) 0.8239(4) 0.8312(2)
H7A H -0.77010 0.83970 0.89330
C10A C -0.4950(4) 0.7203(4) 0.8319(2)
H8A H -0.44740 0.66610 0.89540
C11A C 0.2564(5) 0.3559(4) 0.8902(2)
C12A C -1.0895(5) 1.0275(5) 0.8206(3)
H9A H -1.21810 1.09900 0.80210
H10A H -1.12640 0.91130 0.86240
H11A H -1.01800 1.08520 0.85940
#END
