
#######################################################################
#
#                 Cambridge Crystallographic Data Centre
#                                CCDC
#
#######################################################################
#
# If this CIF has been generated from an entry in the Cambridge
# Structural Database, then it will include bibliographic, chemical,
# crystal, experimental, refinement or atomic coordinate data resulting
# from the CCDC's data processing and validation procedures.
#
#######################################################################

data_CSD_CIF_TFORHI10
_audit_creation_date 1978-11-29
_audit_creation_method CSD-ConQuest-V1
_database_code_CSD TFORHI10
_database_code_depnum_ccdc_archive 'CCDC 1270261'
_chemical_formula_sum 'C6 H12 Fe1 N3 O3 S3'
_chemical_formula_moiety
;
C6 H12 Fe1 N3 O3 S3
;
_journal_coden_Cambridge 154
_journal_volume 31
_journal_year 1978
_journal_page_first 983
_journal_name_full 'Aust.J.Chem. '
loop_
_publ_author_name
"K.S.Murray"
"P.J.Newman"
"B.M.Gatehouse"
"D.Taylor"
_chemical_name_systematic
;
tris(N-Methylformothiohydroxamato)-iron(iii)
;
_cell_volume    329.595
_exptl_crystal_density_diffrn 1.64
_exptl_special_details
;
Absolute configuration

;
_diffrn_ambient_temperature ?
_diffrn_special_details
;
The study was carried out at room temperature,in the range 283-303K

;
#These two values have been output from a single CSD field.
_refine_ls_R_factor_gt 0.0191
_refine_ls_wR_factor_gt 0.0191
_symmetry_cell_setting rhombohedral
_symmetry_space_group_name_H-M 'R 3'
_symmetry_Int_Tables_number 146
loop_
_symmetry_equiv_pos_site_id
_symmetry_equiv_pos_as_xyz
1 x,y,z
2 z,x,y
3 y,z,x
_cell_length_a 7.094(2)
_cell_length_b 7.094(2)
_cell_length_c 7.094(2)
_cell_angle_alpha 102.0(1)
_cell_angle_beta 102.0(1)
_cell_angle_gamma 102.0(1)
_cell_formula_units_Z 1
loop_
_atom_type_symbol
_atom_type_radius_bond
C 0.68
H 0.23
Fe 1.34
N 0.68
O 0.68
S 1.02
loop_
_atom_site_label
_atom_site_type_symbol
_atom_site_fract_x
_atom_site_fract_y
_atom_site_fract_z
Fe1 Fe 0.00000 0.00000 0.00000
S1 S -0.33075 -0.15838 0.02630
O1 O -0.04730 0.23350 0.18160
N1 N -0.23260 0.22360 0.20230
C1 C -0.37080 0.05670 0.14030
C2 C -0.26010 0.41370 0.30190
H1 H -0.48800 0.07200 0.14800
H2 H -0.40400 0.40100 0.29200
H3 H -0.24200 0.50200 0.23600
H4 H -0.17100 0.43500 0.44000
S1A S 0.02630 -0.33075 -0.15838
S1B S -0.15838 0.02630 -0.33075
O1A O 0.18160 -0.04730 0.23350
O1B O 0.23350 0.18160 -0.04730
C1A C 0.14030 -0.37080 0.05670
C1B C 0.05670 0.14030 -0.37080
N1A N 0.20230 -0.23260 0.22360
N1B N 0.22360 0.20230 -0.23260
H1A H 0.14800 -0.48800 0.07200
H1B H 0.07200 0.14800 -0.48800
C2A C 0.30190 -0.26010 0.41370
C2B C 0.41370 0.30190 -0.26010
H2A H 0.29200 -0.40400 0.40100
H3A H 0.23600 -0.24200 0.50200
H4A H 0.44000 -0.17100 0.43500
H2B H 0.40100 0.29200 -0.40400
H3B H 0.50200 0.23600 -0.24200
H4B H 0.43500 0.44000 -0.17100
#END
