
#######################################################################
#
#                 Cambridge Crystallographic Data Centre
#                                CCDC
#
#######################################################################
#
# If this CIF has been generated from an entry in the Cambridge
# Structural Database, then it will include bibliographic, chemical,
# crystal, experimental, refinement or atomic coordinate data resulting
# from the CCDC's data processing and validation procedures.
#
#######################################################################

data_CSD_CIF_TIBPUR
_audit_creation_date 2013-05-24
_audit_creation_method CSD-ConQuest-V1
_database_code_CSD TIBPUR
_database_code_depnum_ccdc_archive 'CCDC 849594'
_chemical_formula_sum 'C22 H16 Co1 N2 O10'
_chemical_formula_moiety
;
C22 H16 Co1 N2 O10
;
_journal_coden_Cambridge 222
_journal_volume 41
_journal_year 2012
_journal_page_first 11898
_journal_name_full 'Dalton Trans. '
loop_
_publ_author_name
"Ming-Fang Wang"
"Xu-Jia Hong"
"Qing-Guang Zhan"
"Hong-Guang Jin"
"Yi-Ting Liu"
"Zhi-Peng Zheng"
"Shi-Hai Xu"
"Yue-Peng Cai"
_chemical_name_systematic
;
trans-Diaqua-(bis(quinoline-2,3-dicarboxylato))-cobalt(ii)
;
_cell_volume    525.592
_exptl_crystal_colour 'light red'
_exptl_crystal_density_diffrn 1.666
_exptl_crystal_description 'block'
_diffrn_ambient_temperature 296
#These two values have been output from a single CSD field.
_refine_ls_R_factor_gt 0.0645
_refine_ls_wR_factor_gt 0.0645
_symmetry_cell_setting triclinic
_symmetry_space_group_name_H-M 'P -1'
_symmetry_Int_Tables_number 2
loop_
_symmetry_equiv_pos_site_id
_symmetry_equiv_pos_as_xyz
1 x,y,z
2 -x,-y,-z
_cell_length_a 7.3968(14)
_cell_length_b 9.1349(18)
_cell_length_c 9.410(3)
_cell_angle_alpha 110.547(4)
_cell_angle_beta 98.240(4)
_cell_angle_gamma 111.630(2)
_cell_formula_units_Z 1
loop_
_atom_type_symbol
_atom_type_radius_bond
C 0.68
H 0.23
Co 1.26
N 0.68
O 0.68
loop_
_atom_site_label
_atom_site_type_symbol
_atom_site_fract_x
_atom_site_fract_y
_atom_site_fract_z
Co1 Co 0.50000 0.00000 0.50000
O1 O 0.6953(6) 0.5265(4) 0.6756(4)
O2 O 0.5989(5) 0.2568(4) 0.6459(4)
O3 O 0.2209(5) -0.0147(4) 0.3943(4)
H1 H 0.19930 0.08430 0.42840
H2 H 0.11860 -0.12030 0.31320
O4 O 0.8061(6) 0.7039(4) 0.5405(5)
H3 H 0.76180 0.64020 0.58360
O5 O 0.8835(6) 0.6808(5) 0.3207(5)
N1 N 0.6565(6) 0.1453(5) 0.3714(5)
C1 C 0.6591(8) 0.3682(7) 0.5956(6)
C2 C 0.6952(7) 0.3122(6) 0.4321(6)
C3 C 0.7648(7) 0.4202(6) 0.3538(6)
C4 C 0.8204(8) 0.6125(7) 0.4042(7)
C5 C 0.7893(7) 0.3414(7) 0.2079(6)
H4 H 0.83040 0.40680 0.15160
C6 C 0.7546(7) 0.1674(7) 0.1424(6)
C7 C 0.7823(8) 0.0862(7) -0.0062(6)
H5 H 0.81890 0.14710 -0.06690
C8 C 0.7548(8) -0.0815(7) -0.0585(6)
H6 H 0.77180 -0.13510 -0.15630
C9 C 0.7013(8) -0.1760(7) 0.0308(6)
H7 H 0.68700 -0.28960 -0.00690
C10 C 0.6699(8) -0.1024(7) 0.1731(6)
H8 H 0.63400 -0.16590 0.23170
C11 C 0.6924(7) 0.0709(6) 0.2306(6)
O1A O 0.3047(6) -0.5265(4) 0.3244(4)
O2A O 0.4011(5) -0.2568(4) 0.3541(4)
O3A O 0.7791(5) 0.0147(4) 0.6057(4)
H1A H 0.80070 -0.08430 0.57160
H2A H 0.88140 0.12030 0.68680
O4A O 0.1939(6) -0.7039(4) 0.4595(5)
H3A H 0.23820 -0.64020 0.41640
O5A O 0.1165(6) -0.6808(5) 0.6793(5)
N1A N 0.3435(6) -0.1453(5) 0.6286(5)
C1A C 0.3409(8) -0.3682(7) 0.4044(6)
C2A C 0.3048(7) -0.3122(6) 0.5679(6)
C3A C 0.2352(7) -0.4202(6) 0.6462(6)
C4A C 0.1796(8) -0.6125(7) 0.5958(7)
C5A C 0.2107(7) -0.3414(7) 0.7921(6)
H4A H 0.16960 -0.40680 0.84840
C6A C 0.2454(7) -0.1674(7) 0.8576(6)
C7A C 0.2177(8) -0.0862(7) 1.0062(6)
H5A H 0.18110 -0.14710 1.06690
C8A C 0.2452(8) 0.0815(7) 1.0585(6)
H6A H 0.22820 0.13510 1.15630
C9A C 0.2987(8) 0.1760(7) 0.9692(6)
H7A H 0.31300 0.28960 1.00690
C10A C 0.3301(8) 0.1024(7) 0.8269(6)
H8A H 0.36600 0.16590 0.76830
C11A C 0.3076(7) -0.0709(6) 0.7694(6)
#END
