
#######################################################################
#
#                 Cambridge Crystallographic Data Centre
#                                CCDC
#
#######################################################################
#
# If this CIF has been generated from an entry in the Cambridge
# Structural Database, then it will include bibliographic, chemical,
# crystal, experimental, refinement or atomic coordinate data resulting
# from the CCDC's data processing and validation procedures.
#
#######################################################################

data_CSD_CIF_TIBWIL
_audit_creation_date 2007-05-24
_audit_creation_method CSD-ConQuest-V1
_database_code_CSD TIBWIL
_database_code_depnum_ccdc_archive 'CCDC 643040'
_chemical_formula_sum 'C30 H40 Co1 N6 O10'
_chemical_formula_moiety
;
C30 H36 Co1 N6 O8,2(H2 O1)
;
_journal_coeditor_code "IUCr IM2005"
_journal_coden_Cambridge 1370
_journal_volume 63
_journal_year 2007
_journal_page_first m1078
_journal_name_full 'Acta Crystallogr.,Sect.E:Struct.Rep.Online '
loop_
_publ_author_name
"T.Hokelek"
"H.Necefoglu"
_chemical_name_systematic
;
Diaqua-bis(4-(dimethylamino)benzoato-O)-(nicotinamide-N)-cobalt(ii) dihydrate
;
_cell_volume    792.349
_exptl_crystal_colour 'pink'
_exptl_crystal_density_diffrn 1.474
_exptl_crystal_description 'block'
_diffrn_ambient_temperature 294
#These two values have been output from a single CSD field.
_refine_ls_R_factor_gt 0.0752
_refine_ls_wR_factor_gt 0.0752
_symmetry_cell_setting triclinic
_symmetry_space_group_name_H-M 'P -1'
_symmetry_Int_Tables_number 2
loop_
_symmetry_equiv_pos_site_id
_symmetry_equiv_pos_as_xyz
1 x,y,z
2 -x,-y,-z
_cell_length_a 8.198(2)
_cell_length_b 9.968(1)
_cell_length_c 10.2003(9)
_cell_angle_alpha 76.252(9)
_cell_angle_beta 89.10(1)
_cell_angle_gamma 78.29(1)
_cell_formula_units_Z 1
loop_
_atom_type_symbol
_atom_type_radius_bond
C 0.68
H 0.23
Co 1.33
N 0.68
O 0.68
loop_
_atom_site_label
_atom_site_type_symbol
_atom_site_fract_x
_atom_site_fract_y
_atom_site_fract_z
Co1 Co 0.00000 0.00000 0.00000
O1 O 0.1443(3) -0.1377(3) 0.1549(3)
O2 O 0.0132(4) -0.1222(3) 0.3444(3)
O3 O 0.2284(4) 0.6299(3) -0.1181(4)
O4 O 0.1005(6) 0.1357(4) 0.3865(4)
H1 H 0.086(7) 0.053(3) 0.375(5)
H2 H 0.078(7) 0.135(6) 0.474(3)
O5 O 0.1640(3) -0.0817(3) -0.1404(3)
H3 H 0.115(6) -0.021(4) -0.219(3)
H4 H 0.160(7) -0.166(3) -0.149(5)
N1 N 0.4596(5) -0.7492(4) 0.5078(4)
N2 N 0.1558(4) 0.1554(3) -0.0076(3)
N3 N 0.0065(5) 0.5849(4) -0.2139(4)
H5 H -0.021(6) 0.670(5) -0.264(5)
H6 H -0.042(8) 0.517(8) -0.236(7)
C1 C 0.1135(5) -0.1888(4) 0.2758(4)
C2 C 0.1994(5) -0.3368(4) 0.3367(4)
C3 C 0.3133(5) -0.4103(4) 0.2630(4)
H7 H 0.33240 -0.36670 0.17450
C4 C 0.3990(5) -0.5465(4) 0.3177(4)
H8 H 0.47510 -0.59240 0.26590
C5 C 0.3723(5) -0.6164(4) 0.4508(4)
C6 C 0.2539(6) -0.5435(4) 0.5226(4)
H9 H 0.23060 -0.58770 0.60980
C7 C 0.1702(6) -0.4063(4) 0.4662(4)
H10 H 0.09270 -0.36030 0.51690
C8 C 0.5807(7) -0.8231(5) 0.4313(6)
H11 H 0.63030 -0.91410 0.48660
H12 H 0.66570 -0.76970 0.40350
H13 H 0.52660 -0.83440 0.35310
C9 C 0.4293(7) -0.8200(5) 0.6441(5)
H14 H 0.50150 -0.91160 0.66760
H15 H 0.31530 -0.83020 0.65000
H16 H 0.45110 -0.76540 0.70520
C10 C 0.3109(5) 0.1120(4) 0.0446(4)
H17 H 0.34780 0.01660 0.08460
C11 C 0.4201(5) 0.2023(5) 0.0421(5)
H18 H 0.52760 0.16830 0.07950
C12 C 0.3646(5) 0.3444(4) -0.0176(4)
H19 H 0.43400 0.40790 -0.01950
C13 C 0.2051(5) 0.3909(4) -0.0744(4)
C14 C 0.1044(4) 0.2928(4) -0.0666(4)
H20 H -0.00330 0.32390 -0.10390
C15 C 0.1458(5) 0.5460(4) -0.1382(4)
O1A O -0.1443(3) 0.1377(3) -0.1549(3)
O2A O -0.0132(4) 0.1222(3) -0.3444(3)
O3A O -0.2284(4) -0.6299(3) 0.1181(4)
O5A O -0.1640(3) 0.0817(3) 0.1404(3)
H3A H -0.115(6) 0.021(4) 0.219(3)
H4A H -0.160(7) 0.166(3) 0.149(5)
N1A N -0.4596(5) 0.7492(4) -0.5078(4)
N2A N -0.1558(4) -0.1554(3) 0.0076(3)
N3A N -0.0065(5) -0.5849(4) 0.2139(4)
H5A H 0.021(6) -0.670(5) 0.264(5)
H6A H 0.042(8) -0.517(8) 0.236(7)
C1A C -0.1135(5) 0.1888(4) -0.2758(4)
C2A C -0.1994(5) 0.3368(4) -0.3367(4)
C3A C -0.3133(5) 0.4103(4) -0.2630(4)
H7A H -0.33240 0.36670 -0.17450
C4A C -0.3990(5) 0.5465(4) -0.3177(4)
H8A H -0.47510 0.59240 -0.26590
C5A C -0.3723(5) 0.6164(4) -0.4508(4)
C6A C -0.2539(6) 0.5435(4) -0.5226(4)
H9A H -0.23060 0.58770 -0.60980
C7A C -0.1702(6) 0.4063(4) -0.4662(4)
H10A H -0.09270 0.36030 -0.51690
C8A C -0.5807(7) 0.8231(5) -0.4313(6)
H11A H -0.63030 0.91410 -0.48660
H12A H -0.66570 0.76970 -0.40350
H13A H -0.52660 0.83440 -0.35310
C9A C -0.4293(7) 0.8200(5) -0.6441(5)
H14A H -0.50150 0.91160 -0.66760
H15A H -0.31530 0.83020 -0.65000
H16A H -0.45110 0.76540 -0.70520
C10A C -0.3109(5) -0.1120(4) -0.0446(4)
H17A H -0.34780 -0.01660 -0.08460
C11A C -0.4201(5) -0.2023(5) -0.0421(5)
H18A H -0.52760 -0.16830 -0.07950
C12A C -0.3646(5) -0.3444(4) 0.0176(4)
H19A H -0.43400 -0.40790 0.01950
C13A C -0.2051(5) -0.3909(4) 0.0744(4)
C14A C -0.1044(4) -0.2928(4) 0.0666(4)
H20A H 0.00330 -0.32390 0.10390
C15A C -0.1458(5) -0.5460(4) 0.1382(4)
#END
