
#######################################################################
#
#                 Cambridge Crystallographic Data Centre
#                                CCDC
#
#######################################################################
#
# If this CIF has been generated from an entry in the Cambridge
# Structural Database, then it will include bibliographic, chemical,
# crystal, experimental, refinement or atomic coordinate data resulting
# from the CCDC's data processing and validation procedures.
#
#######################################################################

data_CSD_CIF_TICYOW
_audit_creation_date 2018-05-07
_audit_creation_method CSD-ConQuest-V1
_database_code_CSD TICYOW
_database_code_depnum_ccdc_archive 'CCDC 1584744'
_chemical_formula_sum 'C17 H13 Fe1 N1 O2 S1'
_chemical_formula_moiety
;
C17 H13 Fe1 N1 O2 S1
;
_journal_coden_Cambridge 1290
_journal_year 2018
_journal_page_first 1571
_journal_name_full 'Eur.J.Inorg.Chem. '
loop_
_publ_author_name
"D.N.Shinde"
"R.Trivedi"
"N.V.Krishna"
"G.Lingamallu"
"B.Sridhar"
"P.S.Khursade"
"P.R.Shetty"
_chemical_name_systematic
;
5-(ferrocenylmethylidene)-3-(prop-2-yn-1-yl)-1,3-thiazolidine-2,4-dione
;
_chemical_name_common
;
1-([2,4-dioxo-3-(prop-2-yn-1-yl)-1,3-thiazolidin-5-ylidene]methyl)-ferrocene
;
_cell_volume    728.993
_exptl_crystal_colour 'red'
_exptl_crystal_density_diffrn 1.6
_exptl_crystal_description 'block'
_diffrn_ambient_temperature 294
#These two values have been output from a single CSD field.
_refine_ls_R_factor_gt 0.0233
_refine_ls_wR_factor_gt 0.0233
_symmetry_cell_setting triclinic
_symmetry_space_group_name_H-M 'P -1'
_symmetry_Int_Tables_number 2
loop_
_symmetry_equiv_pos_site_id
_symmetry_equiv_pos_as_xyz
1 x,y,z
2 -x,-y,-z
_cell_length_a 7.7120(1)
_cell_length_b 8.8159(1)
_cell_length_c 11.2827(1)
_cell_angle_alpha 78.9574(4)
_cell_angle_beta 80.7601(4)
_cell_angle_gamma 77.3648(4)
_cell_formula_units_Z 2
loop_
_atom_type_symbol
_atom_type_radius_bond
C 0.68
H 0.23
Fe 1.52
N 0.68
O 0.68
S 1.02
loop_
_atom_site_label
_atom_site_type_symbol
_atom_site_fract_x
_atom_site_fract_y
_atom_site_fract_z
C1 C 0.33251(19) 0.57589(18) 0.22949(14)
H1 H 0.35050 0.56420 0.14350
C2 C 0.41013(18) 0.67556(18) 0.28128(13)
H2 H 0.49200 0.74390 0.23710
C3 C 0.34939(17) 0.65873(15) 0.40957(12)
C4 C 0.23000(19) 0.54900(15) 0.43442(13)
H3 H 0.16590 0.51470 0.51400
C5 C 0.2224(2) 0.49791(16) 0.32345(15)
H4 H 0.15040 0.42340 0.31330
C6 C 0.0723(2) 0.96054(18) 0.21502(16)
H5 H 0.15590 1.02150 0.16270
C7 C -0.0173(2) 0.8570(2) 0.17766(14)
H6 H -0.00710 0.83380 0.09500
C8 C -0.12454(19) 0.79365(19) 0.28101(17)
H7 H -0.20160 0.71830 0.28260
C9 C -0.1014(2) 0.85797(19) 0.38189(15)
H8 H -0.15950 0.83510 0.46540
C10 C 0.0203(2) 0.96033(18) 0.34069(16)
H9 H 0.06210 1.02100 0.39090
C11 C 0.40300(17) 0.74362(15) 0.49099(13)
H10 H 0.48020 0.81170 0.45500
C12 C 0.35637(17) 0.73727(15) 0.61112(12)
C13 C 0.43300(18) 0.82390(15) 0.68289(13)
C14 C 0.23425(19) 0.70285(17) 0.83522(14)
C15 C 0.4101(2) 0.8727(2) 0.89586(16)
H11 H 0.42630 0.97880 0.86050
H12 H 0.31510 0.88010 0.96340
C16 C 0.5756(2) 0.78280(19) 0.94109(14)
C17 C 0.7093(3) 0.7098(2) 0.97526(18)
H13 H 0.81560 0.65170 1.00240
Fe1 Fe 0.13839(2) 0.73815(2) 0.30938(2)
N1 N 0.35745(16) 0.80004(14) 0.80423(11)
O1 O 0.15795(17) 0.66911(16) 0.93600(11)
O2 O 0.54605(16) 0.90356(14) 0.64703(11)
S1 S 0.20291(5) 0.63260(4) 0.70540(3)
#END
