
#######################################################################
#
#                 Cambridge Crystallographic Data Centre
#                                CCDC
#
#######################################################################
#
# If this CIF has been generated from an entry in the Cambridge
# Structural Database, then it will include bibliographic, chemical,
# crystal, experimental, refinement or atomic coordinate data resulting
# from the CCDC's data processing and validation procedures.
#
#######################################################################

data_CSD_CIF_TIDYIQ
_audit_creation_date 2013-05-25
_audit_creation_method CSD-ConQuest-V1
_database_code_CSD TIDYIQ
_database_code_depnum_ccdc_archive 'CCDC 845017'
_chemical_formula_sum 'C18 H18 Fe1 N2'
_chemical_formula_moiety
;
C18 H18 Fe1 N2
;
_journal_coden_Cambridge 1077
_journal_volume 26
_journal_year 2012
_journal_page_first 449
_journal_name_full 'Appl.Organomet.Chem. '
loop_
_publ_author_name
"Lianmei Chen"
"Xiuling Cui"
"Haitao Cheng"
"Xiaopei Chen"
"Maoping Song"
"Mingsheng Tang"
"Donghui Wei"
"Yangjie Wu"
_chemical_name_systematic
;
(\h^5^,\h^5^-bis(Cyclopentadienylmethyl)(2-pyridylmethyl)amine)-iron
;
_cell_volume    731.998
_exptl_crystal_colour 'red'
_exptl_crystal_density_diffrn 1.444
_exptl_crystal_description 'prismatic'
_diffrn_ambient_temperature 291
#These two values have been output from a single CSD field.
_refine_ls_R_factor_gt 0.0534
_refine_ls_wR_factor_gt 0.0534
_symmetry_cell_setting triclinic
_symmetry_space_group_name_H-M 'P -1'
_symmetry_Int_Tables_number 2
loop_
_symmetry_equiv_pos_site_id
_symmetry_equiv_pos_as_xyz
1 x,y,z
2 -x,-y,-z
_cell_length_a 6.4670(13)
_cell_length_b 10.267(2)
_cell_length_c 11.232(2)
_cell_angle_alpha 94.64(3)
_cell_angle_beta 98.91(3)
_cell_angle_gamma 93.80(3)
_cell_formula_units_Z 2
loop_
_atom_type_symbol
_atom_type_radius_bond
C 0.68
H 0.23
Fe 1.52
N 0.68
loop_
_atom_site_label
_atom_site_type_symbol
_atom_site_fract_x
_atom_site_fract_y
_atom_site_fract_z
Fe1 Fe 0.72796(7) 0.79522(4) 0.90088(4)
N1 N 0.3839(5) 0.6039(3) 0.7070(2)
N2 N 0.0833(6) 0.2935(3) 0.5949(3)
C1 C 0.7672(6) 0.8190(4) 0.7274(3)
H1 H 0.81530 0.75350 0.67170
C2 C 0.8971(7) 0.9162(4) 0.8068(4)
H2 H 1.05060 0.92750 0.81640
C3 C 0.7711(6) 0.9907(3) 0.8728(4)
H3 H 0.82050 1.06320 0.93510
C4 C 0.5578(6) 0.9400(3) 0.8337(3)
H4 H 0.43440 0.97260 0.86340
C5 C 0.5565(6) 0.8313(3) 0.7437(3)
C6 C 0.3668(6) 0.7426(3) 0.6842(3)
H5 H 0.24340 0.77280 0.71360
H6 H 0.34750 0.74920 0.59750
C7 C 0.7678(6) 0.6016(3) 0.9161(3)
H7 H 0.81230 0.54080 0.85500
C8 C 0.9035(6) 0.6781(4) 1.0121(3)
H8 H 1.05710 0.68000 1.02740
C9 C 0.7791(6) 0.7538(4) 1.0791(3)
H9 H 0.83080 0.81670 1.14940
C10 C 0.5650(6) 0.7239(3) 1.0251(3)
H10 H 0.44390 0.76200 1.05290
C11 C 0.5566(6) 0.6306(3) 0.9219(3)
C12 C 0.3649(6) 0.5817(3) 0.8325(3)
H11 H 0.33730 0.48840 0.83750
H12 H 0.24560 0.62490 0.85450
C13 C 0.2184(7) 0.5217(3) 0.6244(4)
H13 H 0.21000 0.55070 0.54380
H14 H 0.08440 0.53300 0.65090
C14 C 0.2579(6) 0.3767(3) 0.6188(3)
C15 C 0.4582(8) 0.3352(5) 0.6357(4)
H15 H 0.57550 0.39510 0.65260
C16 C 0.4789(10) 0.2011(5) 0.6267(4)
H16 H 0.61160 0.16970 0.63760
C17 C 0.3028(10) 0.1152(4) 0.6018(4)
H17 H 0.31340 0.02510 0.59560
C18 C 0.1137(9) 0.1651(4) 0.5866(4)
H18 H -0.00470 0.10610 0.56900
#END
