
#######################################################################
#
#                 Cambridge Crystallographic Data Centre
#                                CCDC
#
#######################################################################
#
# If this CIF has been generated from an entry in the Cambridge
# Structural Database, then it will include bibliographic, chemical,
# crystal, experimental, refinement or atomic coordinate data resulting
# from the CCDC's data processing and validation procedures.
#
#######################################################################

data_CSD_CIF_TIDYOW
_audit_creation_date 2013-05-25
_audit_creation_method CSD-ConQuest-V1
_database_code_CSD TIDYOW
_database_code_depnum_ccdc_archive 'CCDC 845016'
_chemical_formula_sum 'C19 H19 Fe1 N1'
_chemical_formula_moiety
;
C19 H19 Fe1 N1
;
_journal_coden_Cambridge 1077
_journal_volume 26
_journal_year 2012
_journal_page_first 449
_journal_name_full 'Appl.Organomet.Chem. '
loop_
_publ_author_name
"Lianmei Chen"
"Xiuling Cui"
"Haitao Cheng"
"Xiaopei Chen"
"Maoping Song"
"Mingsheng Tang"
"Donghui Wei"
"Yangjie Wu"
_chemical_name_systematic
;
(\h^5^,\h^5^-Benzylbis(cyclopentadienylmethyl)amine)-iron
;
_cell_volume    749.827
_exptl_crystal_colour 'red'
_exptl_crystal_density_diffrn 1.405
_exptl_crystal_description 'Prismatic'
_diffrn_ambient_temperature 293
#These two values have been output from a single CSD field.
_refine_ls_R_factor_gt 0.0325
_refine_ls_wR_factor_gt 0.0325
_symmetry_cell_setting triclinic
_symmetry_space_group_name_H-M 'P -1'
_symmetry_Int_Tables_number 2
loop_
_symmetry_equiv_pos_site_id
_symmetry_equiv_pos_as_xyz
1 x,y,z
2 -x,-y,-z
_cell_length_a 6.1380(12)
_cell_length_b 11.262(2)
_cell_length_c 11.564(2)
_cell_angle_alpha 94.94(3)
_cell_angle_beta 101.86(3)
_cell_angle_gamma 104.38(3)
_cell_formula_units_Z 2
loop_
_atom_type_symbol
_atom_type_radius_bond
C 0.68
H 0.23
Fe 1.52
N 0.68
loop_
_atom_site_label
_atom_site_type_symbol
_atom_site_fract_x
_atom_site_fract_y
_atom_site_fract_z
Fe1 Fe 0.64216(5) 0.79644(3) 0.90772(3)
N1 N 0.3946(3) 0.56206(16) 0.69420(16)
C1 C 0.7360(4) 0.8328(2) 0.7535(2)
H1 H 0.82980 0.79100 0.71460
C2 C 0.8225(4) 0.9426(2) 0.8386(2)
H2 H 0.98550 0.98850 0.86940
C3 C 0.6304(4) 0.9718(2) 0.8733(2)
H3 H 0.63810 1.04130 0.93250
C4 C 0.4249(4) 0.8803(2) 0.8091(2)
H4 H 0.26710 0.87720 0.81600
C5 C 0.4888(4) 0.7925(2) 0.7357(2)
C6 C 0.3322(4) 0.6749(2) 0.6603(2)
H5 H 0.17470 0.66840 0.66680
H6 H 0.33650 0.67960 0.57740
C7 C 0.7543(4) 0.6443(2) 0.9416(2)
H7 H 0.84520 0.60710 0.89630
C8 C 0.8451(4) 0.7379(2) 1.0427(2)
H8 H 1.00960 0.77700 1.07850
C9 C 0.6568(5) 0.7663(2) 1.0821(2)
H9 H 0.66830 0.82820 1.14960
C10 C 0.4488(4) 0.6907(2) 1.0042(2)
H10 H 0.29170 0.69130 1.00940
C11 C 0.5067(4) 0.6162(2) 0.9152(2)
C12 C 0.3408(4) 0.5322(2) 0.8084(2)
H11 H 0.34340 0.44740 0.81560
H12 H 0.18550 0.53780 0.80790
C13 C 0.2751(4) 0.4567(2) 0.5993(2)
H13 H 0.28790 0.48280 0.52260
H14 H 0.11210 0.43210 0.59950
C14 C 0.3712(4) 0.3455(2) 0.6131(2)
C15 C 0.6027(4) 0.3589(2) 0.6676(2)
H15 H 0.69980 0.43740 0.69940
C16 C 0.6899(5) 0.2564(3) 0.6748(2)
H16 H 0.84460 0.26700 0.71140
C17 C 0.5490(6) 0.1393(3) 0.6280(3)
H17 H 0.60740 0.07070 0.63270
C18 C 0.3197(6) 0.1253(3) 0.5741(3)
H18 H 0.22380 0.04660 0.54180
C19 C 0.2307(5) 0.2267(2) 0.5674(2)
H19 H 0.07510 0.21520 0.53200
#END
