
#######################################################################
#
#                 Cambridge Crystallographic Data Centre
#                                CCDC
#
#######################################################################
#
# If this CIF has been generated from an entry in the Cambridge
# Structural Database, then it will include bibliographic, chemical,
# crystal, experimental, refinement or atomic coordinate data resulting
# from the CCDC's data processing and validation procedures.
#
#######################################################################

data_CSD_CIF_TIPYIA
_audit_creation_date 1997-03-26
_audit_creation_method CSD-ConQuest-V1
_database_code_CSD TIPYIA
_database_code_depnum_ccdc_archive 'CCDC 128418'
_chemical_formula_sum 'C34 H42 Co1 N4 O10'
_chemical_formula_moiety
;
C34 H42 Co1 N4 O10
;
_journal_coeditor_code "IUCr AB1409"
_journal_coden_Cambridge 591
_journal_volume 53
_journal_year 1997
_journal_page_first 187
_journal_name_full 'Acta Crystallogr.,Sect.C:Cryst.Struct.Commun. '
loop_
_publ_author_name
"T.Hokelek"
"H.Necefoglu"
_chemical_name_systematic
;
Diaqua-bis(N,N-diethylnicotinamide-N)-bis(2-hydroxybenzoato-O)-cobalt(ii)
;
_cell_volume    885.901
_exptl_crystal_colour 'pink'
_exptl_crystal_density_diffrn 1.36
_diffrn_ambient_temperature ?
_diffrn_special_details
;
The study was carried out at room temperature,in the range 283-303K

;
#These two values have been output from a single CSD field.
_refine_ls_R_factor_gt 0.05
_refine_ls_wR_factor_gt 0.05
_symmetry_cell_setting triclinic
_symmetry_space_group_name_H-M 'P -1'
_symmetry_Int_Tables_number 2
loop_
_symmetry_equiv_pos_site_id
_symmetry_equiv_pos_as_xyz
1 x,y,z
2 -x,-y,-z
_cell_length_a 7.627(1)
_cell_length_b 9.054(1)
_cell_length_c 14.600(1)
_cell_angle_alpha 78.64(1)
_cell_angle_beta 84.91(1)
_cell_angle_gamma 63.67(1)
_cell_formula_units_Z 1
loop_
_atom_type_symbol
_atom_type_radius_bond
C 0.68
H 0.23
Co 1.33
N 0.68
O 0.68
loop_
_atom_site_label
_atom_site_type_symbol
_atom_site_fract_x
_atom_site_fract_y
_atom_site_fract_z
Co1 Co 1.00000 0.00000 1.00000
N1 N 0.9742(5) 0.2124(5) 1.0538(3)
N2 N 1.3099(6) 0.3290(5) 1.2653(3)
O1 O 1.2544(5) -0.0018(4) 0.9279(3)
O2 O 0.8196(5) 0.1543(4) 0.8878(2)
O3 O 1.0264(5) 0.1944(5) 0.7806(3)
O4 O 0.9374(6) 0.2642(5) 0.6091(3)
O5 O 1.4462(5) 0.2876(5) 1.1241(3)
C1 C 0.8666(7) 0.1902(6) 0.8051(4)
C2 C 0.7225(7) 0.2276(6) 0.7305(4)
C3 C 0.5429(7) 0.2294(6) 0.7537(4)
C4 C 0.4098(9) 0.2667(8) 0.6848(5)
C5 C 0.4544(9) 0.3022(8) 0.5920(5)
C6 C 0.6325(9) 0.2997(7) 0.5672(4)
C7 C 0.7670(8) 0.2632(6) 0.6362(4)
C8 C 0.8092(7) 0.3565(6) 1.0460(4)
C9 C 0.7918(7) 0.4915(6) 1.0824(4)
C10 C 0.9456(7) 0.4806(6) 1.1291(4)
C11 C 1.1185(7) 0.3333(6) 1.1375(4)
C12 C 1.1235(7) 0.2058(6) 1.0975(4)
C13 C 1.3035(7) 0.3134(6) 1.1766(4)
C14 C 1.4908(8) 0.3218(7) 1.2982(5)
C15 C 1.648(1) 0.1489(9) 1.3268(6)
C16 C 1.1543(9) 0.3362(8) 1.3336(4)
C17 C 1.180(1) 0.172(1) 1.3867(7)
H1 H 1.01700 0.23800 0.66100
H2 H 1.22100 0.10200 0.88700
H3 H 1.34800 -0.01700 0.97200
H4 H 0.51100 0.20500 0.81700
H5 H 0.28600 0.26800 0.70200
H6 H 0.36100 0.32800 0.54500
H7 H 0.66400 0.32300 0.50300
H8 H 0.70100 0.36500 1.01400
H9 H 0.67300 0.59200 1.07500
H10 H 0.93500 0.57200 1.15500
H11 H 1.24200 0.10600 1.10100
H12 H 1.46000 0.37800 1.35000
H13 H 1.54200 0.37700 1.24900
H14 H 1.76000 0.15400 1.34700
H15 H 1.60000 0.09200 1.37700
H16 H 1.68200 0.09100 1.27600
H17 H 1.03400 0.38300 1.30100
H18 H 1.14700 0.40600 1.37600
H19 H 1.07400 0.18500 1.42900
H20 H 1.18600 0.10100 1.34500
H21 H 1.29900 0.12400 1.42100
N1A N 1.0258(5) -0.2124(5) 0.9462(3)
C8A C 1.1908(7) -0.3565(6) 0.9540(4)
C9A C 1.2082(7) -0.4915(6) 0.9176(4)
C10A C 1.0544(7) -0.4806(6) 0.8709(4)
C11A C 0.8815(7) -0.3333(6) 0.8625(4)
C12A C 0.8765(7) -0.2058(6) 0.9025(4)
H11A H 0.75800 -0.10600 0.89900
C13A C 0.6965(7) -0.3134(6) 0.8234(4)
N2A N 0.6901(6) -0.3290(5) 0.7347(3)
C14A C 0.5092(8) -0.3218(7) 0.7018(5)
C15A C 0.352(1) -0.1489(9) 0.6732(6)
H14A H 0.24000 -0.15400 0.65300
H15A H 0.40000 -0.09200 0.62300
H16A H 0.31800 -0.09100 0.72400
H12A H 0.54000 -0.37800 0.65000
H13A H 0.45800 -0.37700 0.75100
C16A C 0.8457(9) -0.3362(8) 0.6664(4)
C17A C 0.820(1) -0.172(1) 0.6133(7)
H19A H 0.92600 -0.18500 0.57100
H20A H 0.81400 -0.10100 0.65500
H21A H 0.70100 -0.12400 0.57900
H17A H 0.96600 -0.38300 0.69900
H18A H 0.85300 -0.40600 0.62400
O5A O 0.5538(5) -0.2876(5) 0.8759(3)
H10A H 1.06500 -0.57200 0.84500
H9A H 1.32700 -0.59200 0.92500
H8A H 1.29900 -0.36500 0.98600
O1A O 0.7456(5) 0.0018(4) 1.0721(3)
H2A H 0.77900 -0.10200 1.11300
H3A H 0.65200 0.01700 1.02800
O2A O 1.1804(5) -0.1543(4) 1.1122(2)
C1A C 1.1334(7) -0.1902(6) 1.1949(4)
O3A O 0.9736(5) -0.1944(5) 1.2194(3)
C2A C 1.2775(7) -0.2276(6) 1.2695(4)
C3A C 1.4571(7) -0.2294(6) 1.2463(4)
C4A C 1.5902(9) -0.2667(8) 1.3152(5)
C5A C 1.5456(9) -0.3022(8) 1.4080(5)
C6A C 1.3675(9) -0.2997(7) 1.4328(4)
C7A C 1.2330(8) -0.2632(6) 1.3638(4)
O4A O 1.0626(6) -0.2642(5) 1.3909(3)
H1A H 0.98300 -0.23800 1.33900
H7A H 1.33600 -0.32300 1.49700
H6A H 1.63900 -0.32800 1.45500
H5A H 1.71400 -0.26800 1.29800
H4A H 1.48900 -0.20500 1.18300
#END
