
#######################################################################
#
#                 Cambridge Crystallographic Data Centre
#                                CCDC
#
#######################################################################
#
# If this CIF has been generated from an entry in the Cambridge
# Structural Database, then it will include bibliographic, chemical,
# crystal, experimental, refinement or atomic coordinate data resulting
# from the CCDC's data processing and validation procedures.
#
#######################################################################

data_CSD_CIF_TIVWOM
_audit_creation_date 2014-02-17
_audit_creation_method CSD-ConQuest-V1
_database_code_CSD TIVWOM
_database_code_depnum_ccdc_archive 'CCDC 717525'
_chemical_formula_sum 'C16 H32 Co1 N6 O14'
_chemical_formula_moiety
;
C16 H20 Co1 N6 O8,6(H2 O1)
;
_journal_coden_Cambridge 1350
_journal_volume 16
_journal_year 2014
_journal_page_first 2660
_journal_name_full 'CrystEngComm '
loop_
_publ_author_name
"Jin-Hua Wang"
"Gui-Mei Tang"
"Yong-Tao Wang"
"Ting-Xiao Qin"
"Seik Weng Ng"
_chemical_name_systematic
;
tetraaqua-bis((1H-benzotriazol-1-yl)acetato)-cobalt(ii) hexahydrate
;
_cell_volume    624.798
_exptl_crystal_colour 'orange'
_exptl_crystal_density_diffrn 1.572
_exptl_crystal_description 'prism'
_diffrn_ambient_temperature 293
#These two values have been output from a single CSD field.
_refine_ls_R_factor_gt 0.0377
_refine_ls_wR_factor_gt 0.0377
_symmetry_cell_setting triclinic
_symmetry_space_group_name_H-M 'P -1'
_symmetry_Int_Tables_number 2
loop_
_symmetry_equiv_pos_site_id
_symmetry_equiv_pos_as_xyz
1 x,y,z
2 -x,-y,-z
_cell_length_a 7.5226(5)
_cell_length_b 8.9711(6)
_cell_length_c 9.9836(6)
_cell_angle_alpha 108.789(1)
_cell_angle_beta 96.883(1)
_cell_angle_gamma 96.573(1)
_cell_formula_units_Z 1
loop_
_atom_type_symbol
_atom_type_radius_bond
C 0.68
H 0.23
Co 1.26
N 0.68
O 0.68
loop_
_atom_site_label
_atom_site_type_symbol
_atom_site_fract_x
_atom_site_fract_y
_atom_site_fract_z
Co1 Co 0.50000 0.50000 0.50000
O1 O 0.24150(19) 0.23804(15) -0.29467(13)
O2 O 0.18723(19) 0.39622(16) -0.08430(14)
O3 O 0.75522(17) 0.57365(15) 0.45234(13)
H1 H 0.79620 0.49320 0.40490
H2 H 0.74310 0.63430 0.40410
O4 O 0.38480(18) 0.66336(15) 0.42348(13)
H3 H 0.31210 0.61420 0.34690
H4 H 0.32890 0.71750 0.48490
N1 N 0.4360(2) 0.32995(17) 0.28627(15)
N2 N 0.4797(2) 0.37037(17) 0.17695(15)
N3 N 0.4151(2) 0.24628(17) 0.05592(15)
C1 C 0.2733(2) 0.2999(2) -0.16029(18)
C2 C 0.4383(2) 0.2550(2) -0.08432(18)
H5 H 0.46070 0.15240 -0.14460
H6 H 0.54420 0.33340 -0.07280
C3 C 0.3259(2) 0.1217(2) 0.08524(18)
C4 C 0.2350(2) -0.0309(2) -0.00195(19)
H7 H 0.22590 -0.06660 -0.10130
C5 C 0.1602(3) -0.1243(2) 0.0696(2)
H8 H 0.09690 -0.22570 0.01650
C6 C 0.1761(3) -0.0713(2) 0.2209(2)
H9 H 0.12360 -0.13900 0.26400
C7 C 0.2675(2) 0.0782(2) 0.30673(19)
H10 H 0.27940 0.11210 0.40620
C8 C 0.3415(2) 0.1765(2) 0.23517(18)
O5 O 0.11698(18) 0.51174(16) 0.18758(14)
H11 H 0.15870 0.47550 0.11120
H12 H 0.02470 0.55100 0.16950
O6 O -0.04491(19) 0.32726(16) 0.32745(15)
H13 H 0.03160 0.33600 0.39930
H14 H 0.00690 0.36720 0.27400
O7 O -0.2481(3) 0.08908(19) 0.4044(2)
H15 H -0.23510 -0.00590 0.36420
H16 H -0.18190 0.14820 0.37360
O1A O 0.75850(19) 0.76196(15) 1.29467(13)
O2A O 0.81277(19) 0.60378(16) 1.08430(14)
O3A O 0.24478(17) 0.42635(15) 0.54766(13)
H1A H 0.20380 0.50680 0.59510
H2A H 0.25690 0.36570 0.59590
O4A O 0.61520(18) 0.33664(15) 0.57652(13)
H3A H 0.68790 0.38580 0.65310
H4A H 0.67110 0.28250 0.51510
N1A N 0.5640(2) 0.67005(17) 0.71373(15)
N2A N 0.5203(2) 0.62963(17) 0.82305(15)
N3A N 0.5849(2) 0.75372(17) 0.94408(15)
C1A C 0.7267(2) 0.7001(2) 1.16029(18)
C2A C 0.5617(2) 0.7450(2) 1.08432(18)
H5A H 0.53930 0.84760 1.14460
H6A H 0.45580 0.66660 1.07280
C3A C 0.6741(2) 0.8783(2) 0.91476(18)
C4A C 0.7650(2) 1.0309(2) 1.00195(19)
H7A H 0.77410 1.06660 1.10130
C5A C 0.8398(3) 1.1243(2) 0.9304(2)
H8A H 0.90310 1.22570 0.98350
C6A C 0.8239(3) 1.0713(2) 0.7791(2)
H9A H 0.87640 1.13900 0.73600
C7A C 0.7325(2) 0.9218(2) 0.69327(19)
H10A H 0.72060 0.88790 0.59380
C8A C 0.6585(2) 0.8235(2) 0.76483(18)
#END
