
#######################################################################
#
#                 Cambridge Crystallographic Data Centre
#                                CCDC
#
#######################################################################
#
# If this CIF has been generated from an entry in the Cambridge
# Structural Database, then it will include bibliographic, chemical,
# crystal, experimental, refinement or atomic coordinate data resulting
# from the CCDC's data processing and validation procedures.
#
#######################################################################

data_CSD_CIF_TIWJOZ
_audit_creation_date 2008-07-29
_audit_creation_method CSD-ConQuest-V1
_database_code_CSD TIWJOZ
_database_code_depnum_ccdc_archive 'CCDC 662924'
_chemical_formula_sum 'C8 H3 B2 Br4 Mn1 O3'
_chemical_formula_moiety
;
C8 H3 B2 Br4 Mn1 O3
;
_journal_coden_Cambridge 579
_journal_volume 27
_journal_year 2008
_journal_page_first 764
_journal_name_full 'Organometallics '
loop_
_publ_author_name
"U.D.Eckensberger"
"K.Kunz"
"M.Bolte"
"H.-W.Lerner"
"M.Wagner"
_chemical_name_systematic
;
(\h^5^-1,3-bis(Dibromoboryl)cyclopentadienyl)-tricarbonyl-manganese
;
_chemical_name_common
;
1,3-bis(Dibromoboryl)cymantrene
;
_cell_volume    732.323
_exptl_crystal_colour 'light yellow'
_exptl_crystal_density_diffrn 2.464
_exptl_crystal_description 'plate'
_diffrn_ambient_temperature 173
#These two values have been output from a single CSD field.
_refine_ls_R_factor_gt 0.0686
_refine_ls_wR_factor_gt 0.0686
_symmetry_cell_setting triclinic
_symmetry_space_group_name_H-M 'P -1'
_symmetry_Int_Tables_number 2
loop_
_symmetry_equiv_pos_site_id
_symmetry_equiv_pos_as_xyz
1 x,y,z
2 -x,-y,-z
_cell_length_a 6.7882(11)
_cell_length_b 10.6733(19)
_cell_length_c 11.313(2)
_cell_angle_alpha 100.226(14)
_cell_angle_beta 105.977(14)
_cell_angle_gamma 105.209(13)
_cell_formula_units_Z 2
loop_
_atom_type_symbol
_atom_type_radius_bond
C 0.68
H 0.23
B 0.83
Br 1.21
Mn 1.35
O 0.68
loop_
_atom_site_label
_atom_site_type_symbol
_atom_site_fract_x
_atom_site_fract_y
_atom_site_fract_z
Mn1 Mn 0.7163(2) 0.15095(11) 0.81345(12)
C1 C 0.4224(16) 0.0949(9) 0.7656(10)
O1 O 0.2376(12) 0.0630(8) 0.7382(9)
C2 C 0.7067(16) 0.0337(9) 0.6692(10)
O2 O 0.7117(14) -0.0351(8) 0.5821(8)
C3 C 0.7289(15) 0.0274(8) 0.9054(9)
O3 O 0.7405(14) -0.0465(7) 0.9667(9)
B1 B 0.8554(16) 0.3242(9) 1.1052(10)
Br1 Br 1.05600(18) 0.27679(11) 1.23018(10)
Br2 Br 0.62708(16) 0.37217(9) 1.15065(9)
B2 B 0.6767(17) 0.3367(10) 0.6263(10)
Br3 Br 0.40265(15) 0.36769(9) 0.59042(9)
Br4 Br 0.78989(18) 0.30934(13) 0.49028(10)
C4 C 0.8779(14) 0.3268(8) 0.9760(9)
C5 C 0.7373(13) 0.3572(7) 0.8729(8)
H1 H 0.61820 0.38640 0.87740
C6 C 0.8020(13) 0.3370(8) 0.7607(9)
C7 C 0.9961(14) 0.2968(8) 0.8015(9)
H2 H 1.08100 0.27980 0.75030
C8 C 1.0361(13) 0.2875(8) 0.9263(9)
H3 H 1.14920 0.25970 0.97230
#END
