
#######################################################################
#
#                 Cambridge Crystallographic Data Centre
#                                CCDC
#
#######################################################################
#
# If this CIF has been generated from an entry in the Cambridge
# Structural Database, then it will include bibliographic, chemical,
# crystal, experimental, refinement or atomic coordinate data resulting
# from the CCDC's data processing and validation procedures.
#
#######################################################################

data_CSD_CIF_TIYWIJ
_audit_creation_date 2014-02-18
_audit_creation_method CSD-ConQuest-V1
_database_code_CSD TIYWIJ
_database_code_depnum_ccdc_archive 'CCDC 888965'
_chemical_formula_sum 'C14 H16 Mn1 N2 O6'
_chemical_formula_moiety
;
C14 H16 Mn1 N2 O6
;
_journal_coden_Cambridge 155
_journal_volume 412
_journal_year 2014
_journal_page_first 60
_journal_name_full 'Inorg.Chim.Acta '
loop_
_publ_author_name
"Yang-Hui Luo"
"Qiu-Xia Mao"
"Bai-Wang Sun"
_chemical_name_systematic
;
Diaqua-bis(6-methylnicotinato)-manganese(ii)
;
_cell_volume   1561.778
_exptl_crystal_density_diffrn 1.545
_diffrn_ambient_temperature 293
#These two values have been output from a single CSD field.
_refine_ls_R_factor_gt 0.0395
_refine_ls_wR_factor_gt 0.0395
_symmetry_cell_setting monoclinic
_symmetry_space_group_name_H-M 'C 2/c'
_symmetry_Int_Tables_number 15
loop_
_symmetry_equiv_pos_site_id
_symmetry_equiv_pos_as_xyz
1 x,y,z
2 -x,y,1/2-z
3 1/2+x,1/2+y,z
4 1/2-x,1/2+y,1/2-z
5 -x,-y,-z
6 x,-y,-1/2+z
7 -1/2-x,-1/2-y,-z
8 -1/2+x,-1/2-y,-1/2+z
_cell_length_a 22.814(5)
_cell_length_b 5.5122(11)
_cell_length_c 16.662(3)
_cell_angle_alpha 90
_cell_angle_beta 131.81(3)
_cell_angle_gamma 90
_cell_formula_units_Z 4
loop_
_atom_type_symbol
_atom_type_radius_bond
C 0.68
H 0.23
Mn 1.61
N 0.68
O 0.68
loop_
_atom_site_label
_atom_site_type_symbol
_atom_site_fract_x
_atom_site_fract_y
_atom_site_fract_z
Mn1 Mn 0.00000 0.71258(8) 0.25000
O1 O 0.12959(8) 0.6610(3) 0.36573(12)
O2 O 0.05673(7) 0.4097(3) 0.23019(11)
O3 O -0.01612(7) 0.9716(2) 0.14170(11)
H1 H -0.06540 1.02330 0.08810
H2 H 0.01060 1.14010 0.17940
N1 N 0.33538(9) 0.3564(3) 0.46363(13)
C1 C 0.19514(11) 0.3563(3) 0.34955(15)
C2 C 0.19076(12) 0.1448(4) 0.30144(16)
H3 H 0.14230 0.07280 0.24700
C3 C 0.26918(11) 0.4535(4) 0.43179(16)
H4 H 0.27280 0.59290 0.46630
C4 C 0.33031(12) 0.1521(4) 0.41536(16)
C5 C 0.25916(12) 0.0413(4) 0.33509(16)
H5 H 0.25720 -0.10190 0.30390
C6 C 0.40542(12) 0.0521(5) 0.45098(18)
H6 H 0.42330 0.13930 0.42600
H7 H 0.38820 -0.07590 0.39840
H8 H 0.43370 -0.01510 0.51930
C7 C 0.12367(11) 0.4825(3) 0.31427(16)
O1A O -0.12959(8) 0.6610(3) 0.13427(12)
O2A O -0.05673(7) 0.4097(3) 0.26981(11)
O3A O 0.01612(7) 0.9716(2) 0.35830(11)
H1A H 0.06540 1.02330 0.41190
H2A H -0.01060 1.14010 0.32060
N1A N -0.33538(9) 0.3564(3) 0.03637(13)
C1A C -0.19514(11) 0.3563(3) 0.15045(15)
C2A C -0.19076(12) 0.1448(4) 0.19856(16)
H3A H -0.14230 0.07280 0.25300
C3A C -0.26918(11) 0.4535(4) 0.06821(16)
H4A H -0.27280 0.59290 0.03370
C4A C -0.33031(12) 0.1521(4) 0.08464(16)
C5A C -0.25916(12) 0.0413(4) 0.16491(16)
H5A H -0.25720 -0.10190 0.19610
C6A C -0.40542(12) 0.0521(5) 0.04902(18)
H6A H -0.42330 0.13930 0.07400
H7A H -0.38820 -0.07590 0.10160
H8A H -0.43370 -0.01510 -0.01930
C7A C -0.12367(11) 0.4825(3) 0.18573(16)
#END
