
#######################################################################
#
#                 Cambridge Crystallographic Data Centre
#                                CCDC
#
#######################################################################
#
# If this CIF has been generated from an entry in the Cambridge
# Structural Database, then it will include bibliographic, chemical,
# crystal, experimental, refinement or atomic coordinate data resulting
# from the CCDC's data processing and validation procedures.
#
#######################################################################

data_CSD_CIF_TIZJOD
_audit_creation_date 2014-02-19
_audit_creation_method CSD-ConQuest-V1
_database_code_CSD TIZJOD
_database_code_depnum_ccdc_archive 'CCDC 987837; CCDC 426561'
_chemical_formula_sum 'C6 H30 Mn1 N6 Se4'
_chemical_formula_moiety
;
C6 H30 Mn1 N6 2+,Se4 2-
;
_journal_coden_Cambridge 1295
_journal_volume 38
_journal_year 2013
_journal_page_first 146
_journal_name_full 'Inorg.Chem.Commun. '
loop_
_publ_author_name
"O.Kysliak"
"J.Beck"
_chemical_name_systematic
;
hexakis(methanamine)-manganese(ii) tetraselane-1,4-diide
;
_cell_volume   1899.847
_exptl_crystal_density_diffrn 1.948
_diffrn_ambient_temperature 123
#These two values have been output from a single CSD field.
_refine_ls_R_factor_gt 0.0258
_refine_ls_wR_factor_gt 0.0258
_symmetry_cell_setting monoclinic
_symmetry_space_group_name_H-M 'C 2/c'
_symmetry_Int_Tables_number 15
loop_
_symmetry_equiv_pos_site_id
_symmetry_equiv_pos_as_xyz
1 x,y,z
2 -x,y,1/2-z
3 1/2+x,1/2+y,z
4 1/2-x,1/2+y,1/2-z
5 -x,-y,-z
6 x,-y,-1/2+z
7 -1/2-x,-1/2-y,-z
8 -1/2+x,-1/2-y,-1/2+z
_cell_length_a 12.0489(1)
_cell_length_b 11.9237(2)
_cell_length_c 13.7391(2)
_cell_angle_alpha 90
_cell_angle_beta 105.740(1)
_cell_angle_gamma 90
_cell_formula_units_Z 4
loop_
_atom_type_symbol
_atom_type_radius_bond
C 0.68
H 0.23
Mn 1.61
N 0.68
Se 1.22
loop_
_atom_site_label
_atom_site_type_symbol
_atom_site_fract_x
_atom_site_fract_y
_atom_site_fract_z
Se1 Se 0.36280(2) 0.15950(2) 0.360383(19)
Se2 Se 0.49616(2) 0.29057(2) 0.33406(2)
Mn1 Mn 0.00000 0.33914(4) 0.25000
N1 N 0.16171(19) 0.3496(2) 0.19148(18)
N2 N 0.08194(19) 0.21530(19) 0.37640(17)
N3 N 0.0924(2) 0.4761(3) 0.3612(3)
H1 H 0.07590 0.54170 0.32810
H2 H 0.05740 0.47770 0.41130
C1 C 0.1619(3) 0.3086(3) 0.0905(2)
C2 C 0.0403(3) 0.0994(3) 0.3793(3)
C3 C 0.2134(2) 0.4774(2) 0.4088(2)
H3 H 0.24200 0.40180 0.41680
H4 H 0.22750 0.51230 0.47400
H5 H 0.25200 0.51880 0.36770
H6 H 0.214(4) 0.320(3) 0.233(3)
H7 H 0.177(3) 0.418(4) 0.198(3)
H8 H 0.234(3) 0.328(3) 0.075(3)
H9 H 0.100(3) 0.352(3) 0.040(3)
H10 H 0.145(4) 0.237(4) 0.087(3)
H11 H 0.151(3) 0.212(3) 0.380(3)
H12 H 0.076(3) 0.257(4) 0.432(3)
H13 H -0.043(4) 0.094(3) 0.346(3)
H14 H 0.073(4) 0.050(4) 0.340(3)
H15 H 0.058(4) 0.070(4) 0.447(3)
Se1A Se 0.63720(2) 0.15950(2) 0.139617(19)
Se2A Se 0.50384(2) 0.29057(2) 0.16594(2)
N1A N -0.16171(19) 0.3496(2) 0.30852(18)
N2A N -0.08194(19) 0.21530(19) 0.12360(17)
N3A N -0.0924(2) 0.4761(3) 0.1388(3)
H1A H -0.07590 0.54170 0.17190
H2A H -0.05740 0.47770 0.08870
C1A C -0.1619(3) 0.3086(3) 0.4095(2)
C2A C -0.0403(3) 0.0994(3) 0.1207(3)
C3A C -0.2134(2) 0.4774(2) 0.0912(2)
H3A H -0.24200 0.40180 0.08320
H4A H -0.22750 0.51230 0.02600
H5A H -0.25200 0.51880 0.13230
H6A H -0.214(4) 0.320(3) 0.267(3)
H7A H -0.177(3) 0.418(4) 0.302(3)
H8A H -0.234(3) 0.328(3) 0.425(3)
H9A H -0.100(3) 0.352(3) 0.460(3)
H10A H -0.145(4) 0.237(4) 0.413(3)
H11A H -0.151(3) 0.212(3) 0.120(3)
H12A H -0.076(3) 0.257(4) 0.068(3)
H13A H 0.043(4) 0.094(3) 0.154(3)
H14A H -0.073(4) 0.050(4) 0.160(3)
H15A H -0.058(4) 0.070(4) 0.053(3)
#END
