
#######################################################################
#
#                 Cambridge Crystallographic Data Centre
#                                CCDC
#
#######################################################################
#
# If this CIF has been generated from an entry in the Cambridge
# Structural Database, then it will include bibliographic, chemical,
# crystal, experimental, refinement or atomic coordinate data resulting
# from the CCDC's data processing and validation procedures.
#
#######################################################################

data_CSD_CIF_TMABCR10
_audit_creation_date 1971-12-31
_audit_creation_method CSD-ConQuest-V1
_database_code_CSD TMABCR10
_database_code_depnum_ccdc_archive 'CCDC 1272227'
_chemical_formula_sum 'C8 H20 B3 Cr1 N1 O4'
_chemical_formula_moiety
;
C4 H12 N1 1+,C4 H8 B3 Cr1 O4 1-
;
_journal_coden_Cambridge 9
_journal_volume 9
_journal_year 1970
_journal_page_first 367
_journal_name_full 'Inorg.Chem. '
loop_
_publ_author_name
"L.J.Guggenberger"
_chemical_name_systematic
;
Tetramethylammonium (boryldiborane-H,H')-tetracarbonyl-chromium
;
_cell_volume    762.731
_exptl_crystal_density_diffrn 1.22
_diffrn_ambient_temperature ?
_diffrn_special_details
;
The study was carried out at room temperature,in the range 283-303K

;
#These two values have been output from a single CSD field.
_refine_ls_R_factor_gt 0.077
_refine_ls_wR_factor_gt 0.077
_symmetry_cell_setting monoclinic
_symmetry_space_group_name_H-M 'P 21/m'
_symmetry_Int_Tables_number 11
loop_
_symmetry_equiv_pos_site_id
_symmetry_equiv_pos_as_xyz
1 x,y,z
2 -x,1/2+y,-z
3 -x,-y,-z
4 x,-1/2-y,z
_cell_length_a 11.074(4)
_cell_length_b 8.938(2)
_cell_length_c 7.784(3)
_cell_angle_alpha 90
_cell_angle_beta 98.12(4)
_cell_angle_gamma 90
_cell_formula_units_Z 2
loop_
_atom_type_symbol
_atom_type_radius_bond
C 0.68
H 0.34
B 0.70
Cr 1.20
N 0.68
O 0.68
loop_
_atom_site_label
_atom_site_type_symbol
_atom_site_fract_x
_atom_site_fract_y
_atom_site_fract_z
B1 B -0.07290 0.25000 -0.09000
B2 B 0.05040 0.34950 -0.17280
Cr1 Cr 0.22970 0.25000 0.00760
C1 C 0.31280 0.25000 -0.18930
C2 C 0.15950 0.25000 0.21710
C3 C 0.33190 0.39670 0.10430
H1 H 0.13150 0.40390 -0.05410
H2 H 0.04640 0.40080 -0.29790
H3 H -0.02430 0.39720 -0.10070
H4 H -0.16100 0.25000 -0.20460
H5 H -0.09660 0.25000 0.04990
O1 O 0.37030 0.25000 -0.29920
O2 O 0.13040 0.25000 0.34930
O3 O 0.39800 0.48670 0.16960
C4 C -0.34110 0.25000 0.18010
C5 C -0.39590 0.25000 0.47450
C6 C -0.21860 0.37660 0.42430
N1 N -0.29590 0.25000 0.37400
B2C B 0.05040 0.15050 -0.17280
H1C H 0.13150 0.09610 -0.05410
C3C C 0.33190 0.10330 0.10430
O3C O 0.39800 0.01330 0.16960
H2C H 0.04640 0.09920 -0.29790
H3C H -0.02430 0.10280 -0.10070
C6C C -0.21860 0.12340 0.42430
#END
