
#######################################################################
#
#                 Cambridge Crystallographic Data Centre
#                                CCDC
#
#######################################################################
#
# If this CIF has been generated from an entry in the Cambridge
# Structural Database, then it will include bibliographic, chemical,
# crystal, experimental, refinement or atomic coordinate data resulting
# from the CCDC's data processing and validation procedures.
#
#######################################################################

data_CSD_CIF_TMAFMN
_audit_creation_date 1980-02-13
_audit_creation_method CSD-ConQuest-V1
_database_code_CSD TMAFMN
_database_code_depnum_ccdc_archive 'CCDC 1272267'
_chemical_formula_sum 'C4 H16 F4 Mn1 N1 O2'
_chemical_formula_moiety
;
C4 H12 N1 1+,H4 F4 Mn1 O2 1-
;
_journal_coden_Cambridge 186
_journal_year 1979
_journal_page_first 1512
_journal_name_full 'J.Chem.Soc.,Dalton Trans. '
loop_
_publ_author_name
"V.Kaucic"
"P.Bukovec"
_chemical_name_systematic
;
Tetramethylammonium diaqua-tetrafluoro-manganese(iii)
;
_cell_volume    961.556
_exptl_crystal_density_diffrn 1.665
_diffrn_ambient_temperature ?
_diffrn_special_details
;
The study was carried out at room temperature,in the range 283-303K

;
#These two values have been output from a single CSD field.
_refine_ls_R_factor_gt 0.031
_refine_ls_wR_factor_gt 0.031
_symmetry_cell_setting monoclinic
_symmetry_space_group_name_H-M 'C 2/c'
_symmetry_Int_Tables_number 15
loop_
_symmetry_equiv_pos_site_id
_symmetry_equiv_pos_as_xyz
1 x,y,z
2 1/2+x,1/2+y,z
3 -x,y,1/2-z
4 1/2-x,1/2+y,1/2-z
5 -x,-y,-z
6 -1/2-x,-1/2-y,-z
7 x,-y,-1/2+z
8 -1/2+x,-1/2-y,-1/2+z
_cell_length_a 16.092(3)
_cell_length_b 5.559(1)
_cell_length_c 10.844(2)
_cell_angle_alpha 90
_cell_angle_beta 97.59(2)
_cell_angle_gamma 90
_cell_formula_units_Z 4
loop_
_atom_type_symbol
_atom_type_radius_bond
C 0.68
H 0.23
F 0.64
Mn 1.35
N 0.68
O 0.68
loop_
_atom_site_label
_atom_site_type_symbol
_atom_site_fract_x
_atom_site_fract_y
_atom_site_fract_z
Mn1 Mn 0.25000 0.25000 0.50000
F1 F 0.14018 0.28594 0.44133
F2 F 0.25824 0.00460 0.38473
O1 O 0.28677 0.52739 0.36477
H1 H 0.26590 0.52870 0.27610
H2 H 0.29020 0.69710 0.38810
N1 N 0.50000 0.15500 0.25000
C1 C 0.44217 0.30766 0.16414
C2 C 0.45103 -0.00364 0.32470
H3 H 0.40590 0.21150 0.09160
H4 H 0.40040 0.39800 0.21680
H5 H 0.47840 0.43800 0.12290
H6 H 0.41440 -0.11450 0.25930
H7 H 0.49170 -0.10960 0.38790
H8 H 0.41180 0.10090 0.37540
F1E F 0.35982 0.21406 0.55867
F2E F 0.24176 0.49540 0.61527
O1E O 0.21323 -0.02739 0.63523
H1E H 0.23410 -0.02870 0.72390
H2E H 0.20980 -0.19710 0.61190
C1B C 0.55783 0.30766 0.33586
C2B C 0.54897 -0.00364 0.17530
H3B H 0.59410 0.21150 0.40840
H4B H 0.59960 0.39800 0.28320
H5B H 0.52160 0.43800 0.37710
H6B H 0.58560 -0.11450 0.24070
H7B H 0.50830 -0.10960 0.11210
H8B H 0.58820 0.10090 0.12460
#END
