
#######################################################################
#
#                 Cambridge Crystallographic Data Centre
#                                CCDC
#
#######################################################################
#
# If this CIF has been generated from an entry in the Cambridge
# Structural Database, then it will include bibliographic, chemical,
# crystal, experimental, refinement or atomic coordinate data resulting
# from the CCDC's data processing and validation procedures.
#
#######################################################################

data_CSD_CIF_TOBGUN
_audit_creation_date 2008-07-29
_audit_creation_method CSD-ConQuest-V1
_database_code_CSD TOBGUN
_database_code_depnum_ccdc_archive 'CCDC 690820'
_chemical_formula_sum 'C8 H18 Mn1 N16 O6'
_chemical_formula_moiety
;
C8 H14 Mn1 N16 O4,2(H2 O1)
;
_journal_coeditor_code "IUCr YA2068"
_journal_coden_Cambridge 1370
_journal_volume 64
_journal_year 2008
_journal_page_first m772
_journal_name_full 'Acta Crystallogr.,Sect.E:Struct.Rep.Online '
loop_
_publ_author_name
"Tuoping Hu"
_chemical_name_systematic
;
Tetra-aqua-bis(5-(2-(1H-tetrazol-5-yl)ethenyl)-2H-tetrazolato-N^2^)-manganese(
ii) dihydrate
;
_cell_volume    484.699
_exptl_crystal_colour 'brown'
_exptl_crystal_density_diffrn 1.676
_exptl_crystal_description 'prism'
_diffrn_ambient_temperature 273
#These two values have been output from a single CSD field.
_refine_ls_R_factor_gt 0.022
_refine_ls_wR_factor_gt 0.022
_symmetry_cell_setting triclinic
_symmetry_space_group_name_H-M 'P -1'
_symmetry_Int_Tables_number 2
loop_
_symmetry_equiv_pos_site_id
_symmetry_equiv_pos_as_xyz
1 x,y,z
2 -x,-y,-z
_cell_length_a 6.2296(2)
_cell_length_b 7.0093(2)
_cell_length_c 12.1212(3)
_cell_angle_alpha 84.405(1)
_cell_angle_beta 89.457(1)
_cell_angle_gamma 67.016(1)
_cell_formula_units_Z 1
loop_
_atom_type_symbol
_atom_type_radius_bond
C 0.68
H 0.23
Mn 1.35
N 0.68
O 0.68
loop_
_atom_site_label
_atom_site_type_symbol
_atom_site_fract_x
_atom_site_fract_y
_atom_site_fract_z
Mn1 Mn 0.50000 0.00000 0.50000
O1 O 0.13139(12) 0.18659(13) 0.45633(6)
O2 O 0.48182(15) 0.26842(14) 0.58308(6)
O3 O 0.15295(14) 0.60925(13) 0.38023(6)
H1 H 0.108(4) 0.639(3) 0.3151(17)
H2 H 0.180(4) 0.488(3) 0.3935(17)
N1 N 0.80858(13) 0.13919(13) 0.30839(6)
N2 N 0.60467(13) 0.13162(13) 0.34123(6)
N3 N 0.46087(14) 0.17201(14) 0.25572(6)
N4 N 0.56698(13) 0.20725(13) 0.16459(6)
N5 N 1.08450(14) 0.30165(13) -0.16586(6)
N6 N 1.28887(14) 0.30586(14) -0.20234(6)
N7 N 1.43373(14) 0.27581(14) -0.12043(6)
N8 N 1.32424(13) 0.25048(12) -0.02771(6)
C1 C 0.78023(14) 0.18638(13) 0.19858(6)
C2 C 0.96111(15) 0.20610(14) 0.12755(7)
C3 C 0.93208(15) 0.24900(14) 0.01755(7)
C4 C 1.11010(14) 0.26607(13) -0.05597(6)
H3 H 0.794(2) 0.271(2) -0.0175(12)
H4 H 1.104(3) 0.186(2) 0.1658(12)
H5 H 1.405(3) 0.232(3) 0.0389(15)
H6 H 0.047(3) 0.239(3) 0.5070(15)
H7 H 0.050(3) 0.155(3) 0.4134(15)
H8 H 0.587(3) 0.304(3) 0.5865(15)
H9 H 0.417(3) 0.280(3) 0.6422(17)
O1A O 0.86861(12) -0.18659(13) 0.54367(6)
O2A O 0.51818(15) -0.26842(14) 0.41692(6)
N1A N 0.19142(13) -0.13919(13) 0.69161(6)
N2A N 0.39533(13) -0.13162(13) 0.65877(6)
N3A N 0.53913(14) -0.17201(14) 0.74428(6)
N4A N 0.43302(13) -0.20725(13) 0.83541(6)
N5A N -0.08450(14) -0.30165(13) 1.16586(6)
N6A N -0.28887(14) -0.30586(14) 1.20234(6)
N7A N -0.43373(14) -0.27581(14) 1.12043(6)
N8A N -0.32424(13) -0.25048(12) 1.02771(6)
C1A C 0.21977(14) -0.18638(13) 0.80142(6)
C2A C 0.03889(15) -0.20610(14) 0.87245(7)
C3A C 0.06792(15) -0.24900(14) 0.98245(7)
C4A C -0.11010(14) -0.26607(13) 1.05597(6)
H3A H 0.206(2) -0.271(2) 1.0175(12)
H4A H -0.104(3) -0.186(2) 0.8342(12)
H5A H -0.405(3) -0.232(3) 0.9611(15)
H6A H 0.953(3) -0.239(3) 0.4930(15)
H7A H 0.950(3) -0.155(3) 0.5866(15)
H8A H 0.413(3) -0.304(3) 0.4135(15)
H9A H 0.583(3) -0.280(3) 0.3578(17)
#END
