
#######################################################################
#
#                 Cambridge Crystallographic Data Centre
#                                CCDC
#
#######################################################################
#
# If this CIF has been generated from an entry in the Cambridge
# Structural Database, then it will include bibliographic, chemical,
# crystal, experimental, refinement or atomic coordinate data resulting
# from the CCDC's data processing and validation procedures.
#
#######################################################################

data_CSD_CIF_TOBMON
_audit_creation_date 2008-07-29
_audit_creation_method CSD-ConQuest-V1
_database_code_CSD TOBMON
_database_code_depnum_ccdc_archive 'CCDC 690870'
_chemical_formula_sum 'C24 H18 Cl2 Fe1 N2 O4'
_chemical_formula_moiety
;
C24 H18 Cl2 Fe1 N2 O4
;
_journal_coeditor_code "IUCr SJ2505"
_journal_coden_Cambridge 1370
_journal_volume 64
_journal_year 2008
_journal_page_first m844
_journal_name_full 'Acta Crystallogr.,Sect.E:Struct.Rep.Online '
loop_
_publ_author_name
"Dong-Sheng Xia"
"Wu Chen"
"Jing Huang"
"Qing-Fu Zeng"
_chemical_name_systematic
;
bis((E)-4-Chloro-2-(2-furylmethyliminomethyl)phenolato)-iron(ii)
;
_cell_volume   1140.618
_exptl_crystal_colour 'brown'
_exptl_crystal_density_diffrn 1.529
_exptl_crystal_description 'block'
_diffrn_ambient_temperature 298
#These two values have been output from a single CSD field.
_refine_ls_R_factor_gt 0.0601
_refine_ls_wR_factor_gt 0.0601
_symmetry_cell_setting monoclinic
_symmetry_space_group_name_H-M 'C 2'
_symmetry_Int_Tables_number 5
loop_
_symmetry_equiv_pos_site_id
_symmetry_equiv_pos_as_xyz
1 x,y,z
2 -x,y,-z
3 1/2+x,1/2+y,z
4 1/2-x,1/2+y,-z
_cell_length_a 22.550(4)
_cell_length_b 4.6270(6)
_cell_length_c 13.822(3)
_cell_angle_alpha 90
_cell_angle_beta 127.73(3)
_cell_angle_gamma 90
_cell_formula_units_Z 2
loop_
_atom_type_symbol
_atom_type_radius_bond
C 0.68
H 0.23
Cl 0.99
Fe 1.34
N 0.68
O 0.68
loop_
_atom_site_label
_atom_site_type_symbol
_atom_site_fract_x
_atom_site_fract_y
_atom_site_fract_z
Fe1 Fe 0.50000 0.5044(3) 0.50000
Cl1 Cl 0.87863(17) 0.7649(11) 1.0179(3)
N1 N 0.5246(5) 0.728(2) 0.6435(8)
O1 O 0.5933(4) 0.313(2) 0.5865(7)
O2 O 0.4619(6) 0.600(3) 0.7844(9)
C1 C 0.6584(5) 0.630(3) 0.7611(9)
C2 C 0.6554(5) 0.419(2) 0.6848(9)
C3 C 0.7253(6) 0.309(3) 0.7192(11)
H1 H 0.72500 0.16860 0.67090
C4 C 0.7929(6) 0.406(3) 0.8218(11)
H2 H 0.83770 0.33170 0.84290
C5 C 0.7933(6) 0.620(3) 0.8943(10)
C6 C 0.7284(6) 0.737(3) 0.8663(10)
H3 H 0.73000 0.88240 0.91450
C7 C 0.5937(6) 0.759(3) 0.739(1)
H4 H 0.60210 0.87860 0.80030
C8 C 0.4677(6) 0.890(3) 0.6455(11)
H5 H 0.49260 1.03360 0.71000
H6 H 0.43290 0.98820 0.56810
C9 C 0.4259(6) 0.683(3) 0.6671(10)
C10 C 0.4146(12) 0.427(6) 0.786(2)
H7 H 0.42420 0.34980 0.85600
C11 C 0.3509(10) 0.381(4) 0.6710(18)
H8 H 0.31090 0.26060 0.64660
C12 C 0.3594(7) 0.555(4) 0.5982(13)
H9 H 0.32380 0.57810 0.51410
Cl1A Cl 0.12137(17) 0.7649(11) -0.0179(3)
N1A N 0.4754(5) 0.728(2) 0.3565(8)
O1A O 0.4067(4) 0.313(2) 0.4135(7)
O2A O 0.5381(6) 0.600(3) 0.2156(9)
C1A C 0.3416(5) 0.630(3) 0.2389(9)
C2A C 0.3446(5) 0.419(2) 0.3152(9)
C3A C 0.2747(6) 0.309(3) 0.2808(11)
H1A H 0.27500 0.16860 0.32910
C4A C 0.2071(6) 0.406(3) 0.1782(11)
H2A H 0.16230 0.33170 0.15710
C5A C 0.2067(6) 0.620(3) 0.1057(10)
C6A C 0.2716(6) 0.737(3) 0.1337(10)
H3A H 0.27000 0.88240 0.08550
C7A C 0.4063(6) 0.759(3) 0.261(1)
H4A H 0.39790 0.87860 0.19970
C8A C 0.5323(6) 0.890(3) 0.3545(11)
H5A H 0.50740 1.03360 0.29000
H6A H 0.56710 0.98820 0.43190
C9A C 0.5741(6) 0.683(3) 0.3329(10)
C10A C 0.5854(12) 0.427(6) 0.214(2)
H7A H 0.57580 0.34980 0.14400
C11A C 0.6491(10) 0.381(4) 0.3290(18)
H8A H 0.68910 0.26060 0.35340
C12A C 0.6406(7) 0.555(4) 0.4018(13)
H9A H 0.67620 0.57810 0.48590
#END
