
#######################################################################
#
#                 Cambridge Crystallographic Data Centre
#                                CCDC
#
#######################################################################
#
# If this CIF has been generated from an entry in the Cambridge
# Structural Database, then it will include bibliographic, chemical,
# crystal, experimental, refinement or atomic coordinate data resulting
# from the CCDC's data processing and validation procedures.
#
#######################################################################

data_CSD_CIF_TOLCRQ
_audit_creation_date 1977-09-12
_audit_creation_method CSD-ConQuest-V1
_database_code_CSD TOLCRQ
_chemical_formula_sum 'C38 H24 Cr1 N8'
_chemical_formula_moiety
;
C14 H16 Cr1 1+,C12 H4 N4 1-,C12 H4 N4
;
_journal_coden_Cambridge 82
_journal_volume 16
_journal_year 1975
_journal_page_first 860
_journal_name_full 'Zh.Strukt.Khim.(Russ.)(J.Struct.Chem.) '
loop_
_publ_author_name
"R.P.Shibaeva"
"L.O.Atovmyan"
"V.I.Ponomarev"
_chemical_name_systematic
;
bis(Toluene)chromium bis(7,7,8,8-tetracyanoquinodimethane)
;
_cell_volume    747.907
_exptl_crystal_density_diffrn 1.44
_diffrn_ambient_temperature 153.15
#These two values have been output from a single CSD field.
_refine_ls_R_factor_gt 0.062
_refine_ls_wR_factor_gt 0.062
_symmetry_cell_setting triclinic
_symmetry_space_group_name_H-M 'P -1'
_symmetry_Int_Tables_number 2
loop_
_symmetry_equiv_pos_site_id
_symmetry_equiv_pos_as_xyz
1 x,y,z
2 -x,-y,-z
_cell_length_a 13.38(1)
_cell_length_b 8.126(8)
_cell_length_c 7.505(6)
_cell_angle_alpha 112.23(8)
_cell_angle_beta 96.40(8)
_cell_angle_gamma 92.07(8)
_cell_formula_units_Z 1
loop_
_atom_type_symbol
_atom_type_radius_bond
C 0.68
H 0.23
Cr 1.35
N 0.68
loop_
_atom_site_label
_atom_site_type_symbol
_atom_site_fract_x
_atom_site_fract_y
_atom_site_fract_z
Cr1 Cr 0.00000 0.00000 0.00000
C1 C -0.05180 -0.13860 0.17200
C2 C 0.02450 -0.23230 0.06450
C3 C 0.11830 -0.13940 0.08210
C4 C 0.13650 0.04280 0.19680
C5 C 0.06030 0.13460 0.30260
C6 C -0.03430 0.04360 0.28710
C7 C -0.11560 0.14300 0.40070
C8 C 0.48770 0.31790 0.37650
C9 C 0.41480 0.38860 0.48700
C10 C 0.57650 0.42690 0.38480
C11 C 0.65170 0.35600 0.26880
C12 C 0.74020 0.46240 0.27300
C13 C 0.64500 0.17340 0.13860
C14 C 0.48650 0.31770 -0.12300
C15 C 0.41390 0.38900 -0.01210
C16 C 0.57620 0.42550 -0.11550
C17 C 0.65040 0.35210 -0.23080
C18 C 0.74030 0.45410 -0.22720
C19 C 0.64270 0.16800 -0.36100
N1 N 0.81180 0.54380 0.27200
N2 N 0.64230 0.02760 0.03240
N3 N 0.81290 0.53300 -0.22790
N4 N 0.63850 0.02230 -0.46730
H1 H 0.47300 0.18900 -0.20600
H2 H 0.35400 0.32900 -0.00700
H3 H 0.36000 0.31000 0.48100
H4 H 0.47700 0.19700 0.29000
H5 H -0.11700 -0.21200 0.14800
H6 H 0.01300 -0.36300 -0.02500
H7 H 0.16900 -0.19100 0.01500
H8 H 0.20200 0.10300 0.18900
H9 H 0.06800 0.26100 0.36800
H10 H -0.09300 0.24500 0.42600
H11 H -0.16000 0.05700 0.33700
H12 H -0.11200 0.14500 0.55700
C1A C 0.05180 0.13860 -0.17200
C2A C -0.02450 0.23230 -0.06450
C3A C -0.11830 0.13940 -0.08210
C4A C -0.13650 -0.04280 -0.19680
C5A C -0.06030 -0.13460 -0.30260
C6A C 0.03430 -0.04360 -0.28710
H5A H 0.11700 0.21200 -0.14800
H6A H -0.01300 0.36300 0.02500
H7A H -0.16900 0.19100 -0.01500
H8A H -0.20200 -0.10300 -0.18900
H9A H -0.06800 -0.26100 -0.36800
C7A C 0.11560 -0.14300 -0.40070
H10A H 0.09300 -0.24500 -0.42600
H11A H 0.16000 -0.05700 -0.33700
H12A H 0.11200 -0.14500 -0.55700
C10A C 0.42350 0.57310 0.61520
C9A C 0.58520 0.61140 0.51300
C8A C 0.51230 0.68210 0.62350
C11A C 0.34830 0.64400 0.73120
H3A H 0.64000 0.69000 0.51900
H4A H 0.52300 0.80300 0.71000
C12A C 0.25980 0.53760 0.72700
C13A C 0.35500 0.82660 0.86140
N1A N 0.18820 0.45620 0.72800
N2A N 0.35770 0.97240 0.96760
C16A C 0.42380 0.57450 0.11550
C15A C 0.58610 0.61100 0.01210
C14A C 0.51350 0.68230 0.12300
C17A C 0.34960 0.64790 0.23080
H2A H 0.64600 0.67100 0.00700
H1A H 0.52700 0.81100 0.20600
C18A C 0.25970 0.54590 0.22720
C19A C 0.35730 0.83200 0.36100
N3A N 0.18710 0.46700 0.22790
N4A N 0.36150 0.97770 0.46730
#END
