
#######################################################################
#
#                 Cambridge Crystallographic Data Centre
#                                CCDC
#
#######################################################################
#
# If this CIF has been generated from an entry in the Cambridge
# Structural Database, then it will include bibliographic, chemical,
# crystal, experimental, refinement or atomic coordinate data resulting
# from the CCDC's data processing and validation procedures.
#
#######################################################################

data_CSD_CIF_TOPJUF
_audit_creation_date 2014-07-23
_audit_creation_method CSD-ConQuest-V1
_database_code_CSD TOPJUF
_database_code_depnum_ccdc_archive 'CCDC 902424'
_chemical_formula_sum 'C10 H12 Cl2 Mn1 N4 O2'
_chemical_formula_moiety
;
C10 H12 Cl2 Mn1 N4 O2
;
_journal_coden_Cambridge 315
_journal_volume 129
_journal_year 2014
_journal_page_first 632
_journal_name_full 'Spectrochim.Acta,Part A '
loop_
_publ_author_name
"A.Jablonska-Wawizycka"
"B.Barszcz"
"M.Zienkiewicz"
"M.Hodorowicz"
"J.Jezierska"
"K.Stadnicka"
"L.Lechowicz"
"W.Kaca"
_chemical_name_systematic
;
dichloro-bis(5-methyl-1H-imidazole-4-carbaldehyde)-manganese(ii)
;
_cell_volume    690.001
_exptl_crystal_colour 'colorless'
_exptl_crystal_density_diffrn 1.666
_exptl_crystal_description 'plate'
_diffrn_ambient_temperature 293
#These two values have been output from a single CSD field.
_refine_ls_R_factor_gt 0.0365
_refine_ls_wR_factor_gt 0.0365
_symmetry_cell_setting triclinic
_symmetry_space_group_name_H-M 'P -1'
_symmetry_Int_Tables_number 2
loop_
_symmetry_equiv_pos_site_id
_symmetry_equiv_pos_as_xyz
1 x,y,z
2 -x,-y,-z
_cell_length_a 7.2670(3)
_cell_length_b 7.3660(2)
_cell_length_c 13.0250(4)
_cell_angle_alpha 87.686(3)
_cell_angle_beta 83.415(2)
_cell_angle_gamma 85.359(2)
_cell_formula_units_Z 2
loop_
_atom_type_symbol
_atom_type_radius_bond
C 0.68
H 0.23
Cl 0.99
Mn 1.61
N 0.68
O 0.68
loop_
_atom_site_label
_atom_site_type_symbol
_atom_site_fract_x
_atom_site_fract_y
_atom_site_fract_z
Mn1 Mn 0.25674(5) 0.80172(4) 0.24453(2)
Cl1 Cl 0.54233(9) 0.94248(8) 0.20467(5)
O1 O 0.4207(3) 0.5087(2) 0.21937(12)
O2 O -0.0305(2) 0.6107(2) 0.25949(13)
N1 N 0.2565(3) 0.6606(2) 0.39888(14)
C1 C 0.2091(3) 0.8329(3) -0.00526(18)
H1 H 0.32140 0.88160 -0.02770
N2 N 0.1611(3) 0.7741(2) 0.08946(14)
C2 C -0.1068(4) 0.6319(3) 0.17952(18)
C3 C -0.0728(3) 0.7409(3) -0.00843(18)
N3 N 0.1955(3) 0.5257(3) 0.55061(16)
C4 C 0.4049(4) 0.4080(3) 0.29742(19)
N4 N 0.0729(3) 0.8133(3) -0.06660(17)
C5 C -0.0156(3) 0.7150(3) 0.08860(16)
C6 C -0.2473(4) 0.7055(4) -0.0489(2)
H2 H -0.29060 0.81090 -0.08770
H3 H -0.33930 0.67980 0.00760
H4 H -0.22570 0.60300 -0.09310
C7 C 0.1827(3) 0.6839(3) 0.49403(17)
H5 H 0.12860 0.79420 0.51960
C8 C 0.2795(3) 0.3922(3) 0.48904(18)
C9 C 0.3187(3) 0.4777(3) 0.39414(17)
C10 C 0.3129(4) 0.1992(4) 0.5251(2)
H6 H 0.41190 0.18950 0.56830
H7 H 0.34650 0.12380 0.46640
H8 H 0.20180 0.15980 0.56370
Cl2 Cl 0.04380(9) 1.06610(8) 0.29560(4)
H9 H 0.452(4) 0.273(3) 0.2946(19)
H10 H -0.235(4) 0.594(3) 0.174(2)
H11 H 0.155(4) 0.522(4) 0.609(2)
H12 H 0.076(4) 0.846(4) -0.121(2)
#END
