
#######################################################################
#
#                 Cambridge Crystallographic Data Centre
#                                CCDC
#
#######################################################################
#
# If this CIF has been generated from an entry in the Cambridge
# Structural Database, then it will include bibliographic, chemical,
# crystal, experimental, refinement or atomic coordinate data resulting
# from the CCDC's data processing and validation procedures.
#
#######################################################################

data_CSD_CIF_TORMIZ
_audit_creation_date 2019-10-25
_audit_creation_method CSD-ConQuest-V1
_database_code_CSD TORMIZ
_database_code_depnum_ccdc_archive 'CCDC 1958894'
_chemical_formula_sum 'C16 H36 Cl3 Fe1 N4'
_chemical_formula_moiety
;
C16 H36 Cl2 Fe1 N4 1+,Cl1 1-
;
_journal_coeditor_code "cu3157"
_journal_coden_Cambridge 1777
_journal_volume 75
_journal_year 2019
_journal_page_first 1509
_journal_name_full 'Acta Crystallogr.,Sect.C:Cryst.Struct.Chem. '
loop_
_publ_author_name
"R.A.Clendening"
"M.Zeller"
"T.Ren"
_chemical_name_systematic
;
dichloro-(5,5,7,12,12,14-hexamethyl-1,4,8,11-tetraazacyclotetradecane)-iron(ii
i) chloride
;
_cell_volume   4061.001
_exptl_crystal_colour 'yellow'
_exptl_crystal_density_diffrn 1.461
_exptl_crystal_description 'Plate'
_diffrn_ambient_temperature 150
_diffrn_special_details
;
twin

;
#These two values have been output from a single CSD field.
_refine_ls_R_factor_gt 0.0249
_refine_ls_wR_factor_gt 0.0249
_symmetry_cell_setting orthorhombic
_symmetry_space_group_name_H-M 'F d d 2'
_symmetry_Int_Tables_number 43
loop_
_symmetry_equiv_pos_site_id
_symmetry_equiv_pos_as_xyz
1 x,y,z
2 -x,-y,z
3 1/4+x,1/4-y,1/4+z
4 1/4-x,1/4+y,1/4+z
5 x,1/2+y,1/2+z
6 -x,1/2-y,1/2+z
7 1/4+x,3/4-y,3/4+z
8 1/4-x,3/4+y,3/4+z
9 1/2+x,y,1/2+z
10 1/2-x,-y,1/2+z
11 3/4+x,1/4-y,3/4+z
12 3/4-x,1/4+y,3/4+z
13 1/2+x,1/2+y,z
14 1/2-x,1/2-y,z
15 3/4+x,3/4-y,1/4+z
16 3/4-x,3/4+y,1/4+z
_cell_length_a 34.5658(16)
_cell_length_b 9.3832(4)
_cell_length_c 12.5209(6)
_cell_angle_alpha 90
_cell_angle_beta 90
_cell_angle_gamma 90
_cell_formula_units_Z 8
loop_
_atom_type_symbol
_atom_type_radius_bond
C 0.68
H 0.23
Cl 0.99
Fe 1.52
N 0.68
loop_
_atom_site_label
_atom_site_type_symbol
_atom_site_fract_x
_atom_site_fract_y
_atom_site_fract_z
Fe1 Fe 0.00000 0.50000 0.47177(2)
Cl1 Cl 0.04066(2) 0.59399(4) 0.59972(4)
N1 N -0.01980(4) 0.71984(15) 0.43765(12)
H1 H -0.0100(7) 0.760(3) 0.493(2)
N2 N 0.04360(3) 0.55678(13) 0.35009(12)
H2 H 0.0352(7) 0.533(3) 0.2897(19)
C1 C 0.00232(4) 0.76806(17) 0.34277(15)
H3 H 0.00229 0.87350 0.33988
H4 H -0.01031 0.73206 0.27713
C2 C 0.04357(4) 0.71467(16) 0.34726(16)
H5 H 0.05798 0.74840 0.28377
H6 H 0.05654 0.75249 0.41181
C3 C 0.08320(5) 0.49628(15) 0.36508(14)
H7 H 0.09152 0.51546 0.44022
C4 C 0.08278(4) 0.33465(16) 0.34788(15)
H8 H 0.07071 0.31594 0.27756
H9 H 0.10997 0.30207 0.34335
C5 C 0.06217(5) 0.24162(15) 0.43060(14)
C6 C 0.11327(5) 0.5615(2) 0.28966(16)
H10 H 0.10547 0.54465 0.21547
H11 H 0.13852 0.51731 0.30260
H12 H 0.11504 0.66430 0.30265
C7 C 0.07963(5) 0.25789(19) 0.54183(17)
H13 H 0.10720 0.23368 0.53941
H14 H 0.06634 0.19383 0.59158
H15 H 0.07658 0.35661 0.56596
C8 C 0.06705(5) 0.08418(18) 0.39781(15)
H16 H 0.05936 0.07234 0.32300
H17 H 0.05072 0.02410 0.44325
H18 H 0.09418 0.05609 0.40635
Cl2 Cl 0.00000 0.50000 0.11978(5)
N1A N 0.01980(4) 0.28016(15) 0.43765(12)
H1A H 0.0100(7) 0.240(3) 0.493(2)
N2A N -0.04360(3) 0.44322(13) 0.35009(12)
H2A H -0.0352(7) 0.467(3) 0.2897(19)
C1A C -0.00232(4) 0.23194(17) 0.34277(15)
H3A H -0.00229 0.12650 0.33988
H4A H 0.01031 0.26794 0.27713
C2A C -0.04357(4) 0.28533(16) 0.34726(16)
H5A H -0.05798 0.25160 0.28377
H6A H -0.05654 0.24751 0.41181
C3A C -0.08320(5) 0.50372(15) 0.36508(14)
H7A H -0.09152 0.48454 0.44022
C4A C -0.08278(4) 0.66535(16) 0.34788(15)
H8A H -0.07071 0.68406 0.27756
H9A H -0.10997 0.69793 0.34335
C5A C -0.06217(5) 0.75838(15) 0.43060(14)
C6A C -0.11327(5) 0.4385(2) 0.28966(16)
H10A H -0.10547 0.45535 0.21547
H11A H -0.13852 0.48269 0.30260
H12A H -0.11504 0.33570 0.30265
C7A C -0.07963(5) 0.74211(19) 0.54183(17)
H13A H -0.10720 0.76632 0.53941
H14A H -0.06634 0.80617 0.59158
H15A H -0.07658 0.64339 0.56596
C8A C -0.06705(5) 0.91582(18) 0.39781(15)
H16A H -0.05936 0.92766 0.32300
H17A H -0.05072 0.97590 0.44325
H18A H -0.09418 0.94391 0.40635
Cl1A Cl -0.04066(2) 0.40601(4) 0.59972(4)
#END
