
#######################################################################
#
#                 Cambridge Crystallographic Data Centre
#                                CCDC
#
#######################################################################
#
# If this CIF has been generated from an entry in the Cambridge
# Structural Database, then it will include bibliographic, chemical,
# crystal, experimental, refinement or atomic coordinate data resulting
# from the CCDC's data processing and validation procedures.
#
#######################################################################

data_CSD_CIF_TOXCEO
_audit_creation_date 1997-05-19
_audit_creation_method CSD-ConQuest-V1
_database_code_CSD TOXCEO
_chemical_formula_sum 'C10 H19 Cl2 Cr1 P2'
_chemical_formula_moiety
;
C10 H19 Cl2 Cr1 P2
;
_journal_coden_Cambridge 579
_journal_volume 15
_journal_year 1996
_journal_page_first 4211
_journal_name_full 'Organometallics '
loop_
_publ_author_name
"J.C.Fettinger"
"S.P.Mattamana"
"R.Poli"
"R.D.Rogers"
_chemical_name_systematic
;
(\h^5^-Cyclopentadienyl)-(1,2-bis(dimethylphosphino)methane)-dichloro-chromium
(iii)
;
_cell_volume    750.592
_exptl_crystal_colour 'blue'
_exptl_crystal_density_diffrn 1.434
_diffrn_ambient_temperature 153
#These two values have been output from a single CSD field.
_refine_ls_R_factor_gt 0.0505
_refine_ls_wR_factor_gt 0.0505
_symmetry_cell_setting triclinic
_symmetry_space_group_name_H-M 'P -1'
_symmetry_Int_Tables_number 2
loop_
_symmetry_equiv_pos_site_id
_symmetry_equiv_pos_as_xyz
1 x,y,z
2 -x,-y,-z
_cell_length_a 6.441(3)
_cell_length_b 9.995(3)
_cell_length_c 12.479(3)
_cell_angle_alpha 72.03(2)
_cell_angle_beta 83.41(3)
_cell_angle_gamma 79.82(3)
_cell_formula_units_Z 2
loop_
_atom_type_symbol
_atom_type_radius_bond
C 0.68
H 0.23
Cl 0.99
Cr 1.35
P 1.05
loop_
_atom_site_label
_atom_site_type_symbol
_atom_site_fract_x
_atom_site_fract_y
_atom_site_fract_z
Cr1 Cr 0.3677(2) 0.2403(1) 0.7198(1)
Cl1 Cl 0.5667(3) 0.1894(2) 0.8712(1)
Cl2 Cl 0.6260(3) 0.1987(2) 0.5862(1)
P1 P 0.3073(3) -0.0025(2) 0.7629(2)
P2 P 0.5360(3) -0.3151(2) 0.8251(2)
C1 C 0.0729(11) 0.3479(8) 0.7860(6)
C2 C 0.0216(11) 0.3036(8) 0.6996(7)
C3 C 0.1323(12) 0.3752(8) 0.6005(7)
C4 C 0.2457(12) 0.4664(8) 0.6294(8)
C5 C 0.2101(11) 0.4481(7) 0.7438(7)
C6 C 0.1152(10) -0.0616(7) 0.8780(6)
C7 C 0.5483(10) -0.1241(7) 0.8052(6)
C8 C 0.2167(11) -0.0423(8) 0.6458(6)
C9 C 0.7471(12) -0.3954(8) 0.9210(6)
C10 C 0.6721(13) -0.3369(8) 0.6941(6)
H1 H 0.0224(11) 0.3151(8) 0.8627(6)
H2 H -0.0712(11) 0.2372(8) 0.7057(7)
H3 H 0.1310(12) 0.3641(8) 0.5277(7)
H4 H 0.3319(12) 0.5296(8) 0.5788(8)
H5 H 0.2684(11) 0.4952(7) 0.7860(7)
H6 H 0.1571(36) -0.0489(41) 0.9468(10)
H7 H 0.1082(49) -0.1625(14) 0.8901(24)
H8 H -0.0239(16) -0.0056(31) 0.8594(16)
H9 H 0.5865(10) -0.1148(7) 0.8769(6)
H10 H 0.6633(10) -0.0945(7) 0.7474(6)
H11 H 0.2064(67) -0.1439(12) 0.6668(14)
H12 H 0.3173(38) -0.0181(44) 0.5802(12)
H13 H 0.0775(33) 0.0135(36) 0.6271(25)
H14 H 0.7709(53) -0.4987(9) 0.9348(32)
H15 H 0.7068(34) -0.3737(44) 0.9927(16)
H16 H 0.8772(23) -0.3569(38) 0.8872(19)
H17 H 0.5819(33) -0.2873(43) 0.6314(8)
H18 H 0.7034(66) -0.4383(9) 0.6997(16)
H19 H 0.8044(38) -0.2969(45) 0.6808(21)
#END
