
#######################################################################
#
#                 Cambridge Crystallographic Data Centre
#                                CCDC
#
#######################################################################
#
# If this CIF has been generated from an entry in the Cambridge
# Structural Database, then it will include bibliographic, chemical,
# crystal, experimental, refinement or atomic coordinate data resulting
# from the CCDC's data processing and validation procedures.
#
#######################################################################

data_CSD_CIF_TRGLCP
_audit_creation_date 1978-05-18
_audit_creation_method CSD-ConQuest-V1
_database_code_CSD TRGLCP
_chemical_formula_sum 'C8 H28 Co1 I2 N5 O5'
_chemical_formula_moiety
;
C8 H22 Co1 N5 O2 2+,2(I1 1-),3(H2 O1)
;
_journal_coden_Cambridge 9
_journal_volume 16
_journal_year 1977
_journal_page_first 3233
_journal_name_full 'Inorg.Chem. '
loop_
_publ_author_name
"B.F.Anderson"
"J.D.Bell"
"D.A.Buckingham"
"P.J.Cresswell"
"G.J.Gainsford"
"L.G.Marzilli"
"G.B.Robertson"
"A.M.Sargeson"
_chemical_name_systematic
;
(R,R,S,S)-(Triethylenetetramine)-glycinato-cobalt(iii) iodide trihydrate
;
_cell_volume    949.312
_exptl_crystal_density_diffrn 2.054
_diffrn_ambient_temperature ?
_diffrn_special_details
;
The study was carried out at room temperature,in the range 283-303K

;
#These two values have been output from a single CSD field.
_refine_ls_R_factor_gt 0.026
_refine_ls_wR_factor_gt 0.026
_symmetry_cell_setting triclinic
_symmetry_space_group_name_H-M 'P -1'
_symmetry_Int_Tables_number 2
loop_
_symmetry_equiv_pos_site_id
_symmetry_equiv_pos_as_xyz
1 x,y,z
2 -x,-y,-z
_cell_length_a 7.704(1)
_cell_length_b 8.928(1)
_cell_length_c 14.791(1)
_cell_angle_alpha 96.863(6)
_cell_angle_beta 94.535(8)
_cell_angle_gamma 108.690(9)
_cell_formula_units_Z 2
loop_
_atom_type_symbol
_atom_type_radius_bond
C 0.68
H 0.23
Co 1.33
I 1.40
N 0.68
O 0.68
loop_
_atom_site_label
_atom_site_type_symbol
_atom_site_fract_x
_atom_site_fract_y
_atom_site_fract_z
I1 I -0.27580 -0.19590 0.33620
I2 I 0.13700 -0.49470 0.31180
Co1 Co -0.49720 0.19160 0.24970
O1 O -0.21640 0.15920 0.04470
O2 O -0.40220 0.10200 0.15090
O3 O 0.39820 -0.42830 0.11840
O4 O 0.11010 0.35960 -0.00240
O5 O -0.34810 -0.19100 0.03330
N1 N -0.28090 0.19670 0.33060
N2 N -0.58020 0.27420 0.36020
N3 N -0.64090 -0.02370 0.26880
N4 N -0.71570 0.18180 0.16820
N5 N -0.36110 0.40010 0.21610
C1 C -0.29540 0.24570 0.42890
C2 C -0.41850 0.34730 0.43200
C3 C -0.73480 0.14270 0.38730
C4 C -0.71050 -0.01690 0.36010
C5 C -0.78650 -0.09450 0.18850
C6 C -0.86950 0.02840 0.16600
C7 C -0.28440 0.37430 0.12960
C8 C -0.29790 0.20150 0.10530
H1 H -0.18300 0.26400 0.31500
H2 H -0.27100 0.10200 0.32400
H3 H -0.17700 0.30600 0.46100
H4 H -0.34800 0.15400 0.45700
H5 H -0.35100 0.45200 0.42100
H6 H -0.45400 0.35400 0.49100
H7 H -0.62500 0.34900 0.35100
H8 H -0.84900 0.14200 0.35800
H9 H -0.73500 0.16100 0.45200
H10 H -0.82600 -0.09900 0.35700
H11 H -0.62400 -0.03100 0.40500
H12 H -0.57500 -0.08600 0.27100
H13 H -0.88000 -0.18500 0.20300
H14 H -0.73300 -0.12800 0.13700
H15 H -0.94900 0.04200 0.21000
H16 H -0.93800 -0.00400 0.10700
H17 H -0.68600 0.19000 0.11300
H18 H -0.75300 0.26100 0.18800
H19 H -0.27100 0.45300 0.26000
H20 H -0.43500 0.45500 0.20900
H21 H -0.15800 0.44000 0.13600
H22 H -0.35200 0.40300 0.08200
#END
