
#######################################################################
#
#                 Cambridge Crystallographic Data Centre
#                                CCDC
#
#######################################################################
#
# If this CIF has been generated from an entry in the Cambridge
# Structural Database, then it will include bibliographic, chemical,
# crystal, experimental, refinement or atomic coordinate data resulting
# from the CCDC's data processing and validation procedures.
#
#######################################################################

data_CSD_CIF_TTACOP01
_audit_creation_date 2003-07-25
_audit_creation_method CSD-ConQuest-V1
_database_code_CSD TTACOP01
_database_code_depnum_ccdc_archive 'CCDC 176344'
_chemical_formula_sum 'C26 H18 Co1 F6 N2 O4 S2'
_chemical_formula_moiety
;
C26 H18 Co1 F6 N2 O4 S2
;
_journal_coden_Cambridge 702
_journal_volume 18
_journal_year 2002
_journal_page_first 723
_journal_name_full 'Wuji Huaxue Xuebao(Chin.)(Chin.J.Inorg.Chem.) '
loop_
_publ_author_name
"Yun-Long Feng"
_chemical_name_systematic
;
bis(2-Thenoyl-trifluoroacetonato)-bis(pyridine)-cobalt(ii)
;
_cell_volume    715.424
_exptl_crystal_density_diffrn 1.531
_diffrn_ambient_temperature 293
#These two values have been output from a single CSD field.
_refine_ls_R_factor_gt 0.0596
_refine_ls_wR_factor_gt 0.0596
_symmetry_cell_setting triclinic
_symmetry_space_group_name_H-M 'P -1'
_symmetry_Int_Tables_number 2
loop_
_symmetry_equiv_pos_site_id
_symmetry_equiv_pos_as_xyz
1 x,y,z
2 -x,-y,-z
_cell_length_a 9.6777(19)
_cell_length_b 10.278(2)
_cell_length_c 9.6344(19)
_cell_angle_alpha 66.69(3)
_cell_angle_beta 99.05(3)
_cell_angle_gamma 63.08(3)
_cell_formula_units_Z 1
loop_
_atom_type_symbol
_atom_type_radius_bond
C 0.68
H 0.23
Co 1.33
F 0.64
N 0.68
O 0.68
S 1.02
loop_
_atom_site_label
_atom_site_type_symbol
_atom_site_fract_x
_atom_site_fract_y
_atom_site_fract_z
Co1 Co 0.00000 0.00000 0.00000
S1 S -0.19218(13) 0.51220(12) -0.50913(12)
F1 F -0.6165(4) 0.4109(3) -0.0516(4)
F2 F -0.4129(5) 0.2164(5) 0.1799(4)
F3 F -0.5277(4) 0.1486(4) 0.0387(4)
O1 O -0.1292(3) 0.2306(3) -0.2192(2)
O2 O -0.2218(3) 0.0713(3) 0.0306(3)
N1 N 0.0483(3) 0.1183(3) 0.1261(3)
C1 C -0.2695(3) 0.3635(3) -0.2619(3)
C2 C -0.3790(4) 0.3706(4) -0.1795(4)
H1 H -0.48000 0.48040 -0.21850
C3 C -0.3473(4) 0.2273(4) -0.0457(3)
C4 C -0.4771(5) 0.2528(4) 0.0289(4)
C5 C -0.3210(3) 0.5238(4) -0.4082(3)
C6 C -0.4754(4) 0.7033(3) -0.4829(3)
H2 H -0.56620 0.73940 -0.44770
C7 C -0.4536(6) 0.8088(5) -0.6212(5)
H3 H -0.53430 0.93130 -0.69060
C8 C -0.3151(5) 0.7244(5) -0.6444(4)
H4 H -0.28910 0.78100 -0.73160
C9 C 0.0235(8) 0.0937(7) 0.2607(6)
H5 H -0.01870 0.02430 0.30120
C10 C 0.0512(11) 0.1692(11) 0.3462(7)
H6 H 0.02790 0.15120 0.44300
C11 C 0.1175(8) 0.2601(8) 0.2949(8)
H7 H 0.14410 0.30630 0.35590
C12 C 0.1426(5) 0.2895(6) 0.1544(6)
H8 H 0.18410 0.35920 0.11200
C13 C 0.1076(4) 0.2147(4) 0.0734(5)
H9 H 0.12630 0.23410 -0.02580
O1A O 0.1292(3) -0.2306(3) 0.2192(2)
C1A C 0.2695(3) -0.3635(3) 0.2619(3)
C2A C 0.3790(4) -0.3706(4) 0.1795(4)
H1A H 0.48000 -0.48040 0.21850
C3A C 0.3473(4) -0.2273(4) 0.0457(3)
O2A O 0.2218(3) -0.0713(3) -0.0306(3)
N1A N -0.0483(3) -0.1183(3) -0.1261(3)
C9A C -0.0235(8) -0.0937(7) -0.2607(6)
H5A H 0.01870 -0.02430 -0.30120
C10A C -0.0512(11) -0.1692(11) -0.3462(7)
H6A H -0.02790 -0.15120 -0.44300
C11A C -0.1175(8) -0.2601(8) -0.2949(8)
H7A H -0.14410 -0.30630 -0.35590
C12A C -0.1426(5) -0.2895(6) -0.1544(6)
H8A H -0.18410 -0.35920 -0.11200
C13A C -0.1076(4) -0.2147(4) -0.0734(5)
H9A H -0.12630 -0.23410 0.02580
C4A C 0.4771(5) -0.2528(4) -0.0289(4)
F1A F 0.6165(4) -0.4109(3) 0.0516(4)
F2A F 0.4129(5) -0.2164(5) -0.1799(4)
F3A F 0.5277(4) -0.1486(4) -0.0387(4)
C5A C 0.3210(3) -0.5238(4) 0.4082(3)
S1A S 0.19218(13) -0.51220(12) 0.50913(12)
C8A C 0.3151(5) -0.7244(5) 0.6444(4)
C7A C 0.4536(6) -0.8088(5) 0.6212(5)
C6A C 0.4754(4) -0.7033(3) 0.4829(3)
H2A H 0.56620 -0.73940 0.44770
H3A H 0.53430 -0.93130 0.69060
H4A H 0.28910 -0.78100 0.73160
#END
