
#######################################################################
#
#                 Cambridge Crystallographic Data Centre
#                                CCDC
#
#######################################################################
#
# If this CIF has been generated from an entry in the Cambridge
# Structural Database, then it will include bibliographic, chemical,
# crystal, experimental, refinement or atomic coordinate data resulting
# from the CCDC's data processing and validation procedures.
#
#######################################################################

data_CSD_CIF_TUDJEH
_audit_creation_date 1997-05-29
_audit_creation_method CSD-ConQuest-V1
_database_code_CSD TUDJEH
_database_code_depnum_ccdc_archive 'CCDC 128558'
_chemical_formula_sum 'C10 H10 Cl3 Mn1 N2 O1'
_chemical_formula_moiety
;
C10 H10 Cl3 Mn1 N2 O1
;
_journal_coeditor_code "IUCr AV1000"
_journal_coden_Cambridge 591
_journal_volume 53
_journal_year 1997
_journal_page_first 430
_journal_name_full 'Acta Crystallogr.,Sect.C:Cryst.Struct.Commun. '
loop_
_publ_author_name
"A.Tesouro"
"M.Corbella"
"H.Stoeckli-Evans"
_chemical_name_systematic
;
Aqua-(2,2'-bipyridyl-N,N')-trichloro-manganese(iii)
;
_cell_volume    630.766
_exptl_crystal_colour 'reddish-brown'
_exptl_crystal_density_diffrn 1.766
_diffrn_ambient_temperature ?
_diffrn_special_details
;
The study was carried out at room temperature,in the range 283-303K

;
#These two values have been output from a single CSD field.
_refine_ls_R_factor_gt 0.0691
_refine_ls_wR_factor_gt 0.0691
_symmetry_cell_setting triclinic
_symmetry_space_group_name_H-M 'P -1'
_symmetry_Int_Tables_number 2
loop_
_symmetry_equiv_pos_site_id
_symmetry_equiv_pos_as_xyz
1 x,y,z
2 -x,-y,-z
_cell_length_a 6.641(1)
_cell_length_b 10.005(2)
_cell_length_c 10.114(3)
_cell_angle_alpha 84.42(2)
_cell_angle_beta 73.52(1)
_cell_angle_gamma 78.45(1)
_cell_formula_units_Z 2
loop_
_atom_type_symbol
_atom_type_radius_bond
C 0.68
H 0.23
Cl 0.99
Mn 1.35
N 0.68
O 0.68
loop_
_atom_site_label
_atom_site_type_symbol
_atom_site_fract_x
_atom_site_fract_y
_atom_site_fract_z
Mn1 Mn 0.2066(2) 0.17376(11) 0.22617(12)
Cl1 Cl -0.1878(3) 0.2582(2) 0.3225(2)
Cl2 Cl 0.1873(3) 0.1381(2) 0.0137(2)
Cl3 Cl 0.2102(4) -0.0431(2) 0.2939(3)
N1 N 0.2508(8) 0.2275(6) 0.4063(6)
N2 N 0.2331(9) 0.3761(6) 0.1818(7)
O1 O 0.5711(9) 0.1393(7) 0.1479(8)
C1 C 0.2585(10) 0.3625(8) 0.4116(8)
C2 C 0.2738(12) 0.4123(11) 0.5302(9)
H1 H 0.2771(12) 0.5043(11) 0.5340(9)
C3 C 0.2842(13) 0.3262(12) 0.6416(9)
H2 H 0.2939(13) 0.3592(12) 0.7221(9)
C4 C 0.2803(14) 0.1905(11) 0.6347(9)
H3 H 0.2911(14) 0.1304(11) 0.7095(9)
C5 C 0.2604(13) 0.1442(10) 0.5166(8)
H4 H 0.2536(13) 0.0527(10) 0.5132(8)
C6 C 0.2531(10) 0.4432(8) 0.2856(8)
C7 C 0.2619(12) 0.5810(9) 0.2677(9)
H5 H 0.2729(12) 0.6278(9) 0.3397(9)
C8 C 0.2545(13) 0.6499(9) 0.1424(11)
H6 H 0.2629(13) 0.7422(9) 0.1295(11)
C9 C 0.2348(12) 0.5809(8) 0.0396(9)
H7 H 0.2285(12) 0.6252(8) -0.0447(9)
C10 C 0.2244(11) 0.4464(8) 0.0609(8)
H8 H 0.2107(11) 0.4000(8) -0.0104(8)
H9 H 0.635(10) 0.1496(64) 0.1998(67)
H10 H 0.638(14) 0.0775(94) 0.1083(93)
#END
