
#######################################################################
#
#                 Cambridge Crystallographic Data Centre
#                                CCDC
#
#######################################################################
#
# If this CIF has been generated from an entry in the Cambridge
# Structural Database, then it will include bibliographic, chemical,
# crystal, experimental, refinement or atomic coordinate data resulting
# from the CCDC's data processing and validation procedures.
#
#######################################################################

data_CSD_CIF_TUKQOF
_audit_creation_date 1997-06-19
_audit_creation_method CSD-ConQuest-V1
_database_code_CSD TUKQOF
_chemical_formula_sum 'C12 H14 Mn1 N4 O12'
_chemical_formula_moiety
;
C12 H10 Mn1 N4 O10,2(H2 O1)
;
_journal_coden_Cambridge 580
_journal_volume 15
_journal_year 1996
_journal_page_first 4283
_journal_name_full 'Polyhedron '
loop_
_publ_author_name
"A.El Gueddi"
"S.Guesmi"
"B.Mernari"
"H.Stoeckli-Evans"
"J.Ribas"
"R.Vicente"
"M.Lagrenee"
_chemical_name_systematic
;
bis(3,6-Dicarboxypyridazine)-diaqua-manganese(ii) dihydrate
;
_cell_volume    428.658
_exptl_crystal_colour 'pale yellow'
_exptl_crystal_density_diffrn 1.787
_diffrn_ambient_temperature ?
_diffrn_special_details
;
The study was carried out at room temperature,in the range 283-303K

;
#These two values have been output from a single CSD field.
_refine_ls_R_factor_gt 0.0391
_refine_ls_wR_factor_gt 0.0391
_symmetry_cell_setting triclinic
_symmetry_space_group_name_H-M 'P -1'
_symmetry_Int_Tables_number 2
loop_
_symmetry_equiv_pos_site_id
_symmetry_equiv_pos_as_xyz
1 x,y,z
2 -x,-y,-z
_cell_length_a 6.465(4)
_cell_length_b 8.458(4)
_cell_length_c 8.639(5)
_cell_angle_alpha 68.51(3)
_cell_angle_beta 78.60(4)
_cell_angle_gamma 80.51(3)
_cell_formula_units_Z 1
loop_
_atom_type_symbol
_atom_type_radius_bond
C 0.68
H 0.23
Mn 1.35
N 0.68
O 0.68
loop_
_atom_site_label
_atom_site_type_symbol
_atom_site_fract_x
_atom_site_fract_y
_atom_site_fract_z
Mn1 Mn 0.00000 0.00000 0.50000
O1 O 0.2252(4) -0.0595(3) 0.3034(3)
O2 O 0.2520(3) 0.0608(2) 0.5913(2)
O3 O 0.4404(3) 0.2637(2) 0.5806(3)
O4 O -0.3528(3) 0.6011(3) 0.0416(3)
O5 O -0.1971(4) 0.8282(3) 0.0130(3)
N1 N 0.0236(3) 0.2876(3) 0.3638(3)
N2 N -0.1024(3) 0.3955(3) 0.2553(3)
C1 C -0.0684(4) 0.5593(3) 0.1912(3)
C2 C 0.0920(4) 0.6250(3) 0.2268(3)
C3 C 0.2195(4) 0.5135(3) 0.3380(3)
C4 C 0.1774(4) 0.3438(3) 0.4057(3)
C5 C 0.3028(4) 0.2115(3) 0.5364(3)
C6 C -0.2159(4) 0.6782(3) 0.0720(3)
O6 O 0.3982(5) -0.2281(3) 0.8372(3)
H1 H -0.4449(72) 0.6696(59) -0.0337(58)
H2 H 0.1174(45) 0.744(4) 0.1692(36)
H3 H 0.3234(48) 0.5513(42) 0.3657(38)
H4 H 0.3312(61) -0.1039(49) 0.3225(48)
H5 H 0.2394(60) 0.0079(57) 0.2090(55)
H6 H 0.3340(69) -0.2722(60) 0.8168(58)
H7 H 0.3729(65) -0.1296(57) 0.7688(54)
O1A O -0.2252(4) 0.0595(3) 0.6966(3)
H4A H -0.3312(61) 0.1039(49) 0.6775(48)
H5A H -0.2394(60) -0.0079(57) 0.7910(55)
O2A O -0.2520(3) -0.0608(2) 0.4087(2)
C5A C -0.3028(4) -0.2115(3) 0.4636(3)
O3A O -0.4404(3) -0.2637(2) 0.4194(3)
C4A C -0.1774(4) -0.3438(3) 0.5943(3)
N1A N -0.0236(3) -0.2876(3) 0.6362(3)
N2A N 0.1024(3) -0.3955(3) 0.7447(3)
C1A C 0.0684(4) -0.5593(3) 0.8088(3)
C2A C -0.0920(4) -0.6250(3) 0.7732(3)
C3A C -0.2195(4) -0.5135(3) 0.6620(3)
H3A H -0.3234(48) -0.5513(42) 0.6343(38)
H2A H -0.1174(45) -0.744(4) 0.8308(36)
C6A C 0.2159(4) -0.6782(3) 0.9280(3)
O4A O 0.3528(3) -0.6011(3) 0.9584(3)
H1A H 0.4449(72) -0.6696(59) 1.0337(58)
O5A O 0.1971(4) -0.8282(3) 0.9870(3)
#END
