
#######################################################################
#
#                 Cambridge Crystallographic Data Centre
#                                CCDC
#
#######################################################################
#
# If this CIF has been generated from an entry in the Cambridge
# Structural Database, then it will include bibliographic, chemical,
# crystal, experimental, refinement or atomic coordinate data resulting
# from the CCDC's data processing and validation procedures.
#
#######################################################################

data_CSD_CIF_TUNKAP
_audit_creation_date 2010-06-09
_audit_creation_method CSD-ConQuest-V1
_database_code_CSD TUNKAP
_database_code_depnum_ccdc_archive 'CCDC 719693'
_chemical_formula_sum 'C24 H28 Cl2 Fe1 N4 O2'
_chemical_formula_moiety
;
C24 H28 Cl2 Fe1 N4 O2
;
_journal_coden_Cambridge 1290
_journal_year 2009
_journal_page_first 3734
_journal_name_full 'Eur.J.Inorg.Chem. '
loop_
_publ_author_name
"N.Bouslimani"
"N.Clement"
"C.Toussaint"
"S.Hameury"
"P.Turek"
"S.Choua"
"S.Dagorne"
"D.Martel"
"R.Welter"
_chemical_name_systematic
;
trans-Dichloro-bis(N'-cyclopentylidenebenzohydrazide)-iron(ii)
;
_cell_volume    609.164
_exptl_crystal_colour 'orange'
_exptl_crystal_density_diffrn 1.445
_exptl_special_details
;
high-spin state

;
_exptl_crystal_description 'prism'
_diffrn_ambient_temperature 173
#These two values have been output from a single CSD field.
_refine_ls_R_factor_gt 0.0371
_refine_ls_wR_factor_gt 0.0371
_symmetry_cell_setting triclinic
_symmetry_space_group_name_H-M 'P -1'
_symmetry_Int_Tables_number 2
loop_
_symmetry_equiv_pos_site_id
_symmetry_equiv_pos_as_xyz
1 x,y,z
2 -x,-y,-z
_cell_length_a 6.981(5)
_cell_length_b 9.235(5)
_cell_length_c 10.309(5)
_cell_angle_alpha 110.71(5)
_cell_angle_beta 93.10(5)
_cell_angle_gamma 99.24(5)
_cell_formula_units_Z 1
loop_
_atom_type_symbol
_atom_type_radius_bond
C 0.68
H 0.23
Cl 0.99
Fe 1.52
N 0.68
O 0.68
loop_
_atom_site_label
_atom_site_type_symbol
_atom_site_fract_x
_atom_site_fract_y
_atom_site_fract_z
Fe1 Fe 0.00000 0.00000 0.50000
Cl1 Cl -0.16824(6) 0.08882(5) 0.33750(5)
O1 O -0.19759(18) -0.22349(15) 0.40487(13)
N1 N -0.3966(2) -0.12110(18) 0.56463(16)
H1 H -0.512(6) -0.114(5) 0.590(4)
N2 N -0.2473(2) 0.01289(17) 0.62456(16)
C1 C -0.3591(2) -0.2339(2) 0.44949(18)
C2 C -0.5145(3) -0.3756(2) 0.37720(19)
C3 C -0.4966(3) -0.4693(3) 0.2411(2)
H2 H -0.39150 -0.43870 0.19560
C4 C -0.6313(4) -0.6073(3) 0.1714(2)
H3 H -0.61980 -0.67030 0.07780
C5 C -0.7831(3) -0.6535(3) 0.2384(3)
H4 H -0.87370 -0.74940 0.19140
C6 C -0.8026(3) -0.5613(2) 0.3722(2)
H5 H -0.90750 -0.59310 0.41720
C7 C -0.6703(3) -0.4214(2) 0.4427(2)
H6 H -0.68570 -0.35710 0.53500
C8 C -0.2491(3) 0.0977(2) 0.75232(19)
C9 C -0.0967(3) 0.2453(2) 0.8255(2)
H7 H 0.03520 0.21990 0.83110
H8 H -0.09580 0.32010 0.77630
C10 C -0.1601(3) 0.3140(2) 0.9709(2)
H9 H -0.04590 0.37220 1.04180
H10 H -0.25210 0.38570 0.97300
C11 C -0.2600(3) 0.1678(3) 0.9958(2)
H11 H -0.16270 0.11190 1.02050
H12 H -0.34510 0.19610 1.07110
C12 C -0.3804(3) 0.0674(3) 0.8548(2)
H13 H -0.50600 0.10190 0.84580
H14 H -0.40700 -0.04570 0.84190
Cl1A Cl 0.16824(6) -0.08882(5) 0.66250(5)
O1A O 0.19759(18) 0.22349(15) 0.59513(13)
N1A N 0.3966(2) 0.12110(18) 0.43537(16)
H1A H 0.512(6) 0.114(5) 0.410(4)
N2A N 0.2473(2) -0.01289(17) 0.37544(16)
C1A C 0.3591(2) 0.2339(2) 0.55051(18)
C2A C 0.5145(3) 0.3756(2) 0.62280(19)
C3A C 0.4966(3) 0.4693(3) 0.7589(2)
H2A H 0.39150 0.43870 0.80440
C4A C 0.6313(4) 0.6073(3) 0.8286(2)
H3A H 0.61980 0.67030 0.92220
C5A C 0.7831(3) 0.6535(3) 0.7616(3)
H4A H 0.87370 0.74940 0.80860
C6A C 0.8026(3) 0.5613(2) 0.6278(2)
H5A H 0.90750 0.59310 0.58280
C7A C 0.6703(3) 0.4214(2) 0.5573(2)
H6A H 0.68570 0.35710 0.46500
C8A C 0.2491(3) -0.0977(2) 0.24768(19)
C9A C 0.0967(3) -0.2453(2) 0.1745(2)
H7A H -0.03520 -0.21990 0.16890
H8A H 0.09580 -0.32010 0.22370
C10A C 0.1601(3) -0.3140(2) 0.0291(2)
H9A H 0.04590 -0.37220 -0.04180
H10A H 0.25210 -0.38570 0.02700
C11A C 0.2600(3) -0.1678(3) 0.0042(2)
H11A H 0.16270 -0.11190 -0.02050
H12A H 0.34510 -0.19610 -0.07110
C12A C 0.3804(3) -0.0674(3) 0.1452(2)
H13A H 0.50600 -0.10190 0.15420
H14A H 0.40700 0.04570 0.15810
#END
