
#######################################################################
#
#                 Cambridge Crystallographic Data Centre
#                                CCDC
#
#######################################################################
#
# If this CIF has been generated from an entry in the Cambridge
# Structural Database, then it will include bibliographic, chemical,
# crystal, experimental, refinement or atomic coordinate data resulting
# from the CCDC's data processing and validation procedures.
#
#######################################################################

data_CSD_CIF_TUSQIJ
_audit_creation_date 2015-10-01
_audit_creation_method CSD-ConQuest-V1
_database_code_CSD TUSQIJ
_database_code_depnum_ccdc_archive 'CCDC 1413849'
_chemical_formula_sum 'C15 H8 Br1 Mn1 N2 O3'
_chemical_formula_moiety
;
C15 H8 Br1 Mn1 N2 O3
;
_journal_coden_Cambridge 1290
_journal_year 2015
_journal_page_first 5021
_journal_name_full 'Eur.J.Inorg.Chem. '
loop_
_publ_author_name
"J.Jimenez"
"I.Chakraborty"
"P.K.Mascharak"
_chemical_name_systematic
;
Bromo-tricarbonyl-(1,10-phenanthroline)-manganese
;
_cell_volume   1439.247
_exptl_crystal_colour 'yellow'
_exptl_crystal_density_diffrn 1.842
_exptl_special_details
;
Light-sensitive

;
_exptl_crystal_description 'block'
_diffrn_ambient_temperature 296
#These two values have been output from a single CSD field.
_refine_ls_R_factor_gt 0.024
_refine_ls_wR_factor_gt 0.024
_symmetry_cell_setting monoclinic
_symmetry_space_group_name_H-M 'I 2/m'
_symmetry_Int_Tables_number 12
loop_
_symmetry_equiv_pos_site_id
_symmetry_equiv_pos_as_xyz
1 x,y,z
2 -x,y,-z
3 1/2+x,1/2+y,1/2+z
4 1/2-x,1/2+y,1/2-z
5 -x,-y,-z
6 x,-y,z
7 -1/2-x,-1/2-y,-1/2-z
8 -1/2+x,-1/2-y,-1/2+z
_cell_length_a 7.9775(6)
_cell_length_b 12.1132(9)
_cell_length_c 15.1968(10)
_cell_angle_alpha 90
_cell_angle_beta 101.458(3)
_cell_angle_gamma 90
_cell_formula_units_Z 4
loop_
_atom_type_symbol
_atom_type_radius_bond
C 0.68
H 0.23
Br 1.21
Mn 1.61
N 0.68
O 0.68
loop_
_atom_site_label
_atom_site_type_symbol
_atom_site_fract_x
_atom_site_fract_y
_atom_site_fract_z
Br1 Br 0.15285(5) 0.00000 0.20947(3)
Mn1 Mn 0.44371(6) 0.00000 0.31199(3)
O1 O 0.7723(4) 0.00000 0.4358(2)
O2 O 0.3310(3) 0.17463(19) 0.42199(15)
N1 N 0.5228(2) 0.10862(16) 0.22493(13)
C1 C 0.6558(5) 0.00000 0.3893(2)
C2 C 0.3723(3) 0.1068(2) 0.37890(16)
C3 C 0.5110(3) 0.2182(2) 0.22254(17)
H1 H 0.45900 0.25360 0.26440
C4 C 0.5731(3) 0.2819(2) 0.16002(19)
H2 H 0.56150 0.35830 0.16030
C5 C 0.6510(3) 0.2325(2) 0.09838(18)
H3 H 0.69470 0.27500 0.05720
C6 C 0.6648(3) 0.1172(2) 0.09747(16)
C7 C 0.7372(3) 0.0559(2) 0.03340(18)
H4 H 0.78500 0.09360 -0.00890
C8 C 0.5972(3) 0.0588(2) 0.16213(15)
N1E N 0.5228(2) -0.10862(16) 0.22493(13)
C3E C 0.5110(3) -0.2182(2) 0.22254(17)
H1E H 0.45900 -0.25360 0.26440
C4E C 0.5731(3) -0.2819(2) 0.16002(19)
H2E H 0.56150 -0.35830 0.16030
C5E C 0.6510(3) -0.2325(2) 0.09838(18)
H3E H 0.69470 -0.27500 0.05720
C6E C 0.6648(3) -0.1172(2) 0.09747(16)
C7E C 0.7372(3) -0.0559(2) 0.03340(18)
H4E H 0.78500 -0.09360 -0.00890
C8E C 0.5972(3) -0.0588(2) 0.16213(15)
O2E O 0.3310(3) -0.17463(19) 0.42199(15)
C2E C 0.3723(3) -0.1068(2) 0.37890(16)
#END
