
#######################################################################
#
#                 Cambridge Crystallographic Data Centre
#                                CCDC
#
#######################################################################
#
# If this CIF has been generated from an entry in the Cambridge
# Structural Database, then it will include bibliographic, chemical,
# crystal, experimental, refinement or atomic coordinate data resulting
# from the CCDC's data processing and validation procedures.
#
#######################################################################

data_CSD_CIF_TUWHAV
_audit_creation_date 2010-07-15
_audit_creation_method CSD-ConQuest-V1
_database_code_CSD TUWHAV
_database_code_depnum_ccdc_archive 'CCDC 782731'
_chemical_formula_sum 'C10 H22 B1 F4 Mn1 O8'
_chemical_formula_moiety
;
C10 H18 Mn1 O6 1+,B1 F4 1-,2(H2 O1)
;
_journal_coeditor_code "IUCr ZB5009"
_journal_coden_Cambridge 622
_journal_volume 66
_journal_year 2010
_journal_page_first 373
_journal_name_full 'Acta Crystallogr.,Sect.B:Struct.Sci. '
loop_
_publ_author_name
"A.R.Biju"
"M.V.Rajasekharan"
_chemical_name_systematic
;
Diaqua-bis(acetylacetonato)-manganese(iii) tetrafluoroborate dihydrate
;
_cell_volume    865.487
_exptl_crystal_colour 'green'
_exptl_crystal_density_diffrn 1.581
_exptl_crystal_description 'block'
_diffrn_ambient_temperature 100
_refine_special_details
;
B,F3,F3 disordered by symmetry over two sites with occupancy 0.50.

;
#These two values have been output from a single CSD field.
_refine_ls_R_factor_gt 0.0544
_refine_ls_wR_factor_gt 0.0544
_symmetry_cell_setting monoclinic
_symmetry_space_group_name_H-M 'C 2/m'
_symmetry_Int_Tables_number 12
loop_
_symmetry_equiv_pos_site_id
_symmetry_equiv_pos_as_xyz
1 x,y,z
2 -x,y,-z
3 1/2+x,1/2+y,z
4 1/2-x,1/2+y,-z
5 -x,-y,-z
6 x,-y,z
7 -1/2-x,-1/2-y,-z
8 -1/2+x,-1/2-y,z
_cell_length_a 7.5897(6)
_cell_length_b 11.8987(10)
_cell_length_c 10.2350(8)
_cell_angle_alpha 90
_cell_angle_beta 110.549(1)
_cell_angle_gamma 90
_cell_formula_units_Z 2
loop_
_atom_type_symbol
_atom_type_radius_bond
C 0.68
H 0.23
B 0.83
F 0.64
Mn 1.61
O 0.68
loop_
_atom_site_label
_atom_site_type_symbol
_atom_site_fract_x
_atom_site_fract_y
_atom_site_fract_z
O1 O 0.50000 0.3486(3) 0.00000
H1 H 0.53240 0.29630 -0.03360
Mn1 Mn 0.50000 0.00000 0.00000
O2 O 0.5266(3) -0.11587(18) -0.1210(2)
O3 O 0.8115(4) 0.00000 0.1068(3)
H2 H 0.87630 0.00000 0.06230
H3 H 0.86920 0.00000 0.19340
C1 C 0.6051(5) -0.2101(3) -0.2949(4)
H4 H 0.48350 -0.24840 -0.33460
H5 H 0.65410 -0.19300 -0.36940
H6 H 0.69400 -0.25900 -0.22560
C2 C 0.5802(4) -0.1034(3) -0.2264(3)
C3 C 0.6124(7) 0.00000 -0.2779(5)
H7 H 0.65930 0.00000 -0.35260
F1? F -0.0458(12) 0.00000 0.3818(4)
F2? F 0.1672(7) -0.0949(4) 0.5095(5)
B1? B 0.0602(17) 0.00000 0.5071(13)
H1A H 0.46760 0.29630 0.03360
O2E O 0.5266(3) 0.11587(18) -0.1210(2)
O2A O 0.4734(3) -0.11587(18) 0.1210(2)
O2D O 0.4734(3) 0.11587(18) 0.1210(2)
O3A O 0.1885(4) 0.00000 -0.1068(3)
H2A H 0.12370 0.00000 -0.06230
H3A H 0.13080 0.00000 -0.19340
C1A C 0.3949(5) -0.2101(3) 0.2949(4)
C1D C 0.3949(5) 0.2101(3) 0.2949(4)
C1E C 0.6051(5) 0.2101(3) -0.2949(4)
H4A H 0.51650 -0.24840 0.33460
H4D H 0.51650 0.24840 0.33460
H4E H 0.48350 0.24840 -0.33460
H5A H 0.34590 -0.19300 0.36940
H5D H 0.34590 0.19300 0.36940
H5E H 0.65410 0.19300 -0.36940
H6A H 0.30600 -0.25900 0.22560
H6D H 0.30600 0.25900 0.22560
H6E H 0.69400 0.25900 -0.22560
C2E C 0.5802(4) 0.1034(3) -0.2264(3)
C2A C 0.4198(4) -0.1034(3) 0.2264(3)
C2D C 0.4198(4) 0.1034(3) 0.2264(3)
C3A C 0.3876(7) 0.00000 0.2779(5)
H7A H 0.34070 0.00000 0.35260
#END
