
#######################################################################
#
#                 Cambridge Crystallographic Data Centre
#                                CCDC
#
#######################################################################
#
# If this CIF has been generated from an entry in the Cambridge
# Structural Database, then it will include bibliographic, chemical,
# crystal, experimental, refinement or atomic coordinate data resulting
# from the CCDC's data processing and validation procedures.
#
#######################################################################

data_CSD_CIF_TUYPUA
_audit_creation_date 2015-10-02
_audit_creation_method CSD-ConQuest-V1
_database_code_CSD TUYPUA
_database_code_depnum_ccdc_archive 'CCDC 846692'
_chemical_formula_sum 'C28 H36 Fe1 N12 O6'
_chemical_formula_moiety
;
C28 H36 Fe1 N12 O6
;
_journal_coden_Cambridge 923
_journal_volume 46
_journal_year 2016
_journal_page_first 206
_journal_name_full 'Synth.React.Inorg.,Met.-Org.,Nano-Met.Chem. '
loop_
_publ_author_name
"Xiaoling Wang"
"Guilin Wen"
"Fengwu Wang"
"Yonghong Chen"
"Xing Zhao"
"Xia Bao"
_chemical_name_systematic
;
diaqua-bis(cyanocyanamidato)-bis(4,4,5,5-tetramethyl-2-(pyridin-4-yl)-4,5-dihy
dro-1H-3-imidazole-1,3-diol)-iron(ii)
;
_cell_volume    805.956
_exptl_crystal_colour 'blue'
_exptl_crystal_density_diffrn 1.427
_exptl_crystal_description 'prism'
_diffrn_ambient_temperature 113
#These two values have been output from a single CSD field.
_refine_ls_R_factor_gt 0.0599
_refine_ls_wR_factor_gt 0.0599
_symmetry_cell_setting triclinic
_symmetry_space_group_name_H-M 'P -1'
_symmetry_Int_Tables_number 2
loop_
_symmetry_equiv_pos_site_id
_symmetry_equiv_pos_as_xyz
1 x,y,z
2 -x,-y,-z
_cell_length_a 7.1669(15)
_cell_length_b 9.6417(17)
_cell_length_c 12.978(3)
_cell_angle_alpha 71.583(7)
_cell_angle_beta 89.058(11)
_cell_angle_gamma 72.004(9)
_cell_formula_units_Z 1
loop_
_atom_type_symbol
_atom_type_radius_bond
C 0.68
H 0.23
Fe 1.52
N 0.68
O 0.68
loop_
_atom_site_label
_atom_site_type_symbol
_atom_site_fract_x
_atom_site_fract_y
_atom_site_fract_z
Fe1 Fe 1.00000 1.00000 0.00000
N1 N 0.9115(3) 0.9228(2) 0.16723(16)
N2 N 0.5733(3) 0.7542(2) 0.51753(15)
N3 N 0.8871(3) 0.6563(2) 0.57855(16)
N4 N 0.6999(3) 1.1445(2) -0.05270(17)
N5 N 0.3777(3) 1.2972(2) -0.0158(2)
N6 N 0.2440(3) 1.5790(3) -0.0560(2)
O1 O 0.9391(3) 0.8254(2) -0.04262(15)
O2 O 0.4144(2) 0.8284(2) 0.45497(14)
O3 O 1.0742(3) 0.6050(2) 0.58047(15)
C1 C 0.7438(3) 0.8888(3) 0.18438(19)
H1 H 0.65780 0.90890 0.12270
C2 C 0.6887(3) 0.8261(3) 0.28674(19)
H2 H 0.56830 0.80340 0.29470
C3 C 0.8130(3) 0.7966(3) 0.37833(19)
C4 C 0.9874(3) 0.8333(3) 0.36179(19)
H3 H 1.07520 0.81580 0.42200
C5 C 1.0303(3) 0.8957(3) 0.25561(19)
H4 H 1.14910 0.92050 0.24490
C6 C 0.7587(3) 0.7354(3) 0.48799(19)
C7 C 0.7822(4) 0.6474(3) 0.68034(19)
C8 C 0.5731(3) 0.6654(3) 0.63660(19)
C9 C 0.7922(4) 0.7843(3) 0.7132(2)
H5 H 0.93020 0.77490 0.72710
H6 H 0.72460 0.78500 0.77940
H7 H 0.72800 0.88060 0.65400
C10 C 0.8849(4) 0.4969(3) 0.7695(2)
H8 H 0.89700 0.41050 0.74270
H9 H 0.80770 0.48740 0.83290
H10 H 1.01630 0.49550 0.79060
C11 C 0.4039(4) 0.7565(3) 0.6846(2)
H11 H 0.41050 0.86100 0.67000
H12 H 0.41300 0.70520 0.76350
H13 H 0.27870 0.76240 0.65130
C12 C 0.5472(4) 0.5130(3) 0.6401(2)
H14 H 0.42120 0.53330 0.60050
H15 H 0.54890 0.44980 0.71610
H16 H 0.65500 0.45790 0.60580
C13 C 0.5532(3) 1.2247(3) -0.03759(19)
C14 C 0.3167(3) 1.4480(3) -0.0397(2)
H17 H 1.034(4) 0.751(3) -0.049(3)
H18 H 0.841(4) 0.797(4) -0.020(3)
N1A N 1.0885(3) 1.0772(2) -0.16723(16)
N2A N 1.4267(3) 1.2458(2) -0.51753(15)
N3A N 1.1129(3) 1.3437(2) -0.57855(16)
N4A N 1.3001(3) 0.8555(2) 0.05270(17)
N5A N 1.6223(3) 0.7028(2) 0.0158(2)
N6A N 1.7560(3) 0.4210(3) 0.0560(2)
O1A O 1.0609(3) 1.1746(2) 0.04262(15)
O2A O 1.5856(2) 1.1716(2) -0.45497(14)
O3A O 0.9258(3) 1.3950(2) -0.58047(15)
C1A C 1.2562(3) 1.1112(3) -0.18438(19)
H1A H 1.34220 1.09110 -0.12270
C2A C 1.3113(3) 1.1739(3) -0.28674(19)
H2A H 1.43170 1.19660 -0.29470
C3A C 1.1870(3) 1.2034(3) -0.37833(19)
C4A C 1.0126(3) 1.1667(3) -0.36179(19)
H3A H 0.92480 1.18420 -0.42200
C5A C 0.9697(3) 1.1043(3) -0.25561(19)
H4A H 0.85090 1.07950 -0.24490
C6A C 1.2413(3) 1.2646(3) -0.48799(19)
C7A C 1.2178(4) 1.3526(3) -0.68034(19)
C8A C 1.4269(3) 1.3346(3) -0.63660(19)
C9A C 1.2078(4) 1.2157(3) -0.7132(2)
H5A H 1.06980 1.22510 -0.72710
H6A H 1.27540 1.21500 -0.77940
H7A H 1.27200 1.11940 -0.65400
C10A C 1.1151(4) 1.5031(3) -0.7695(2)
H8A H 1.10300 1.58950 -0.74270
H9A H 1.19230 1.51260 -0.83290
H10A H 0.98370 1.50450 -0.79060
C11A C 1.5961(4) 1.2435(3) -0.6846(2)
H11A H 1.58950 1.13900 -0.67000
H12A H 1.58700 1.29480 -0.76350
H13A H 1.72130 1.23760 -0.65130
C12A C 1.4528(4) 1.4870(3) -0.6401(2)
H14A H 1.57880 1.46670 -0.60050
H15A H 1.45110 1.55020 -0.71610
H16A H 1.34500 1.54210 -0.60580
C13A C 1.4468(3) 0.7753(3) 0.03759(19)
C14A C 1.6833(3) 0.5520(3) 0.0397(2)
H17A H 0.966(4) 1.249(3) 0.049(3)
H18A H 1.159(4) 1.203(4) 0.020(3)
#END
