
#######################################################################
#
#                 Cambridge Crystallographic Data Centre
#                                CCDC
#
#######################################################################
#
# If this CIF has been generated from an entry in the Cambridge
# Structural Database, then it will include bibliographic, chemical,
# crystal, experimental, refinement or atomic coordinate data resulting
# from the CCDC's data processing and validation procedures.
#
#######################################################################

data_CSD_CIF_UCAREY
_audit_creation_date 2016-12-19
_audit_creation_method CSD-ConQuest-V1
_database_code_CSD UCAREY
_database_code_depnum_ccdc_archive 'CCDC 1511753'
_chemical_formula_sum 'C36 H24 Cl2 Co1 N4 O4'
_chemical_formula_moiety
;
C36 H24 Cl2 Co1 N4 O4
;
_journal_coden_Cambridge 1747
_journal_volume 4
_journal_year 2017
_journal_page_first 296
_journal_name_full 'Inorg.Chem.Front. '
loop_
_publ_author_name
"J.I.Lovitt"
"C.S.Hawes"
"A.D.Lynes"
"B.Haffner"
"M.E.Mobius"
"T.Gunnlaugsson"
_chemical_name_systematic
;
dichloro-bis(2-((pyridin-2-yl)methyl)-1H-benzo[de]isoquinoline-1,3(2H)-dione)-
cobalt(ii)
;
_cell_volume    733.144
_exptl_crystal_colour 'pink'
_exptl_crystal_density_diffrn 1.6
_exptl_crystal_description 'block'
_diffrn_ambient_temperature 100
#These two values have been output from a single CSD field.
_refine_ls_R_factor_gt 0.0466
_refine_ls_wR_factor_gt 0.0466
_symmetry_cell_setting triclinic
_symmetry_space_group_name_H-M 'P -1'
_symmetry_Int_Tables_number 2
loop_
_symmetry_equiv_pos_site_id
_symmetry_equiv_pos_as_xyz
1 x,y,z
2 -x,-y,-z
_cell_length_a 7.3935(4)
_cell_length_b 9.1136(6)
_cell_length_c 12.1362(7)
_cell_angle_alpha 90.411(2)
_cell_angle_beta 104.798(2)
_cell_angle_gamma 111.102(2)
_cell_formula_units_Z 1
loop_
_atom_type_symbol
_atom_type_radius_bond
C 0.68
H 0.23
Cl 0.99
Co 1.26
N 0.68
O 0.68
loop_
_atom_site_label
_atom_site_type_symbol
_atom_site_fract_x
_atom_site_fract_y
_atom_site_fract_z
Co1 Co 1.00000 0.50000 1.00000
Cl1 Cl 1.10806(11) 0.42595(9) 0.84578(6)
O1 O 0.6892(3) 0.3899(2) 0.88722(17)
O2 O 0.4652(3) 0.7528(3) 0.70762(18)
N1 N 1.0302(4) 0.7253(3) 0.9310(2)
N2 N 0.5736(4) 0.5691(3) 0.7971(2)
C1 C 1.2162(5) 0.8141(4) 0.9253(2)
H1 H 1.31870 0.77170 0.94660
C2 C 1.2667(5) 0.9643(4) 0.8900(3)
H2 H 1.40090 1.02340 0.88800
C3 C 1.1186(5) 1.0270(4) 0.8578(2)
H3 H 1.14860 1.12970 0.83340
C4 C 0.9259(5) 0.9361(4) 0.8621(2)
H4 H 0.82090 0.97570 0.83980
C5 C 0.8859(4) 0.7864(4) 0.8993(2)
C6 C 0.6756(4) 0.6833(4) 0.9010(2)
H5 H 0.68190 0.62550 0.96980
H6 H 0.59740 0.75030 0.90550
C7 C 0.5875(4) 0.4224(4) 0.7998(2)
C8 C 0.4771(4) 0.3084(4) 0.6977(2)
C9 C 0.4947(5) 0.1629(4) 0.6936(3)
H7 H 0.58160 0.13820 0.75650
C10 C 0.3848(5) 0.0506(4) 0.5968(3)
H8 H 0.39610 -0.04990 0.59520
C11 C 0.2615(5) 0.0861(4) 0.5048(3)
H9 H 0.18540 0.00870 0.44070
C12 C 0.2459(5) 0.2364(4) 0.5040(3)
C13 C 0.1293(5) 0.2813(4) 0.4077(3)
H10 H 0.05080 0.20600 0.34260
C14 C 0.1285(5) 0.4310(4) 0.4072(3)
H11 H 0.05230 0.45970 0.34140
C15 C 0.2399(4) 0.5423(4) 0.5036(2)
H12 H 0.24050 0.64660 0.50250
C16 C 0.3487(4) 0.5010(4) 0.6004(2)
C17 C 0.4622(4) 0.6187(4) 0.7018(2)
C18 C 0.3556(4) 0.3487(4) 0.6013(2)
Cl1A Cl 0.89194(11) 0.57405(9) 1.15422(6)
O1A O 1.3108(3) 0.6101(2) 1.11278(17)
O2A O 1.5348(3) 0.2472(3) 1.29238(18)
N1A N 0.9698(4) 0.2747(3) 1.0690(2)
N2A N 1.4264(4) 0.4309(3) 1.2029(2)
C1A C 0.7838(5) 0.1859(4) 1.0747(2)
H1A H 0.68130 0.22830 1.05340
C2A C 0.7333(5) 0.0357(4) 1.1100(3)
H2A H 0.59910 -0.02340 1.11200
C3A C 0.8814(5) -0.0270(4) 1.1422(2)
H3A H 0.85140 -0.12970 1.16660
C4A C 1.0741(5) 0.0639(4) 1.1379(2)
H4A H 1.17910 0.02430 1.16020
C5A C 1.1141(4) 0.2136(4) 1.1007(2)
C6A C 1.3244(4) 0.3167(4) 1.0990(2)
H5A H 1.31810 0.37450 1.03020
H6A H 1.40260 0.24970 1.09450
C7A C 1.4125(4) 0.5776(4) 1.2002(2)
C8A C 1.5229(4) 0.6916(4) 1.3023(2)
C9A C 1.5053(5) 0.8371(4) 1.3064(3)
H7A H 1.41840 0.86180 1.24350
C10A C 1.6152(5) 0.9494(4) 1.4032(3)
H8A H 1.60390 1.04990 1.40480
C11A C 1.7385(5) 0.9139(4) 1.4952(3)
H9A H 1.81460 0.99130 1.55930
C12A C 1.7541(5) 0.7636(4) 1.4960(3)
C13A C 1.8707(5) 0.7187(4) 1.5923(3)
H10A H 1.94920 0.79400 1.65740
C14A C 1.8715(5) 0.5690(4) 1.5928(3)
H11A H 1.94770 0.54030 1.65860
C15A C 1.7601(4) 0.4577(4) 1.4964(2)
H12A H 1.75950 0.35340 1.49750
C16A C 1.6513(4) 0.4990(4) 1.3996(2)
C17A C 1.5378(4) 0.3813(4) 1.2982(2)
C18A C 1.6444(4) 0.6513(4) 1.3987(2)
#END
