
#######################################################################
#
#                 Cambridge Crystallographic Data Centre
#                                CCDC
#
#######################################################################
#
# If this CIF has been generated from an entry in the Cambridge
# Structural Database, then it will include bibliographic, chemical,
# crystal, experimental, refinement or atomic coordinate data resulting
# from the CCDC's data processing and validation procedures.
#
#######################################################################

data_CSD_CIF_UCIVEH
_audit_creation_date 2002-01-16
_audit_creation_method CSD-ConQuest-V1
_database_code_CSD UCIVEH
_database_code_depnum_ccdc_archive 'CCDC 163395'
_chemical_formula_sum 'C16 H18 Fe1 N8 O2 S2'
_chemical_formula_moiety
;
C16 H18 Fe1 N8 O2 S2
;
_journal_coden_Cambridge 1078
_journal_year 2001
_journal_name_full 'CSD Communication(Private Communication) '
loop_
_publ_author_name
"W.L.Driessen"
"A.H.de Ruijter"
"J.G.Haasnoot"
_chemical_name_systematic
;
bis(1,2,4-triazolo(1,5-a)pyridine)-bis(methanol)-bis(isothiocyanato)-iron(ii)
;
_cell_volume    520.344
_exptl_crystal_colour 'light green'
_exptl_crystal_density_diffrn 1.514
_exptl_special_details
;
contribution from Leiden Institute of Chemistry, Gorlaeus Laboratories, The 
Netherlands
;
_exptl_crystal_description 'block'
_exptl_crystal_preparation 'water/methanol'
_diffrn_ambient_temperature 293
#These two values have been output from a single CSD field.
_refine_ls_R_factor_gt 0.04
_refine_ls_wR_factor_gt 0.04
_symmetry_cell_setting triclinic
_symmetry_space_group_name_H-M 'P -1'
_symmetry_Int_Tables_number 2
loop_
_symmetry_equiv_pos_site_id
_symmetry_equiv_pos_as_xyz
1 x,y,z
2 -x,-y,-z
_cell_length_a 7.162(2)
_cell_length_b 8.1100(2)
_cell_length_c 9.9380(2)
_cell_angle_alpha 97.36(2)
_cell_angle_beta 90.62(2)
_cell_angle_gamma 114.33(2)
_cell_formula_units_Z 1
loop_
_atom_type_symbol
_atom_type_radius_bond
C 0.68
H 0.23
Fe 1.34
N 0.68
O 0.68
S 1.02
loop_
_atom_site_label
_atom_site_type_symbol
_atom_site_fract_x
_atom_site_fract_y
_atom_site_fract_z
Fe1 Fe 1.00000 1.00000 0.00000
N1 N 0.7945(2) 1.0984(2) 0.09550(16)
C1 C 0.7381(2) 1.1982(2) 0.15753(17)
S1 S 0.66297(7) 1.33970(7) 0.24762(5)
O1 O 0.74778(18) 0.73843(16) -0.06733(14)
C2 C 0.7514(3) 0.5636(3) -0.0910(2)
N2 N 1.0430(2) 0.78970(19) 0.37864(14)
C3 C 0.9326(2) 0.8372(2) 0.29002(16)
C4 C 0.7372(3) 0.8233(2) 0.3230(2)
C5 C 0.6678(3) 0.7666(3) 0.4421(2)
C6 C 0.7876(3) 0.7213(3) 0.5315(2)
C7 C 0.9736(3) 0.7322(3) 0.50045(19)
N3 N 1.2279(2) 0.8099(2) 0.33053(17)
C8 C 1.2197(3) 0.8696(3) 0.2144(2)
N4 N 1.0464(2) 0.88998(19) 0.18272(15)
H1 H 0.65100 0.74700 -0.11000
H2 H 0.66000 0.85400 0.25700
H3 H 0.53700 0.76100 0.46900
H4 H 0.74500 0.68500 0.61200
H5 H 1.06200 0.70200 0.54400
H6 H 1.33200 0.89700 0.15800
H7 H 0.83100 0.55800 -0.02200
H8 H 0.62400 0.47100 -0.08300
H9 H 0.81500 0.53900 -0.17000
N1A N 1.2055(2) 0.9016(2) -0.09550(16)
C1A C 1.2619(2) 0.8018(2) -0.15753(17)
S1A S 1.33703(7) 0.66030(7) -0.24762(5)
O1A O 1.25222(18) 1.26157(16) 0.06733(14)
C2A C 1.2486(3) 1.4364(3) 0.0910(2)
H7A H 1.16900 1.44200 0.02200
H8A H 1.37600 1.52900 0.08300
H9A H 1.18500 1.46100 0.17000
H1A H 1.34900 1.25300 0.11000
N4A N 0.9536(2) 1.11002(19) -0.18272(15)
C3A C 1.0674(2) 1.1628(2) -0.29002(16)
N2A N 0.9570(2) 1.21030(19) -0.37864(14)
C7A C 1.0264(3) 1.2678(3) -0.50045(19)
C6A C 1.2124(3) 1.2787(3) -0.5315(2)
C5A C 1.3322(3) 1.2334(3) -0.4421(2)
C4A C 1.2628(3) 1.1767(2) -0.3230(2)
H2A H 1.34000 1.14600 -0.25700
H3A H 1.46300 1.23900 -0.46900
H4A H 1.25500 1.31500 -0.61200
H5A H 0.93800 1.29800 -0.54400
N3A N 0.7721(2) 1.1901(2) -0.33053(17)
C8A C 0.7803(3) 1.1304(3) -0.2144(2)
H6A H 0.66800 1.10300 -0.15800
#END
