
#######################################################################
#
#                 Cambridge Crystallographic Data Centre
#                                CCDC
#
#######################################################################
#
# If this CIF has been generated from an entry in the Cambridge
# Structural Database, then it will include bibliographic, chemical,
# crystal, experimental, refinement or atomic coordinate data resulting
# from the CCDC's data processing and validation procedures.
#
#######################################################################

data_CSD_CIF_UDOWOZ
_audit_creation_date 2002-04-16
_audit_creation_method CSD-ConQuest-V1
_database_code_CSD UDOWOZ
_database_code_depnum_ccdc_archive 'CCDC 155484'
_chemical_formula_sum 'C12 H22 Cr1 N7 O12'
_chemical_formula_moiety
;
C12 H20 Cr1 N4 O2 3+,3(N1 O3 1-),H2 O1
;
_journal_coden_Cambridge 186
_journal_year 2001
_journal_page_first 2783
_journal_name_full 'J.Chem.Soc.,Dalton Trans. '
loop_
_publ_author_name
"P.A.Goodson"
"J.Glerup"
"D.J.Hodgson"
"N.B.Jensen"
"K.Michelsen"
_chemical_name_systematic
;
trans-Diaqua-bis(2-aminomethylpyridine)-chromium(iii) trinitrate monohydrate
;
_cell_volume    516.893
_exptl_crystal_density_diffrn 1.632
_diffrn_ambient_temperature 296
_refine_special_details
;
One nitrate ion is disordered such that the water molecule occupies the same 
site as a nitrate oxygen atom.
;
#These two values have been output from a single CSD field.
_refine_ls_R_factor_gt 0.0335
_refine_ls_wR_factor_gt 0.0335
_symmetry_cell_setting triclinic
_symmetry_space_group_name_H-M 'P -1'
_symmetry_Int_Tables_number 2
loop_
_symmetry_equiv_pos_site_id
_symmetry_equiv_pos_as_xyz
1 x,y,z
2 -x,-y,-z
_cell_length_a 7.058(2)
_cell_length_b 7.672(2)
_cell_length_c 10.248(2)
_cell_angle_alpha 70.73(3)
_cell_angle_beta 81.12(3)
_cell_angle_gamma 84.38(3)
_cell_formula_units_Z 1
loop_
_atom_type_symbol
_atom_type_radius_bond
C 0.68
H 0.23
Cr 1.35
N 0.68
O 0.68
loop_
_atom_site_label
_atom_site_type_symbol
_atom_site_fract_x
_atom_site_fract_y
_atom_site_fract_z
Cr1 Cr 0.00000 0.00000 0.00000
O1 O 0.1770(2) 0.0904(2) 0.0916(2)
N1 N 0.1833(2) 0.0779(2) -0.1845(2)
N2 N -0.1146(3) 0.2635(3) -0.0892(2)
C1 C 0.3510(3) -0.0108(3) -0.2139(2)
C2 C 0.4720(3) 0.0593(4) -0.3348(2)
C3 C 0.4224(4) 0.2243(4) -0.4288(2)
C4 C 0.2510(4) 0.3162(4) -0.3997(2)
C5 C 0.1324(3) 0.2384(3) -0.2777(2)
C6 C -0.0619(3) 0.3215(3) -0.2423(2)
N3 N 0.4036(3) 0.4563(3) -0.1314(2)
O2 O 0.5202(3) 0.5596(3) -0.2137(3)
O3 O 0.2319(3) 0.5048(3) -0.1076(2)
O4 O 0.4592(2) 0.2922(2) -0.0672(2)
N4? N 0.0019(5) 0.1253(5) 0.4101(4)
O5? O 0.0622(7) -0.0412(6) 0.4415(4)
O6? O -0.1002(6) 0.1823(7) 0.4977(5)
O7 O 0.0292(4) 0.2296(3) 0.2850(2)
H1 H 0.1279(62) 0.1249(56) 0.1405(42)
H2 H 0.2542(47) 0.1468(41) 0.0362(34)
H3 H -0.2309(47) 0.2727(37) -0.0806(27)
H4 H -0.0627(42) 0.3306(38) -0.0605(29)
H5 H 0.3898(38) -0.1180(36) -0.1501(28)
H6 H 0.5821(56) -0.0122(48) -0.3446(35)
H7 H 0.5071(45) 0.2772(41) -0.5168(34)
H8 H 0.2103(45) 0.4167(42) -0.4566(32)
H9 H -0.1498(40) 0.2752(37) -0.2827(28)
H10 H -0.0687(35) 0.4486(37) -0.2803(25)
O1A O -0.1770(2) -0.0904(2) -0.0916(2)
H1A H -0.1279(62) -0.1249(56) -0.1405(42)
H2A H -0.2542(47) -0.1468(41) -0.0362(34)
N1A N -0.1833(2) -0.0779(2) 0.1845(2)
C1A C -0.3510(3) 0.0108(3) 0.2139(2)
C2A C -0.4720(3) -0.0593(4) 0.3348(2)
C3A C -0.4224(4) -0.2243(4) 0.4288(2)
C4A C -0.2510(4) -0.3162(4) 0.3997(2)
C5A C -0.1324(3) -0.2384(3) 0.2777(2)
C6A C 0.0619(3) -0.3215(3) 0.2423(2)
N2A N 0.1146(3) -0.2635(3) 0.0892(2)
H3A H 0.2309(47) -0.2727(37) 0.0806(27)
H4A H 0.0627(42) -0.3306(38) 0.0605(29)
H9A H 0.1498(40) -0.2752(37) 0.2827(28)
H10A H 0.0687(35) -0.4486(37) 0.2803(25)
H8A H -0.2103(45) -0.4167(42) 0.4566(32)
H7A H -0.5071(45) -0.2772(41) 0.5168(34)
H6A H -0.5821(56) 0.0122(48) 0.3446(35)
H5A H -0.3898(38) 0.1180(36) 0.1501(28)
#END
