
#######################################################################
#
#                 Cambridge Crystallographic Data Centre
#                                CCDC
#
#######################################################################
#
# If this CIF has been generated from an entry in the Cambridge
# Structural Database, then it will include bibliographic, chemical,
# crystal, experimental, refinement or atomic coordinate data resulting
# from the CCDC's data processing and validation procedures.
#
#######################################################################

data_CSD_CIF_UDUYUN
_audit_creation_date 2002-04-16
_audit_creation_method CSD-ConQuest-V1
_database_code_CSD UDUYUN
_database_code_depnum_ccdc_archive 'CCDC 176809'
_database_code_depnum_ccdc_journal 1294/93
_chemical_formula_sum 'C24 H22 Co1 N8 O8'
_chemical_formula_moiety
;
C24 H22 Co1 N8 O8
;
_journal_coden_Cambridge 1294
_journal_volume 2
_journal_year 1999
_journal_page_first 91
_journal_name_full 'Crystal Engineering '
loop_
_publ_author_name
"Zhiyong Wang"
"S.R.Wilson"
"B.M.Foxman"
"Wenbin Lin"
_chemical_name_systematic
;
Diaqua-bis(nitrato-O)-bis(2-(pyrid-4-yl)benzimidazole-N)-cobalt(ii)
;
_cell_volume    611.804
_exptl_crystal_colour 'orange'
_exptl_crystal_density_diffrn 1.654
_diffrn_ambient_temperature 123
#These two values have been output from a single CSD field.
_refine_ls_R_factor_gt 0.0285
_refine_ls_wR_factor_gt 0.0285
_symmetry_cell_setting triclinic
_symmetry_space_group_name_H-M 'P -1'
_symmetry_Int_Tables_number 2
loop_
_symmetry_equiv_pos_site_id
_symmetry_equiv_pos_as_xyz
1 x,y,z
2 -x,-y,-z
_cell_length_a 7.3561(3)
_cell_length_b 8.8770(3)
_cell_length_c 9.7874(4)
_cell_angle_alpha 97.347(1)
_cell_angle_beta 104.713(1)
_cell_angle_gamma 91.692(1)
_cell_formula_units_Z 1
loop_
_atom_type_symbol
_atom_type_radius_bond
C 0.68
H 0.23
Co 1.33
N 0.68
O 0.68
loop_
_atom_site_label
_atom_site_type_symbol
_atom_site_fract_x
_atom_site_fract_y
_atom_site_fract_z
Co1 Co 0.00000 0.00000 0.00000
O1 O -0.25543(15) 0.06242(12) 0.05810(11)
O2 O -0.42121(15) 0.21355(13) 0.16321(13)
O3 O -0.12453(15) 0.20147(13) 0.26153(12)
O4 O 0.19545(15) 0.15819(12) 0.14067(12)
H1 H 0.301(4) 0.162(3) 0.130(3)
H2 H 0.200(4) 0.221(3) 0.213(3)
N1 N -0.26722(17) 0.15909(13) 0.16157(13)
N2 N 0.06042(17) -0.16437(13) 0.14341(13)
C1 C 0.0649(2) -0.13073(16) 0.28198(15)
H3 H 0.036(3) -0.033(2) 0.311(2)
C2 C 0.1163(2) -0.23234(16) 0.37951(15)
H4 H 0.115(3) -0.201(2) 0.473(2)
C3 C 0.16552(19) -0.37739(15) 0.33287(15)
C4 C 0.1588(2) -0.41310(16) 0.18854(16)
H5 H 0.190(3) -0.508(2) 0.151(2)
C5 C 0.1059(2) -0.30468(16) 0.09867(15)
H6 H 0.099(3) -0.328(2) -0.002(2)
C6 C 0.22350(19) -0.48934(16) 0.43102(15)
N3 N 0.25932(17) -0.63173(13) 0.39212(13)
C7 C 0.31193(19) -0.69290(16) 0.51885(15)
C8 C 0.3650(2) -0.83991(17) 0.54324(17)
H7 H 0.368(3) -0.914(2) 0.468(2)
C9 C 0.4105(2) -0.86978(17) 0.68252(18)
H8 H 0.448(3) -0.964(3) 0.705(2)
C10 C 0.4038(2) -0.75830(18) 0.79755(17)
H9 H 0.436(3) -0.784(2) 0.892(2)
C11 C 0.3520(2) -0.61297(18) 0.77565(17)
H10 H 0.352(3) -0.538(2) 0.850(2)
C12 C 0.3062(2) -0.58302(16) 0.63456(16)
N4 N 0.24865(18) -0.45483(14) 0.57459(13)
H11 H 0.233(3) -0.375(3) 0.619(2)
O1A O 0.25543(15) -0.06242(12) -0.05810(11)
N1A N 0.26722(17) -0.15909(13) -0.16157(13)
O2A O 0.42121(15) -0.21355(13) -0.16321(13)
O3A O 0.12453(15) -0.20147(13) -0.26153(12)
O4A O -0.19545(15) -0.15819(12) -0.14067(12)
H1A H -0.301(4) -0.162(3) -0.130(3)
H2A H -0.200(4) -0.221(3) -0.213(3)
N2A N -0.06042(17) 0.16437(13) -0.14341(13)
C1A C -0.0649(2) 0.13073(16) -0.28198(15)
H3A H -0.036(3) 0.033(2) -0.311(2)
C2A C -0.1163(2) 0.23234(16) -0.37951(15)
H4A H -0.115(3) 0.201(2) -0.473(2)
C3A C -0.16552(19) 0.37739(15) -0.33287(15)
C4A C -0.1588(2) 0.41310(16) -0.18854(16)
H5A H -0.190(3) 0.508(2) -0.151(2)
C5A C -0.1059(2) 0.30468(16) -0.09867(15)
H6A H -0.099(3) 0.328(2) 0.002(2)
C6A C -0.22350(19) 0.48934(16) -0.43102(15)
N3A N -0.25932(17) 0.63173(13) -0.39212(13)
C7A C -0.31193(19) 0.69290(16) -0.51885(15)
C8A C -0.3650(2) 0.83991(17) -0.54324(17)
H7A H -0.368(3) 0.914(2) -0.468(2)
C9A C -0.4105(2) 0.86978(17) -0.68252(18)
H8A H -0.448(3) 0.964(3) -0.705(2)
C10A C -0.4038(2) 0.75830(18) -0.79755(17)
H9A H -0.436(3) 0.784(2) -0.892(2)
C11A C -0.3520(2) 0.61297(18) -0.77565(17)
H10A H -0.352(3) 0.538(2) -0.850(2)
C12A C -0.3062(2) 0.58302(16) -0.63456(16)
N4A N -0.24865(18) 0.45483(14) -0.57459(13)
H11A H -0.233(3) 0.375(3) -0.619(2)
#END
