
#######################################################################
#
#                 Cambridge Crystallographic Data Centre
#                                CCDC
#
#######################################################################
#
# If this CIF has been generated from an entry in the Cambridge
# Structural Database, then it will include bibliographic, chemical,
# crystal, experimental, refinement or atomic coordinate data resulting
# from the CCDC's data processing and validation procedures.
#
#######################################################################

data_CSD_CIF_UGUBAZ
_audit_creation_date 2003-01-21
_audit_creation_method CSD-ConQuest-V1
_database_code_CSD UGUBAZ
_database_code_depnum_ccdc_archive 'CCDC 196789'
_chemical_formula_sum 'C32 H16 Cr1 I4 N8'
_chemical_formula_moiety
;
C32 H16 Cr1 I2 N8,I2
;
_journal_coden_Cambridge 9
_journal_volume 41
_journal_year 2002
_journal_page_first 5059
_journal_name_full 'Inorg.Chem. '
loop_
_publ_author_name
"J.Janczak"
"Y.M.Idemori"
_chemical_name_systematic
;
bis(Iodo)-(phthalocyaninato)-chromium(iii) di-iodine
;
_cell_volume    788.697
_exptl_crystal_colour 'black violet'
_exptl_crystal_density_diffrn 2.257
_exptl_crystal_description 'parallelepiped'
_diffrn_ambient_temperature 293
#These two values have been output from a single CSD field.
_refine_ls_R_factor_gt 0.0377
_refine_ls_wR_factor_gt 0.0377
_symmetry_cell_setting triclinic
_symmetry_space_group_name_H-M 'P -1'
_symmetry_Int_Tables_number 2
loop_
_symmetry_equiv_pos_site_id
_symmetry_equiv_pos_as_xyz
1 x,y,z
2 -x,-y,-z
_cell_length_a 7.851(2)
_cell_length_b 8.402(2)
_cell_length_c 12.668(3)
_cell_angle_alpha 80.32(3)
_cell_angle_beta 74.06(3)
_cell_angle_gamma 82.33(3)
_cell_formula_units_Z 1
loop_
_atom_type_symbol
_atom_type_radius_bond
C 0.68
H 0.23
Cr 1.35
I 1.40
N 0.68
loop_
_atom_site_label
_atom_site_type_symbol
_atom_site_fract_x
_atom_site_fract_y
_atom_site_fract_z
Cr1 Cr 0.00000 0.00000 0.00000
I1 I -0.31512(5) -0.12205(4) 0.11953(3)
N1 N -0.0070(5) 0.1227(4) 0.1208(3)
N2 N 0.1366(5) -0.0870(5) 0.2379(3)
N3 N 0.1282(5) -0.1876(4) 0.0691(3)
N4 N -0.1672(5) 0.3706(4) 0.0651(3)
C1 C -0.0891(6) 0.2733(6) 0.1360(4)
C2 C -0.0873(6) 0.3100(6) 0.2431(4)
C3 C -0.1618(6) 0.4445(6) 0.3021(5)
H1 H -0.22620 0.53330 0.27220
C4 C -0.1329(8) 0.4354(8) 0.4058(5)
H2 H -0.17630 0.52280 0.44510
C5 C -0.0423(7) 0.3027(7) 0.4544(5)
H3 H -0.02980 0.30130 0.52550
C6 C 0.0300(6) 0.1718(6) 0.3970(4)
H4 H 0.09490 0.08350 0.42700
C7 C 0.0014(6) 0.1789(5) 0.2950(4)
C8 C 0.0504(6) 0.0594(6) 0.2145(4)
C9 C 0.1736(6) -0.1970(6) 0.1671(4)
C10 C 0.2644(6) -0.3581(6) 0.1937(4)
C11 C 0.3352(6) -0.4284(7) 0.2784(4)
H5 H 0.33720 -0.36910 0.33360
C12 C 0.4038(6) -0.5875(7) 0.2822(4)
H6 H 0.44730 -0.63870 0.34180
C13 C 0.4076(6) -0.6710(6) 0.1960(5)
H7 H 0.45410 -0.77890 0.19990
C14 C 0.3469(6) -0.6041(6) 0.1055(4)
H8 H 0.35540 -0.66110 0.04710
C15 C 0.2707(6) -0.4427(6) 0.1069(4)
C16 C 0.1904(6) -0.3357(6) 0.0289(4)
I2 I -0.43758(6) -0.04761(5) 0.39548(3)
I1A I 0.31512(5) 0.12205(4) -0.11953(3)
C16A C -0.1904(6) 0.3357(6) -0.0289(4)
N3A N -0.1282(5) 0.1876(4) -0.0691(3)
N1A N 0.0070(5) -0.1227(4) -0.1208(3)
C1A C 0.0891(6) -0.2733(6) -0.1360(4)
N4A N 0.1672(5) -0.3706(4) -0.0651(3)
C2A C 0.0873(6) -0.3100(6) -0.2431(4)
C3A C 0.1618(6) -0.4445(6) -0.3021(5)
H1A H 0.22620 -0.53330 -0.27220
C4A C 0.1329(8) -0.4354(8) -0.4058(5)
H2A H 0.17630 -0.52280 -0.44510
C5A C 0.0423(7) -0.3027(7) -0.4544(5)
H3A H 0.02980 -0.30130 -0.52550
C6A C -0.0300(6) -0.1718(6) -0.3970(4)
H4A H -0.09490 -0.08350 -0.42700
C7A C -0.0014(6) -0.1789(5) -0.2950(4)
C8A C -0.0504(6) -0.0594(6) -0.2145(4)
N2A N -0.1366(5) 0.0870(5) -0.2379(3)
C9A C -0.1736(6) 0.1970(6) -0.1671(4)
C10A C -0.2644(6) 0.3581(6) -0.1937(4)
C11A C -0.3352(6) 0.4284(7) -0.2784(4)
H5A H -0.33720 0.36910 -0.33360
C12A C -0.4038(6) 0.5875(7) -0.2822(4)
H6A H -0.44730 0.63870 -0.34180
C13A C -0.4076(6) 0.6710(6) -0.1960(5)
H7A H -0.45410 0.77890 -0.19990
C14A C -0.3469(6) 0.6041(6) -0.1055(4)
H8A H -0.35540 0.66110 -0.04710
C15A C -0.2707(6) 0.4427(6) -0.1069(4)
I2A I -0.56242(6) 0.04761(5) 0.60452(3)
#END
