
#######################################################################
#
#                 Cambridge Crystallographic Data Centre
#                                CCDC
#
#######################################################################
#
# If this CIF has been generated from an entry in the Cambridge
# Structural Database, then it will include bibliographic, chemical,
# crystal, experimental, refinement or atomic coordinate data resulting
# from the CCDC's data processing and validation procedures.
#
#######################################################################

data_CSD_CIF_UJALAU
_audit_creation_date 2016-03-23
_audit_creation_method CSD-ConQuest-V1
_database_code_CSD UJALAU
_database_code_depnum_ccdc_archive 'CCDC 1434394'
_chemical_formula_sum 'C13 H27 Fe1 I2 N1 O2 P2'
_chemical_formula_moiety
;
C13 H27 Fe1 I2 N1 O2 P2
;
_journal_coden_Cambridge 4
_journal_volume 138
_journal_year 2016
_journal_page_first 3270
_journal_name_full 'J.Am.Chem.Soc. '
loop_
_publ_author_name
"Tao Xu"
"C.-J.M.Yin"
"M.D.Wodrich"
"S.Mazza"
"K.M.Schultz"
"R.Scopelliti"
"Xile Hu"
_chemical_name_systematic
;
dicarbonyl-(N,N-bis((diethylphosphino)methyl)-N-methylamine)-di-iodo-iron
;
_cell_volume   1042.330
_exptl_crystal_colour 'orange'
_exptl_crystal_density_diffrn 1.915
_exptl_crystal_description 'prism'
_diffrn_ambient_temperature 100
_refine_special_details
;
C2A,I2A,O2A and C2B,I2B,O2B disordered over two sites with occupancies 
0.843:0.157.
;
#These two values have been output from a single CSD field.
_refine_ls_R_factor_gt 0.0524
_refine_ls_wR_factor_gt 0.0524
_symmetry_cell_setting triclinic
_symmetry_space_group_name_H-M 'P -1'
_symmetry_Int_Tables_number 2
loop_
_symmetry_equiv_pos_site_id
_symmetry_equiv_pos_as_xyz
1 x,y,z
2 -x,-y,-z
_cell_length_a 8.3832(9)
_cell_length_b 9.5280(7)
_cell_length_c 14.1771(19)
_cell_angle_alpha 70.791(9)
_cell_angle_beta 77.122(10)
_cell_angle_gamma 86.609(8)
_cell_formula_units_Z 2
loop_
_atom_type_symbol
_atom_type_radius_bond
C 0.68
H 0.23
Fe 1.52
I 1.40
N 0.68
O 0.68
P 1.05
loop_
_atom_site_label
_atom_site_type_symbol
_atom_site_fract_x
_atom_site_fract_y
_atom_site_fract_z
Fe1 Fe 0.59588(11) 0.36601(11) 0.23053(7)
I1 I 0.36436(5) 0.36283(5) 0.39424(3)
I2 I 0.54137(8) 0.08410(6) 0.25324(5)
C1 C 0.4383(11) 0.402(1) 0.1580(7)
O1 O 0.3375(11) 0.4138(12) 0.1113(6)
P1 P 0.6341(2) 0.6113(2) 0.19736(13)
P2 P 0.7810(2) 0.29969(18) 0.33491(12)
O2 O 0.8449(6) 0.3641(7) 0.0517(4)
N1 N 0.8573(7) 0.5859(6) 0.3143(5)
C2 C 0.7480(8) 0.3656(8) 0.1228(5)
C3 C 0.7945(12) 0.6932(10) 0.0828(6)
H1 H 0.89510 0.63470 0.09080
H2 H 0.75980 0.68180 0.02330
C4 C 0.8377(18) 0.8555(12) 0.0579(9)
H3 H 0.74270 0.91660 0.04240
H4 H 0.92940 0.88490 -0.00150
H5 H 0.86890 0.86990 0.11680
C5 C 0.4530(11) 0.7313(10) 0.1837(8)
H6 H 0.35820 0.67890 0.23680
H7 H 0.47370 0.82300 0.19760
C6 C 0.407(2) 0.7748(15) 0.0821(13)
H8 H 0.45510 0.87270 0.03960
H9 H 0.28770 0.77910 0.09180
H10 H 0.44860 0.70130 0.04820
C7 C 0.7069(8) 0.6629(7) 0.2950(5)
H11 H 0.72680 0.77170 0.27130
H12 H 0.62200 0.63670 0.35920
C8 C 0.8222(8) 0.4386(7) 0.3903(5)
H13 H 0.72610 0.44420 0.44400
H14 H 0.91670 0.40670 0.42320
C9 C 0.9623(9) 0.6747(9) 0.3444(6)
H15 H 0.98560 0.77190 0.29120
H16 H 1.06530 0.62280 0.35300
H17 H 0.90610 0.68860 0.40910
C10 C 0.7295(9) 0.1324(8) 0.4483(6)
H18 H 0.61150 0.13410 0.47910
H19 H 0.74810 0.04380 0.42580
C11 C 0.8268(11) 0.1158(10) 0.5311(6)
H20 H 0.94410 0.12510 0.50010
H21 H 0.80330 0.01800 0.58360
H22 H 0.79520 0.19360 0.56260
C12 C 0.9899(8) 0.2684(8) 0.2718(5)
H23 H 1.02510 0.35570 0.21010
H24 H 1.06350 0.26270 0.31870
C13 C 1.0127(10) 0.1279(10) 0.2398(7)
H25 H 0.98170 0.03990 0.30030
H26 H 1.12760 0.12100 0.20700
H27 H 0.94340 0.13330 0.19150
I3? I 0.3922(6) 0.3559(10) 0.1269(4)
C14? C 0.565(4) 0.161(2) 0.273(3)
O3? O 0.482(5) 0.067(3) 0.268(3)
#END
