
#######################################################################
#
#                 Cambridge Crystallographic Data Centre
#                                CCDC
#
#######################################################################
#
# If this CIF has been generated from an entry in the Cambridge
# Structural Database, then it will include bibliographic, chemical,
# crystal, experimental, refinement or atomic coordinate data resulting
# from the CCDC's data processing and validation procedures.
#
#######################################################################

data_CSD_CIF_UMACIV
_audit_creation_date 2011-05-11
_audit_creation_method CSD-ConQuest-V1
_database_code_CSD UMACIV
_database_code_depnum_ccdc_archive 'CCDC 627292'
_chemical_formula_sum 'C24 H24 Co1 F6 N6 O2 P1'
_chemical_formula_moiety
;
C24 H24 Co1 N6 O2 1+,F6 P1 1-
;
_journal_coden_Cambridge 155
_journal_volume 367
_journal_year 2011
_journal_page_first 57
_journal_name_full 'Inorg.Chim.Acta '
loop_
_publ_author_name
"S.K.Padhi"
"R.Sahu"
"V.Manivannan"
_chemical_name_systematic
;
bis(((3-methylpyridin-2-yl)amino)(pyridin-2-yl)methanolato)-cobalt(iii) 
hexafluorophosphate
;
_cell_volume    637.786
_exptl_crystal_colour 'pink'
_exptl_crystal_density_diffrn 1.646
_exptl_crystal_description 'blocks'
_diffrn_ambient_temperature 296
#These two values have been output from a single CSD field.
_refine_ls_R_factor_gt 0.0607
_refine_ls_wR_factor_gt 0.0607
_symmetry_cell_setting triclinic
_symmetry_space_group_name_H-M 'P 1'
_symmetry_Int_Tables_number 1
loop_
_symmetry_equiv_pos_site_id
_symmetry_equiv_pos_as_xyz
1 x,y,z
_cell_length_a 7.8601(3)
_cell_length_b 8.5560(3)
_cell_length_c 9.8918(4)
_cell_angle_alpha 88.110(2)
_cell_angle_beta 85.931(2)
_cell_angle_gamma 73.999(2)
_cell_formula_units_Z 1
loop_
_atom_type_symbol
_atom_type_radius_bond
C 0.68
H 0.23
Co 1.26
F 0.64
N 0.68
O 0.68
P 1.05
loop_
_atom_site_label
_atom_site_type_symbol
_atom_site_fract_x
_atom_site_fract_y
_atom_site_fract_z
Co1 Co 0.42203(14) 0.65783(13) 0.13638(12)
O1 O 0.2262(9) 0.6821(7) 0.2622(6)
O2 O 0.6243(8) 0.6279(8) 0.0137(7)
N1 N 0.3408(8) 0.8901(7) 0.0976(6)
N2 N 0.5473(8) 0.6997(7) 0.2849(6)
N3 N 0.1901(7) 0.9460(8) 0.3079(6)
H1 H 0.11590 1.01880 0.35660
N4 N 0.2886(8) 0.6160(7) -0.0138(6)
N5 N 0.5022(9) 0.4298(8) 0.1729(6)
N6 N 0.5414(8) 0.4767(8) -0.1417(6)
H2 H 0.58400 0.43290 -0.21830
C1 C 0.3936(14) 0.9490(13) -0.0184(9)
H3 H 0.47810 0.87320 -0.07070
C2 C 0.3513(13) 1.0845(13) -0.0687(10)
H4 H 0.39770 1.10950 -0.15320
C3 C 0.2321(15) 1.1955(12) 0.0077(13)
H5 H 0.19110 1.30020 -0.02770
C4 C 0.1623(14) 1.1601(14) 0.1454(14)
C5 C 0.2263(11) 0.9938(9) 0.1787(7)
C6 C 0.2548(9) 0.7992(10) 0.3712(7)
H6 H 0.18500 0.79110 0.45600
C7 C 0.4447(9) 0.7740(9) 0.3957(6)
C8 C 0.5210(15) 0.8024(10) 0.5086(9)
H7 H 0.44740 0.85250 0.58160
C9 C 0.687(2) 0.7640(18) 0.5188(17)
H8 H 0.73140 0.78060 0.60020
C10 C 0.7903(18) 0.7054(19) 0.4236(14)
H9 H 0.91100 0.68930 0.43200
C11 C 0.7292(13) 0.6567(11) 0.2899(13)
H10 H 0.80710 0.60380 0.22010
C12 C 0.0599(10) 1.2808(10) 0.2277(9)
H11 H -0.04940 1.25610 0.25560
H12 H 0.03490 1.38260 0.17890
H13 H 0.12240 1.28820 0.30610
C13 C 0.1135(10) 0.6695(11) -0.0037(11)
H14 H 0.06260 0.71790 0.07770
C14 C 0.0114(11) 0.6627(11) -0.0888(8)
H15 H -0.11030 0.70300 -0.06980
C15 C 0.0753(15) 0.5955(13) -0.2128(11)
H16 H -0.00110 0.59670 -0.28060
C16 C 0.2612(14) 0.5242(11) -0.2353(7)
C17 C 0.3633(9) 0.5483(9) -0.1254(7)
C18 C 0.6643(8) 0.4705(8) -0.0348(6)
H17 H 0.78790 0.43420 -0.07100
C19 C 0.6226(10) 0.3488(9) 0.0716(8)
C20 C 0.6947(17) 0.1819(12) 0.0879(13)
H18 H 0.76760 0.12930 0.01550
C21 C 0.6748(15) 0.0975(15) 0.1834(14)
H19 H 0.73950 -0.01120 0.18770
C22 C 0.5542(13) 0.1660(12) 0.2857(11)
H20 H 0.52640 0.10070 0.35610
C23 C 0.4646(13) 0.3476(15) 0.2857(9)
H21 H 0.38960 0.39870 0.35780
C24 C 0.3446(10) 0.4427(9) -0.3586(6)
H22 H 0.25540 0.44270 -0.42010
H23 H 0.40800 0.33260 -0.33760
H24 H 0.42570 0.49860 -0.40000
P1 P 0.9151(5) 0.1570(5) 0.6344(4)
F1 F 0.9736(12) 0.1892(16) 0.7761(8)
F2 F 0.8701(11) 0.1017(12) 0.5001(7)
F3 F 0.7393(10) 0.1388(11) 0.7085(9)
F4 F 0.8215(13) 0.3398(10) 0.6259(11)
F5 F 1.0942(10) 0.1735(13) 0.5665(9)
F6 F 0.9992(13) -0.0239(10) 0.6647(11)
#END
