
#######################################################################
#
#                 Cambridge Crystallographic Data Centre
#                                CCDC
#
#######################################################################
#
# If this CIF has been generated from an entry in the Cambridge
# Structural Database, then it will include bibliographic, chemical,
# crystal, experimental, refinement or atomic coordinate data resulting
# from the CCDC's data processing and validation procedures.
#
#######################################################################

data_CSD_CIF_UMEBUL
_audit_creation_date 2016-05-04
_audit_creation_method CSD-ConQuest-V1
_database_code_CSD UMEBUL
_database_code_depnum_ccdc_archive 'CCDC 940620'
_chemical_formula_sum 'C28 H30 Co1 N8 O2'
_chemical_formula_moiety
;
C28 H30 Co1 N8 O2
;
_journal_coden_Cambridge 155
_journal_volume 448
_journal_year 2016
_journal_page_first 86
_journal_name_full 'Inorg.Chim.Acta '
loop_
_publ_author_name
"K.Roztocki"
"D.Matoga"
"W.Nitek"
_chemical_name_systematic
;
bis(N-isopropylidenepyridine-4-carbohydrazonato)-bis(pyridine)-cobalt(ii)
;
_cell_volume    726.802
_exptl_crystal_density_diffrn 1.301
_diffrn_ambient_temperature 293
#These two values have been output from a single CSD field.
_refine_ls_R_factor_gt 0.035
_refine_ls_wR_factor_gt 0.035
_symmetry_cell_setting triclinic
_symmetry_space_group_name_H-M 'P -1'
_symmetry_Int_Tables_number 2
loop_
_symmetry_equiv_pos_site_id
_symmetry_equiv_pos_as_xyz
1 x,y,z
2 -x,-y,-z
_cell_length_a 8.584(5)
_cell_length_b 9.324(5)
_cell_length_c 9.470(5)
_cell_angle_alpha 97.737(5)
_cell_angle_beta 102.935(5)
_cell_angle_gamma 94.858(5)
_cell_formula_units_Z 1
loop_
_atom_type_symbol
_atom_type_radius_bond
C 0.68
H 0.23
Co 1.26
N 0.68
O 0.68
loop_
_atom_site_label
_atom_site_type_symbol
_atom_site_fract_x
_atom_site_fract_y
_atom_site_fract_z
Co1 Co 0.50000 0.50000 0.50000
N1 N 0.1957(3) 0.9062(3) 1.0266(2)
C1 C 0.3391(3) 0.8616(3) 1.0333(3)
H1 H 0.41740 0.89010 1.12030
C2 C 0.3803(3) 0.7754(3) 0.9195(2)
H2 H 0.48290 0.74640 0.93130
C3 C 0.2675(2) 0.73327(19) 0.78854(19)
C4 C 0.1167(3) 0.7784(2) 0.7797(2)
H3 H 0.03620 0.75220 0.69380
C5 C 0.0875(3) 0.8628(3) 0.9000(3)
H4 H -0.01490 0.89150 0.89210
C6 C 0.3113(2) 0.64730(17) 0.66071(18)
O1 O 0.44150(15) 0.58762(13) 0.68672(12)
N2 N 0.21203(18) 0.64662(16) 0.53421(16)
N3 N 0.26684(17) 0.57186(15) 0.41855(15)
C7 C 0.1713(2) 0.5659(2) 0.2915(2)
C8 C 0.2167(3) 0.4932(3) 0.1588(2)
H5 H 0.31930 0.45830 0.18750
H6 H 0.22310 0.56190 0.09270
H7 H 0.13680 0.41270 0.11070
C9 C 0.0154(3) 0.6294(3) 0.2679(3)
H8 H -0.03040 0.62280 0.35080
H9 H -0.05750 0.57650 0.18090
H10 H 0.03380 0.72990 0.25680
N4 N 0.38315(18) 0.28394(16) 0.51429(17)
C10 C 0.3529(3) 0.2538(2) 0.6399(2)
H11 H 0.38290 0.32580 0.72220
C11 C 0.2794(3) 0.1208(3) 0.6537(3)
H12 H 0.26080 0.10390 0.74340
C12 C 0.2339(3) 0.0131(2) 0.5324(3)
H13 H 0.18430 -0.07770 0.53850
C13 C 0.2637(3) 0.0433(3) 0.4030(3)
H14 H 0.23430 -0.02700 0.31920
C14 C 0.3375(3) 0.1785(2) 0.3981(2)
H15 H 0.35660 0.19750 0.30920
N1A N 0.8043(3) 0.0938(3) -0.0266(2)
C1A C 0.6609(3) 0.1384(3) -0.0333(3)
H1A H 0.58260 0.10990 -0.12030
C2A C 0.6197(3) 0.2246(3) 0.0805(2)
H2A H 0.51710 0.25360 0.06870
C3A C 0.7325(2) 0.26673(19) 0.21146(19)
C4A C 0.8833(3) 0.2216(2) 0.2203(2)
H3A H 0.96380 0.24780 0.30620
C5A C 0.9125(3) 0.1372(3) 0.1000(3)
H4A H 1.01490 0.10850 0.10790
C6A C 0.6887(2) 0.35270(17) 0.33929(18)
O1A O 0.55850(15) 0.41238(13) 0.31328(12)
N2A N 0.78797(18) 0.35338(16) 0.46579(16)
N3A N 0.73316(17) 0.42814(15) 0.58145(15)
C7A C 0.8287(2) 0.4341(2) 0.7085(2)
C8A C 0.7833(3) 0.5068(3) 0.8412(2)
H5A H 0.68070 0.54170 0.81250
H6A H 0.77690 0.43810 0.90730
H7A H 0.86320 0.58730 0.88930
C9A C 0.9846(3) 0.3706(3) 0.7321(3)
H8A H 1.03040 0.37720 0.64920
H9A H 1.05750 0.42350 0.81910
H10A H 0.96620 0.27010 0.74320
N4A N 0.61685(18) 0.71606(16) 0.48571(17)
C10A C 0.6471(3) 0.7462(2) 0.3601(2)
H11A H 0.61710 0.67420 0.27780
C11A C 0.7206(3) 0.8792(3) 0.3463(3)
H12A H 0.73920 0.89610 0.25660
C12A C 0.7661(3) 0.9869(2) 0.4676(3)
H13A H 0.81570 1.07770 0.46150
C13A C 0.7363(3) 0.9567(3) 0.5970(3)
H14A H 0.76570 1.02700 0.68080
C14A C 0.6625(3) 0.8215(2) 0.6019(2)
H15A H 0.64340 0.80250 0.69080
#END
