
#######################################################################
#
#                 Cambridge Crystallographic Data Centre
#                                CCDC
#
#######################################################################
#
# If this CIF has been generated from an entry in the Cambridge
# Structural Database, then it will include bibliographic, chemical,
# crystal, experimental, refinement or atomic coordinate data resulting
# from the CCDC's data processing and validation procedures.
#
#######################################################################

data_CSD_CIF_UMOFUX
_audit_creation_date 2004-03-09
_audit_creation_method CSD-ConQuest-V1
_database_code_CSD UMOFUX
_database_code_depnum_ccdc_archive 'CCDC 226686'
_chemical_formula_sum 'C12 H12 Cr1 O6'
_chemical_formula_moiety
;
C12 H12 Cr1 O6
;
_journal_coeditor_code "IUCr CV6248"
_journal_coden_Cambridge 1370
_journal_volume 59
_journal_year 2003
_journal_page_first m1078
_journal_name_full 'Acta Crystallogr.,Sect.E:Struct.Rep.Online '
loop_
_publ_author_name
"M.Zeller"
"A.D.Hunter"
_chemical_name_systematic
;
Tricarbonyl-(\h^6^-1,3,5-trimethoxybenzene)-chromium(0)
;
_cell_volume   1865.730
_exptl_crystal_colour 'colorless'
_exptl_crystal_density_diffrn 1.625
_exptl_crystal_description 'block'
_exptl_crystal_preparation 'hexane/methylene chloride'
_diffrn_ambient_temperature 100
_diffrn_special_details
;
The crystal is a partial racemic twin

;
#These two values have been output from a single CSD field.
_refine_ls_R_factor_gt 0.0255
_refine_ls_wR_factor_gt 0.0255
_symmetry_cell_setting rhombohedral
_symmetry_space_group_name_H-M 'R 3 c'
_symmetry_Int_Tables_number 161
loop_
_symmetry_equiv_pos_site_id
_symmetry_equiv_pos_as_xyz
1 x,y,z
2 -y,x-y,z
3 -x+y,-x,z
4 -y,-x,1/2+z
5 -x+y,y,1/2+z
6 x,x-y,1/2+z
7 -1/3+x,1/3+y,1/3+z
8 -1/3-y,1/3+x-y,1/3+z
9 -1/3-x+y,1/3-x,1/3+z
10 -1/3-y,1/3-x,-1/6+z
11 -1/3-x+y,1/3+y,-1/6+z
12 -1/3+x,1/3+x-y,-1/6+z
13 1/3+x,-1/3+y,-1/3+z
14 1/3-y,-1/3+x-y,-1/3+z
15 1/3-x+y,-1/3-x,-1/3+z
16 1/3-y,-1/3-x,1/6+z
17 1/3-x+y,-1/3+y,1/6+z
18 1/3+x,-1/3+x-y,1/6+z
_cell_length_a 12.6892(9)
_cell_length_b 12.6892(9)
_cell_length_c 13.3798(19)
_cell_angle_alpha 90
_cell_angle_beta 90
_cell_angle_gamma 120
_cell_formula_units_Z 6
loop_
_atom_type_symbol
_atom_type_radius_bond
C 0.68
H 0.23
Cr 1.35
O 0.68
loop_
_atom_site_label
_atom_site_type_symbol
_atom_site_fract_x
_atom_site_fract_y
_atom_site_fract_z
Cr1 Cr 0.00000 0.00000 -0.03180(7)
C1 C 0.07085(12) 0.12933(16) 0.09836(15)
C2 C 0.12818(17) 0.05848(12) 0.10119(14)
C3 C 0.32426(11) 0.23496(10) 0.10977(10)
H1 H 0.29900 0.26530 0.16700
H2 H 0.31530 0.27150 0.04810
H3 H 0.40960 0.25680 0.11800
C4 C -0.08832(15) -0.13608(15) -0.11035(11)
O1 O -0.14375(11) -0.22219(10) -0.15796(8)
O2 O 0.24923(10) 0.10457(10) 0.10416(8)
H4 H 0.1199(19) 0.217(3) 0.091(2)
C1A C -0.12933(12) -0.05848(16) 0.09836(15)
C2A C -0.05848(17) 0.06970(12) 0.10119(14)
C1B C 0.05848(12) -0.07085(16) 0.09836(15)
C2B C -0.06970(17) -0.12818(12) 0.10119(14)
C4A C 0.13608(15) 0.04776(15) -0.11035(11)
O1A O 0.22219(11) 0.07844(10) -0.15796(8)
C4B C -0.04776(15) 0.08832(15) -0.11035(11)
O1B O -0.07844(11) 0.14375(10) -0.15796(8)
H4A H -0.2170(19) -0.0971(30) 0.091(2)
O2B O -0.14466(10) -0.24923(10) 0.10416(8)
C3B C -0.08930(11) -0.32426(10) 0.10977(10)
H1B H -0.03370 -0.29900 0.16700
H2B H -0.04380 -0.31530 0.04810
H3B H -0.15280 -0.40960 0.11800
H4B H 0.0971(19) -0.1199(30) 0.091(2)
O2A O -0.10457(10) 0.14466(10) 0.10416(8)
C3A C -0.23496(11) 0.0893(1) 0.10977(10)
H1A H -0.26530 0.03370 0.16700
H2A H -0.27150 0.04380 0.04810
H3A H -0.25680 0.15280 0.11800
#END
