
#######################################################################
#
#                 Cambridge Crystallographic Data Centre
#                                CCDC
#
#######################################################################
#
# If this CIF has been generated from an entry in the Cambridge
# Structural Database, then it will include bibliographic, chemical,
# crystal, experimental, refinement or atomic coordinate data resulting
# from the CCDC's data processing and validation procedures.
#
#######################################################################

data_CSD_CIF_UMOXID
_audit_creation_date 2004-04-19
_audit_creation_method CSD-ConQuest-V1
_database_code_CSD UMOXID
_database_code_depnum_ccdc_archive 'CCDC 213260'
_chemical_formula_sum 'C10 H7 Mn1 O5'
_chemical_formula_moiety
;
C10 H7 Mn1 O5
;
_journal_coden_Cambridge 36
_journal_volume 687
_journal_year 2003
_journal_page_first 78
_journal_name_full 'J.Organomet.Chem. '
loop_
_publ_author_name
"Moonhyun Oh"
"J.A.Reingold"
"G.B.Carpenter"
"D.A.Sweigart"
_chemical_name_systematic
;
(\h^5^-3-Methylsemiquinone)-tricarbonyl-manganese
;
_cell_volume    511.236
_exptl_crystal_colour 'yellow'
_exptl_crystal_density_diffrn 1.703
_diffrn_ambient_temperature 298
#These two values have been output from a single CSD field.
_refine_ls_R_factor_gt 0.0362
_refine_ls_wR_factor_gt 0.0362
_symmetry_cell_setting triclinic
_symmetry_space_group_name_H-M 'P -1'
_symmetry_Int_Tables_number 2
loop_
_symmetry_equiv_pos_site_id
_symmetry_equiv_pos_as_xyz
1 x,y,z
2 -x,-y,-z
_cell_length_a 6.8520(5)
_cell_length_b 7.6545(5)
_cell_length_c 10.2065(7)
_cell_angle_alpha 92.089(1)
_cell_angle_beta 92.633(1)
_cell_angle_gamma 106.800(1)
_cell_formula_units_Z 2
loop_
_atom_type_symbol
_atom_type_radius_bond
C 0.68
H 0.23
Mn 1.28
O 0.68
loop_
_atom_site_label
_atom_site_type_symbol
_atom_site_fract_x
_atom_site_fract_y
_atom_site_fract_z
Mn1 Mn 0.30999(4) 0.74766(3) 0.77012(3)
C1 C 0.1804(3) 0.9180(3) 0.63811(18)
C2 C 0.3757(3) 1.0226(2) 0.69234(17)
C3 C 0.5440(2) 0.9573(2) 0.67653(18)
H1 H 0.66810 1.02170 0.71930
C4 C 0.5352(2) 0.7947(2) 0.59715(18)
C5 C 0.3336(3) 0.6809(3) 0.5618(2)
H2 H 0.31480 0.56240 0.52770
C6 C 0.1626(3) 0.7449(3) 0.5775(2)
H3 H 0.03420 0.67110 0.54700
C7 C 0.4003(3) 1.2047(3) 0.7611(2)
H4 H 0.40270 1.29410 0.69730
H5 H 0.52600 1.24020 0.81440
H6 H 0.28800 1.19630 0.81590
O1 O 0.0229(2) 0.9839(2) 0.65131(15)
H7 H -0.08210 0.90760 0.62200
O2 O 0.69359(19) 0.7488(2) 0.57135(15)
C8 C 0.2479(4) 0.8487(3) 0.9188(2)
O3 O 0.2075(4) 0.9143(3) 1.0119(2)
C9 C 0.5088(3) 0.6719(3) 0.8530(2)
O4 O 0.6392(3) 0.6289(3) 0.9016(2)
C10 C 0.1112(4) 0.5398(3) 0.7952(3)
O5 O -0.0170(4) 0.4101(3) 0.8086(3)
#END
