
#######################################################################
#
#                 Cambridge Crystallographic Data Centre
#                                CCDC
#
#######################################################################
#
# If this CIF has been generated from an entry in the Cambridge
# Structural Database, then it will include bibliographic, chemical,
# crystal, experimental, refinement or atomic coordinate data resulting
# from the CCDC's data processing and validation procedures.
#
#######################################################################

data_CSD_CIF_UMOYEA
_audit_creation_date 2004-04-19
_audit_creation_method CSD-ConQuest-V1
_database_code_CSD UMOYEA
_database_code_depnum_ccdc_archive 'CCDC 213264'
_chemical_formula_sum 'C15 H9 Mn1 O5'
_chemical_formula_moiety
;
C15 H9 Mn1 O5
;
_journal_coden_Cambridge 36
_journal_volume 687
_journal_year 2003
_journal_page_first 78
_journal_name_full 'J.Organomet.Chem. '
loop_
_publ_author_name
"Moonhyun Oh"
"J.A.Reingold"
"G.B.Carpenter"
"D.A.Sweigart"
_chemical_name_systematic
;
(\h^5^-4-(4-Hydroxyphenyl)phenone)-tricarbonyl-manganese
;
_cell_volume    651.778
_exptl_crystal_colour 'yellow'
_exptl_crystal_density_diffrn 1.652
_exptl_crystal_description 'rectangular'
_diffrn_ambient_temperature 298
#These two values have been output from a single CSD field.
_refine_ls_R_factor_gt 0.037
_refine_ls_wR_factor_gt 0.037
_symmetry_cell_setting triclinic
_symmetry_space_group_name_H-M 'P -1'
_symmetry_Int_Tables_number 2
loop_
_symmetry_equiv_pos_site_id
_symmetry_equiv_pos_as_xyz
1 x,y,z
2 -x,-y,-z
_cell_length_a 6.7260(7)
_cell_length_b 9.744(1)
_cell_length_c 10.2105(10)
_cell_angle_alpha 94.198(2)
_cell_angle_beta 100.262(2)
_cell_angle_gamma 96.140(2)
_cell_formula_units_Z 2
loop_
_atom_type_symbol
_atom_type_radius_bond
C 0.68
H 0.23
Mn 1.35
O 0.68
loop_
_atom_site_label
_atom_site_type_symbol
_atom_site_fract_x
_atom_site_fract_y
_atom_site_fract_z
Mn1 Mn 0.27814(3) 0.14554(2) 0.26513(2)
C1 C 0.4903(3) 0.32652(19) 0.42366(17)
C2 C 0.5800(3) 0.27162(19) 0.31628(17)
H1 H 0.70010 0.23200 0.33690
C3 C 0.4924(2) 0.27592(18) 0.18155(17)
H2 H 0.56390 0.24890 0.11600
C4 C 0.2985(2) 0.31997(17) 0.14202(16)
C5 C 0.1936(3) 0.35186(17) 0.24709(16)
H3 H 0.06320 0.37720 0.22580
C6 C 0.2791(3) 0.34651(19) 0.38104(17)
H4 H 0.19790 0.35610 0.44510
C7 C 0.2103(2) 0.32948(17) -0.00044(16)
C8 C 0.3353(3) 0.3525(2) -0.09348(18)
H5 H 0.47580 0.36300 -0.06510
C9 C 0.2566(3) 0.3602(2) -0.22670(19)
H6 H 0.34360 0.37480 -0.28700
C10 C 0.0476(3) 0.3462(2) -0.27046(17)
C11 C -0.0806(3) 0.3257(2) -0.17863(18)
H7 H -0.22100 0.31750 -0.20680
C12 C 0.0009(3) 0.3177(2) -0.04549(17)
H8 H -0.08590 0.30410 0.01510
O1 O 0.5762(2) 0.34182(17) 0.54389(13)
O2 O -0.0254(2) 0.35430(19) -0.40115(13)
H9 H -0.14870 0.35670 -0.41260
C13 C 0.2675(3) 0.0572(2) 0.4147(2)
O3 O 0.2601(3) 0.0057(2) 0.5100(2)
C14 C 0.3646(3) 0.0005(2) 0.1792(2)
O4 O 0.4205(3) -0.08814(17) 0.1239(2)
C15 C 0.0192(3) 0.0759(2) 0.1943(2)
O5 O -0.1432(2) 0.0338(2) 0.1476(2)
#END
