
#######################################################################
#
#                 Cambridge Crystallographic Data Centre
#                                CCDC
#
#######################################################################
#
# If this CIF has been generated from an entry in the Cambridge
# Structural Database, then it will include bibliographic, chemical,
# crystal, experimental, refinement or atomic coordinate data resulting
# from the CCDC's data processing and validation procedures.
#
#######################################################################

data_CSD_CIF_UNAHAU
_audit_creation_date 2016-06-01
_audit_creation_method CSD-ConQuest-V1
_database_code_CSD UNAHAU
_database_code_depnum_ccdc_archive 'CCDC 1449180'
_chemical_formula_sum 'C24 H22 Cl4 Co1 N4 O12'
_chemical_formula_moiety
;
C12 H14 Cl2 Co1 N2 O8,2(C6 H4 Cl1 N1 O2)
;
_journal_coden_Cambridge 208
_journal_volume 241
_journal_year 2016
_journal_page_first 121
_journal_name_full 'J.Solid State Chem. '
loop_
_publ_author_name
"Zhu-Qing Gao"
"Hong-Jin Li"
"Jin-Zhong Gu"
"Qing-Hua Zhang"
"A.M.Kirillov"
_chemical_name_systematic
;
tetraaqua-bis(5-chloronicotinato)-cobalt(ii) bis(5-chloronicotinic acid)
;
_cell_volume    756.066
_exptl_crystal_colour 'colorless'
_exptl_crystal_density_diffrn 1.667
_exptl_crystal_description 'needle'
_diffrn_ambient_temperature 293
#These two values have been output from a single CSD field.
_refine_ls_R_factor_gt 0.063
_refine_ls_wR_factor_gt 0.063
_symmetry_cell_setting triclinic
_symmetry_space_group_name_H-M 'P -1'
_symmetry_Int_Tables_number 2
loop_
_symmetry_equiv_pos_site_id
_symmetry_equiv_pos_as_xyz
1 x,y,z
2 -x,-y,-z
_cell_length_a 6.8252(11)
_cell_length_b 7.7449(12)
_cell_length_c 15.4857(16)
_cell_angle_alpha 88.199(10)
_cell_angle_beta 88.506(10)
_cell_angle_gamma 67.547(15)
_cell_formula_units_Z 1
loop_
_atom_type_symbol
_atom_type_radius_bond
C 0.68
H 0.23
Cl 0.99
Co 1.26
N 0.68
O 0.68
loop_
_atom_site_label
_atom_site_type_symbol
_atom_site_fract_x
_atom_site_fract_y
_atom_site_fract_z
Co1 Co 1.00000 0.00000 0.50000
N1 N 0.9459(6) 0.0944(6) 0.6332(2)
O1 O 0.6254(6) 0.6199(5) 0.8091(2)
O2 O 0.7452(7) 0.6647(6) 0.6793(2)
O3 O 0.8651(6) -0.1938(5) 0.5280(2)
H1 H 0.82990 -0.23730 0.57420
H2 H 0.78950 -0.22580 0.49410
O4 O 1.2923(5) -0.1954(5) 0.5351(2)
H3 H 1.39710 -0.22660 0.49990
H4 H 1.19370 -0.11360 0.56330
C1 C 0.9828(7) -0.0210(7) 0.7022(3)
H5 H 1.04140 -0.14920 0.69380
C2 C 0.9371(8) 0.0427(8) 0.7853(3)
C3 C 0.8538(7) 0.2305(8) 0.7987(3)
H6 H 0.82170 0.27550 0.85440
C4 C 0.8176(7) 0.3535(7) 0.7285(3)
C5 C 0.7264(8) 0.5616(8) 0.7366(3)
C6 C 0.8669(7) 0.2792(7) 0.6470(3)
H7 H 0.84440 0.36080 0.59960
Cl1 Cl 0.9871(2) -0.1157(2) 0.87206(8)
N2 N 0.4485(7) -0.0191(7) 0.8062(3)
O5 O 0.3755(6) 0.2924(6) 0.5779(2)
O6 O 0.2973(7) 0.5542(6) 0.6539(2)
H8 H 0.29140 0.60380 0.60600
C7 C 0.4017(8) 0.0738(8) 0.8796(3)
H9 H 0.41460 0.00560 0.93120
C8 C 0.3359(8) 0.2629(8) 0.8836(3)
C9 C 0.3104(7) 0.3691(8) 0.8079(3)
H10 H 0.26450 0.49850 0.80920
C10 C 0.3552(7) 0.2765(7) 0.7303(3)
C11 C 0.3398(8) 0.3819(8) 0.6459(3)
C12 C 0.4224(8) 0.0848(8) 0.7322(3)
H11 H 0.45140 0.02330 0.67990
Cl2 Cl 0.2923(3) 0.3695(2) 0.98405(9)
N1A N 1.0541(6) -0.0944(6) 0.3668(2)
O1A O 1.3746(6) -0.6199(5) 0.1909(2)
O2A O 1.2548(7) -0.6647(6) 0.3207(2)
O3A O 1.1349(6) 0.1938(5) 0.4720(2)
H1A H 1.17010 0.23730 0.42580
H2A H 1.21050 0.22580 0.50590
O4A O 0.7077(5) 0.1954(5) 0.4649(2)
H3A H 0.60290 0.22660 0.50010
H4A H 0.80630 0.11360 0.43670
C1A C 1.0172(7) 0.0210(7) 0.2978(3)
H5A H 0.95860 0.14920 0.30620
C2A C 1.0629(8) -0.0427(8) 0.2147(3)
C3A C 1.1462(7) -0.2305(8) 0.2013(3)
H6A H 1.17830 -0.27550 0.14560
C4A C 1.1824(7) -0.3535(7) 0.2715(3)
C5A C 1.2736(8) -0.5616(8) 0.2634(3)
C6A C 1.1331(7) -0.2792(7) 0.3530(3)
H7A H 1.15560 -0.36080 0.40040
Cl1A Cl 1.0129(2) 0.1157(2) 0.12794(8)
#END
