
#######################################################################
#
#                 Cambridge Crystallographic Data Centre
#                                CCDC
#
#######################################################################
#
# If this CIF has been generated from an entry in the Cambridge
# Structural Database, then it will include bibliographic, chemical,
# crystal, experimental, refinement or atomic coordinate data resulting
# from the CCDC's data processing and validation procedures.
#
#######################################################################

data_CSD_CIF_UNUSON
_audit_creation_date 2016-06-07
_audit_creation_method CSD-ConQuest-V1
_database_code_CSD UNUSON
_database_code_depnum_ccdc_archive 'CCDC 1470079'
_chemical_formula_sum 'C12 H11 Cl3 Co1 N6'
_chemical_formula_moiety
;
C6 H5 Cl3 Co1 N3 1-,C6 H6 N3 1+
;
_journal_coden_Cambridge 222
_journal_volume 45
_journal_year 2016
_journal_page_first 10609
_journal_name_full 'Dalton Trans. '
loop_
_publ_author_name
"F.A.Brede"
"F.Muhlbach"
"G.Sextl"
"K.Muller-Buschbaum"
_chemical_name_systematic
;
1H-benzotriazol-3-ium (1H-benzotriazole)-trichloro-cobalt(ii)
;
_cell_volume    783.355
_exptl_crystal_colour 'blue'
_exptl_crystal_density_diffrn 1.717
_exptl_crystal_description 'block'
_diffrn_ambient_temperature 100
#These two values have been output from a single CSD field.
_refine_ls_R_factor_gt 0.0366
_refine_ls_wR_factor_gt 0.0366
_symmetry_cell_setting triclinic
_symmetry_space_group_name_H-M 'P -1'
_symmetry_Int_Tables_number 2
loop_
_symmetry_equiv_pos_site_id
_symmetry_equiv_pos_as_xyz
1 x,y,z
2 -x,-y,-z
_cell_length_a 6.7169(13)
_cell_length_b 9.6741(19)
_cell_length_c 12.513(3)
_cell_angle_alpha 94.91(3)
_cell_angle_beta 103.38(3)
_cell_angle_gamma 94.97(3)
_cell_formula_units_Z 2
loop_
_atom_type_symbol
_atom_type_radius_bond
C 0.68
H 0.23
Cl 0.99
Co 1.26
N 0.68
loop_
_atom_site_label
_atom_site_type_symbol
_atom_site_fract_x
_atom_site_fract_y
_atom_site_fract_z
Co1 Co 0.30143(5) 0.69324(3) 0.75199(3)
Cl1 Cl 0.5396(1) 0.82505(6) 0.88973(4)
Cl2 Cl 0.41448(11) 0.68501(7) 0.59505(5)
N1 N 0.2985(3) 0.49450(19) 0.78934(15)
N2 N 0.3372(3) 0.3383(2) 0.90079(16)
N3 N 0.3475(3) 0.47538(19) 0.89432(15)
C1 C 0.2548(3) 0.3673(2) 0.72613(18)
C2 C 0.2800(3) 0.2650(2) 0.79884(18)
C3 C 0.1978(3) 0.3323(2) 0.61113(18)
H1 H 0.18050 0.40140 0.56120
C4 C 0.1683(4) 0.1920(3) 0.5748(2)
H2 H 0.12990 0.16350 0.49760
C5 C 0.2495(3) 0.1219(2) 0.7620(2)
H3 H 0.26640 0.05250 0.81170
C6 C 0.1935(4) 0.0885(2) 0.6495(2)
H4 H 0.17090 -0.00710 0.62050
H5 H 0.376(5) 0.309(4) 0.965(3)
Cl3 Cl -0.01664(11) 0.74722(8) 0.74232(8)
N4 N 0.2873(3) 0.9972(2) 0.28389(15)
H6 H 0.28260 1.07920 0.25840
N5 N 0.3260(3) 0.8458(2) 0.39345(17)
N6 N 0.3362(3) 0.9812(2) 0.38944(16)
C7 C 0.2445(3) 0.8736(2) 0.21793(18)
C8 C 0.2701(3) 0.7722(2) 0.29144(18)
C9 C 0.1885(4) 0.8391(3) 0.10307(19)
H7 H 0.17080 0.90790 0.05290
C10 C 0.1611(4) 0.6986(3) 0.0682(2)
H8 H 0.12330 0.66930 -0.00890
C11 C 0.2410(3) 0.6288(2) 0.2554(2)
H9 H 0.25750 0.55960 0.30530
C12 C 0.1870(4) 0.5957(3) 0.1429(2)
H10 H 0.16610 0.50010 0.11390
H11 H 0.352(5) 0.814(4) 0.454(3)
#END
