
#######################################################################
#
#                 Cambridge Crystallographic Data Centre
#                                CCDC
#
#######################################################################
#
# If this CIF has been generated from an entry in the Cambridge
# Structural Database, then it will include bibliographic, chemical,
# crystal, experimental, refinement or atomic coordinate data resulting
# from the CCDC's data processing and validation procedures.
#
#######################################################################

data_CSD_CIF_UPOROH
_audit_creation_date 2011-06-23
_audit_creation_method CSD-ConQuest-V1
_database_code_CSD UPOROH
_database_code_depnum_ccdc_archive 'CCDC 820515'
_chemical_formula_sum 'C24 H22 Co1 N4 O11'
_chemical_formula_moiety
;
(C24 H20 Co1 N4 O10)n,n(H2 O1)
;
_journal_coden_Cambridge 1147
_journal_volume 10
_journal_year 2010
_journal_page_first 4976
_journal_name_full 'Cryst.Growth Des. '
loop_
_publ_author_name
"N.N.Adarsh"
"P.Sahoo"
"P.Dastidar"
_chemical_name_systematic
;
catena-[(\m~2~-syn-anti-syn-N,N'-bis(Pyridin-3-yl)terephthalamide-N,N')-bis(hy
drogen malonato-O,O')-cobalt(ii) monohydrate]
;
_cell_volume    589.329
_exptl_crystal_colour 'pink'
_exptl_special_details
;
The malonate ligand is modelled as half occupancy and disordered over a 
centre of centre of symmetry located on the cobalt. This gives a 
cobalt:malonate ratio of 1:1 and an unusual cobalt geometry. The authors have 
subsequently suggested an alternative model of two monoprotonated malonate 
ligands and an octahedral cobalt with cobalt:malonate ratio of 1:2. A revised 
structural model is being prepared
;
_exptl_crystal_description 'block'
_diffrn_ambient_temperature 298
_refine_special_details
;
C15,C16,C19,O13,O14,O17,O18 disordered by symmetry over two sites with 
occupancy 0.50; O20 disordered by symmetry over two sites with occupancy 
0.50; Short C=O bond at O2.
;
#These two values have been output from a single CSD field.
_refine_ls_R_factor_gt 0.1582
_refine_ls_wR_factor_gt 0.1582
_symmetry_cell_setting triclinic
_symmetry_space_group_name_H-M 'P -1'
_symmetry_Int_Tables_number 2
loop_
_symmetry_equiv_pos_site_id
_symmetry_equiv_pos_as_xyz
1 x,y,z
2 -x,-y,-z
_cell_length_a 5.883(3)
_cell_length_b 8.621(4)
_cell_length_c 12.088(6)
_cell_angle_alpha 84.727(5)
_cell_angle_beta 76.275(5)
_cell_angle_gamma 82.535(5)
_cell_formula_units_Z 1
loop_
_atom_type_symbol
_atom_type_radius_bond
C 0.68
H 0.23
Co 1.26
N 0.68
O 0.55
loop_
_atom_site_label
_atom_site_type_symbol
_atom_site_fract_x
_atom_site_fract_y
_atom_site_fract_z
O1 O 1.574(7) 1.011(5) -0.478(3)
Co1 Co -1.00000 0.00000 1.00000
N1 N -0.986(2) 0.2354(14) 0.9159(10)
C1 C -1.167(3) 0.341(2) 0.9339(15)
H1 H -1.30210 0.31410 0.98600
C2 C -1.175(3) 0.484(2) 0.8843(16)
H2 H -1.31250 0.55340 0.89830
C3 C -0.969(3) 0.5274(19) 0.8097(15)
H3 H -0.96400 0.62790 0.77440
C4 C -0.776(2) 0.4198(17) 0.7899(13)
C5 C -0.788(3) 0.2765(18) 0.8481(13)
H4 H -0.65220 0.20560 0.84000
N2 N -0.569(2) 0.4646(14) 0.7106(11)
H5 H -0.56320 0.56320 0.69260
C6 C -0.387(3) 0.3700(19) 0.6632(13)
O2 O -0.368(2) 0.2273(13) 0.6855(11)
C7 C -0.187(3) 0.4383(17) 0.5777(12)
C8 C -0.197(3) 0.5966(19) 0.5455(19)
H6 H -0.32850 0.66490 0.57490
C9 C -0.001(4) 0.347(2) 0.5337(18)
H7 H 0.00460 0.24020 0.55470
O3 O -0.769(3) -0.0930(17) 0.8648(14)
O4 O -0.607(4) -0.190(3) 0.6973(19)
C10 C -0.992(6) -0.046(4) 0.736(3)
C11 C -1.217(7) -0.085(4) 0.813(3)
O5 O -1.282(3) -0.0308(18) 0.9330(13)
O6 O -1.355(4) -0.143(3) 0.781(2)
C12 C -0.793(6) -0.110(4) 0.807(3)
O1A O 1.426(7) 0.989(5) -0.522(3)
Co1* Co 1.00000 1.00000 0.00000
N1A N 0.986(2) 0.7646(14) 0.0841(10)
N1A* N -1.014(2) -0.2354(14) 1.0841(10)
C1A C 1.167(3) 0.659(2) 0.0661(15)
H1A H 1.30210 0.68590 0.01400
C2A C 1.175(3) 0.516(2) 0.1157(16)
H2A H 1.31250 0.44660 0.10170
C3A C 0.969(3) 0.4726(19) 0.1903(15)
H3A H 0.96400 0.37210 0.22560
C4A C 0.776(2) 0.5802(17) 0.2101(13)
C5A C 0.788(3) 0.7235(18) 0.1519(13)
H4A H 0.65220 0.79440 0.16000
N2A N 0.569(2) 0.5354(14) 0.2894(11)
H5A H 0.56320 0.43680 0.30740
C6A C 0.387(3) 0.6300(19) 0.3368(13)
O2A O 0.368(2) 0.7727(13) 0.3145(11)
C7A C 0.187(3) 0.5617(17) 0.4223(12)
C8A C 0.197(3) 0.4034(19) 0.4545(19)
H6A H 0.32850 0.33510 0.42510
C9A C 0.001(4) 0.653(2) 0.4663(18)
H7A H -0.00460 0.75980 0.44530
O3A O -1.231(3) 0.0930(17) 1.1352(14)
O4A O -1.393(4) 0.190(3) 1.3027(19)
C10A C -1.008(6) 0.046(4) 1.264(3)
C11A C -0.783(7) 0.085(4) 1.187(3)
O5A O -0.718(3) 0.0308(18) 1.0670(13)
O6A O -0.645(4) 0.143(3) 1.219(2)
C12A C -1.207(6) 0.110(4) 1.193(3)
#END
