
#######################################################################
#
#                 Cambridge Crystallographic Data Centre
#                                CCDC
#
#######################################################################
#
# If this CIF has been generated from an entry in the Cambridge
# Structural Database, then it will include bibliographic, chemical,
# crystal, experimental, refinement or atomic coordinate data resulting
# from the CCDC's data processing and validation procedures.
#
#######################################################################

data_CSD_CIF_UPUNAV
_audit_creation_date 2011-07-11
_audit_creation_method CSD-ConQuest-V1
_database_code_CSD UPUNAV
_database_code_depnum_ccdc_archive 'CCDC 766981'
_chemical_formula_sum 'C18 H19 Fe1 N1 O2'
_chemical_formula_moiety
;
C18 H19 Fe1 N1 O2
;
_journal_coden_Cambridge 493
_journal_volume 46
_journal_year 2011
_journal_page_first 2310
_journal_name_full 'Eur.J.Med.Chem. '
loop_
_publ_author_name
"J.Guillon"
"E.Mouray"
"S.Moreau"
"C.Mullie"
"I.Forfar"
"V.Desplat"
"S.Belisle-Fabre"
"N.Pinaud"
"F.Ravanello"
"A.Le-Naour"
"J.-M.Leger"
"G.Gosmann"
"C.Jarry"
"G.Deleris"
"P.Sonnet"
"P.Grellier"
_chemical_name_systematic
;
Ethyl 3-ferrocenyl-4-methyl-1H-pyrrole-2-carboxylate
;
_cell_volume    739.540
_exptl_crystal_colour 'red'
_exptl_crystal_density_diffrn 1.514
_exptl_crystal_description 'hexagonal platelet'
_diffrn_ambient_temperature 93
_diffrn_radiation_probe x-ray
_diffrn_source synchrotron
#These two values have been output from a single CSD field.
_refine_ls_R_factor_gt 0.0677
_refine_ls_wR_factor_gt 0.0677
_symmetry_cell_setting triclinic
_symmetry_space_group_name_H-M 'P -1'
_symmetry_Int_Tables_number 2
loop_
_symmetry_equiv_pos_site_id
_symmetry_equiv_pos_as_xyz
1 x,y,z
2 -x,-y,-z
_cell_length_a 7.3059(2)
_cell_length_b 7.3059(2)
_cell_length_c 14.2791(5)
_cell_angle_alpha 94.216(2)
_cell_angle_beta 94.216(2)
_cell_angle_gamma 102.299(1)
_cell_formula_units_Z 2
loop_
_atom_type_symbol
_atom_type_radius_bond
C 0.68
H 0.23
Fe 1.52
N 0.68
O 0.68
loop_
_atom_site_label
_atom_site_type_symbol
_atom_site_fract_x
_atom_site_fract_y
_atom_site_fract_z
Fe1 Fe 0.87324(8) 1.03837(8) 0.18275(4)
C1 C 0.6805(7) 1.1443(7) 0.2551(3)
H1 H 0.64630 1.11720 0.31630
C2 C 0.8281(6) 1.2937(6) 0.2336(3)
H2 H 0.90980 1.38320 0.27790
C3 C 0.8303(6) 1.2841(6) 0.1334(3)
H3 H 0.91380 1.36650 0.09930
C4 C 0.6866(6) 1.1305(6) 0.0939(3)
H4 H 0.65680 1.09180 0.02860
C5 C 0.5943(6) 1.0437(7) 0.1687(4)
H5 H 0.49250 0.93690 0.16200
C6 C 0.8939(6) 0.7612(5) 0.1705(3)
H6 H 0.79240 0.65480 0.15700
C7 C 0.9969(6) 0.8633(6) 0.1025(3)
H7 H 0.97630 0.83600 0.03600
C8 C 1.1356(6) 1.0128(6) 0.1516(3)
H8 H 1.22400 1.10260 0.12370
C9 C 1.1188(6) 1.0045(6) 0.2499(3)
H9 H 1.19320 1.08870 0.29890
C10 C 0.9695(6) 0.8464(6) 0.2626(3)
C11 C 0.9225(6) 0.7778(6) 0.3541(3)
C12 C 0.7512(6) 0.6743(6) 0.3817(3)
N1 N 0.7840(5) 0.6389(5) 0.4739(3)
H10 H 0.69960 0.57550 0.50710
C13 C 0.9641(7) 0.7153(7) 0.5060(3)
H11 H 1.01880 0.71110 0.56800
C14 C 1.0562(6) 0.8004(6) 0.4346(3)
C15 C 1.2621(6) 0.8910(7) 0.4443(3)
H12 H 1.32570 0.84040 0.49600
H13 H 1.27870 1.02730 0.45780
H14 H 1.31630 0.86450 0.38540
C16 C 0.5601(6) 0.5937(6) 0.3388(3)
O1 O 0.4396(5) 0.5018(5) 0.3812(2)
O2 O 0.5297(4) 0.6280(5) 0.2493(2)
C17 C 0.3437(6) 0.5453(7) 0.2019(3)
H15 H 0.25710 0.63040 0.21270
H16 H 0.29150 0.42360 0.22650
C18 C 0.3662(7) 0.5161(7) 0.0983(3)
H17 H 0.43820 0.41890 0.08760
H18 H 0.43310 0.63420 0.07660
H19 H 0.24180 0.47630 0.06320
#END
