
#######################################################################
#
#                 Cambridge Crystallographic Data Centre
#                                CCDC
#
#######################################################################
#
# If this CIF has been generated from an entry in the Cambridge
# Structural Database, then it will include bibliographic, chemical,
# crystal, experimental, refinement or atomic coordinate data resulting
# from the CCDC's data processing and validation procedures.
#
#######################################################################

data_CSD_CIF_UYAQUI
_audit_creation_date 2016-10-07
_audit_creation_method CSD-ConQuest-V1
_database_code_CSD UYAQUI
_database_code_depnum_ccdc_archive 'CCDC 1508852'
_chemical_formula_sum 'C7 H11 Fe1 N2 O11'
_chemical_formula_moiety
;
C7 H7 Fe1 N2 O9,2(H2 O1)
;
_journal_coden_Cambridge 1078
_journal_year 2016
_journal_name_full 'CSD Communication(Private Communication) '
loop_
_publ_author_name
"G.Ahadiat"
"M.Tabatabaee"
"K.Gholivand"
"M.Duzek"
_chemical_name_systematic
;
diaqua-(nitrato)-(pyridine-2,6-dicarboxylato)-iron dihydrate
;
_cell_volume    647.008
_exptl_crystal_colour 'white'
_exptl_crystal_density_diffrn 1.822
_exptl_crystal_description 'polygon'
_diffrn_ambient_temperature 120
#These two values have been output from a single CSD field.
_refine_ls_R_factor_gt 0.0342
_refine_ls_wR_factor_gt 0.0342
_symmetry_cell_setting triclinic
_symmetry_space_group_name_H-M 'P -1'
_symmetry_Int_Tables_number 2
loop_
_symmetry_equiv_pos_site_id
_symmetry_equiv_pos_as_xyz
1 x,y,z
2 -x,-y,-z
_cell_length_a 6.6105(4)
_cell_length_b 9.8990(6)
_cell_length_c 10.2355(6)
_cell_angle_alpha 94.893(5)
_cell_angle_beta 98.025(5)
_cell_angle_gamma 100.875(5)
_cell_formula_units_Z 2
loop_
_atom_type_symbol
_atom_type_radius_bond
C 0.68
H 0.23
Fe 1.52
N 0.68
O 0.68
loop_
_atom_site_label
_atom_site_type_symbol
_atom_site_fract_x
_atom_site_fract_y
_atom_site_fract_z
Fe1 Fe 0.05883(5) 0.39354(3) 0.27449(3)
O1 O 0.3063(3) 0.55297(16) 0.22131(17)
O2 O 0.3044(3) 0.07184(16) 0.11898(18)
O3 O 0.3021(3) 0.77145(15) 0.27152(17)
O4 O -0.4671(2) 0.26135(16) 0.45066(16)
O5 O 0.0631(2) 0.60789(15) 0.32107(16)
O6 O -0.2050(2) 0.39173(15) 0.37192(15)
O7 O 0.2377(3) 0.40177(18) 0.44990(18)
O8 O 0.2396(2) 0.28013(15) 0.17739(16)
N1 N 0.2278(3) 0.65031(19) 0.27110(19)
O9 O -0.1125(3) 0.40376(17) 0.10261(17)
N2 N -0.0688(3) 0.18470(18) 0.28570(18)
C1 C -0.3184(4) 0.0142(2) 0.3580(2)
C2 C -0.2245(4) -0.0878(2) 0.3063(3)
C3 C -0.2344(3) 0.1507(2) 0.3460(2)
C4 C -0.0539(4) -0.0521(2) 0.2426(3)
C5 C 0.2032(4) 0.1476(2) 0.1716(2)
C6 C 0.0209(4) 0.0865(2) 0.2347(2)
C7 C -0.3130(3) 0.2764(2) 0.3945(2)
H1 H -0.43842 -0.00921 0.40090
H2 H -0.27785 -0.18328 0.31464
H3 H 0.01081 -0.12193 0.20496
H4 H 0.332(5) 0.369(3) 0.453(3)
H5 H -0.162(4) 0.467(3) 0.100(3)
H6 H -0.187(4) 0.338(3) 0.069(3)
H7 H 0.235(4) 0.452(3) 0.506(3)
O10 O 0.7065(3) 0.61756(19) 0.0745(2)
H8 H 0.695(5) 0.636(3) 0.002(3)
H9 H 0.610(5) 0.621(3) 0.096(3)
O11 O 0.6269(3) 0.18293(19) -0.0009(2)
H10 H 0.537(5) 0.146(3) 0.038(3)
H11 H 0.658(5) 0.127(3) -0.041(3)
#END
