
#######################################################################
#
#                 Cambridge Crystallographic Data Centre
#                                CCDC
#
#######################################################################
#
# If this CIF has been generated from an entry in the Cambridge
# Structural Database, then it will include bibliographic, chemical,
# crystal, experimental, refinement or atomic coordinate data resulting
# from the CCDC's data processing and validation procedures.
#
#######################################################################

data_CSD_CIF_UYERAT
_audit_creation_date 2016-10-10
_audit_creation_method CSD-ConQuest-V1
_database_code_CSD UYERAT
_database_code_depnum_ccdc_archive 'CCDC 1452809'
_chemical_formula_sum 'C19 H26 Fe1 I1 N1 O2'
_chemical_formula_moiety
;
C19 H26 Fe1 N1 O2 1+,I1 1-
;
_journal_coden_Cambridge 1290
_journal_year 2016
_journal_page_first 4573
_journal_name_full 'Eur.J.Inorg.Chem. '
loop_
_publ_author_name
"C.B.Bouvet"
"H.Krautscheid"
_chemical_name_systematic
;
(1R,2S)-1-ethyl-2-(((ferrocenylcarbonyl)oxy)methyl)-1-methylpyrrolidinium 
iodide
;
_cell_volume    956.298
_exptl_crystal_colour 'orange'
_exptl_crystal_density_diffrn 1.678
_exptl_crystal_description 'needle'
_diffrn_ambient_temperature 213
#These two values have been output from a single CSD field.
_refine_ls_R_factor_gt 0.0296
_refine_ls_wR_factor_gt 0.0296
loop_
_citation_database_id_CSD
_citation_special_details
UYEREX "is a stereoisomer of this entry"
_symmetry_cell_setting monoclinic
_symmetry_space_group_name_H-M 'P 21'
_symmetry_Int_Tables_number 4
loop_
_symmetry_equiv_pos_site_id
_symmetry_equiv_pos_as_xyz
1 x,y,z
2 -x,1/2+y,-z
_cell_length_a 7.5550(18)
_cell_length_b 12.554(2)
_cell_length_c 10.117(3)
_cell_angle_alpha 90
_cell_angle_beta 94.72(2)
_cell_angle_gamma 90
_cell_formula_units_Z 2
loop_
_atom_type_symbol
_atom_type_radius_bond
C 0.68
H 0.23
Fe 1.52
I 1.40
N 0.68
O 0.68
loop_
_atom_site_label
_atom_site_type_symbol
_atom_site_fract_x
_atom_site_fract_y
_atom_site_fract_z
C1 C -0.0557(9) 0.6853(7) 0.6491(7)
H1 H 0.01100 0.65400 0.72800
C2 C -0.1429(9) 0.6277(6) 0.5438(8)
H2 H -0.14970 0.54910 0.53620
C3 C -0.2209(8) 0.7019(6) 0.4515(7)
H3 H -0.29040 0.68380 0.36730
C4 C -0.1831(8) 0.8059(6) 0.4984(7)
H4 H -0.22100 0.87330 0.45390
C5 C -0.0781(8) 0.7952(7) 0.6233(7)
H5 H -0.03030 0.85420 0.68060
C6 C 0.3094(7) 0.6814(4) 0.4851(6)
C7 C 0.2906(8) 0.7912(5) 0.4559(6)
H6 H 0.34360 0.85060 0.51010
C8 C 0.1817(9) 0.8011(6) 0.3356(7)
H7 H 0.14440 0.86910 0.29220
C9 C 0.1305(9) 0.6989(6) 0.2900(7)
H8 H 0.05380 0.68230 0.20850
C10 C 0.2099(8) 0.6239(6) 0.3815(7)
H9 H 0.19870 0.54550 0.37490
C11 C 0.4023(7) 0.6311(4) 0.6020(6)
C12 C 0.5476(8) 0.6654(4) 0.8154(6)
H10 H 0.65760 0.62700 0.80200
H11 H 0.46610 0.61620 0.85500
C13 C 0.5865(7) 0.7580(4) 0.9053(6)
H12 H 0.67440 0.80430 0.86580
C14 C 0.6618(9) 0.7258(6) 1.0447(7)
H13 H 0.62120 0.65420 1.06620
H14 H 0.79200 0.72580 1.05030
C15 C 0.5943(9) 0.8077(5) 1.1405(7)
H15 H 0.51890 0.77360 1.20250
H16 H 0.69370 0.84290 1.19120
C16 C 0.4878(8) 0.8875(4) 1.0526(5)
H17 H 0.38740 0.91520 1.09760
H18 H 0.56280 0.94730 1.02960
C17 C 0.2700(8) 0.7562(5) 0.9623(7)
H19 H 0.30770 0.70870 1.03480
H20 H 0.23010 0.71460 0.88460
H21 H 0.17330 0.80060 0.98770
C18 C 0.3574(7) 0.8996(4) 0.8186(6)
H22 H 0.29210 0.85720 0.74940
H23 H 0.27360 0.95030 0.85250
C19 C 0.5010(8) 0.9614(5) 0.7565(7)
H24 H 0.57720 0.99580 0.82560
H25 H 0.44680 1.01490 0.69700
H26 H 0.57100 0.91310 0.70710
Fe1 Fe 0.04782(12) 0.72251(6) 0.47482(10)
N1 N 0.4236(6) 0.8258(3) 0.9306(5)
O1 O 0.4210(6) 0.5364(3) 0.6201(5)
O2 O 0.4680(5) 0.7044(3) 0.6901(4)
I1 I 0.96371(5) 1.00000(2) 1.02564(5)
#END
