
#######################################################################
#
#                 Cambridge Crystallographic Data Centre
#                                CCDC
#
#######################################################################
#
# If this CIF has been generated from an entry in the Cambridge
# Structural Database, then it will include bibliographic, chemical,
# crystal, experimental, refinement or atomic coordinate data resulting
# from the CCDC's data processing and validation procedures.
#
#######################################################################

data_CSD_CIF_UYIBOU
_audit_creation_date 2011-09-06
_audit_creation_method CSD-ConQuest-V1
_database_code_CSD UYIBOU
_database_code_depnum_ccdc_archive 'CCDC 789370'
_chemical_formula_sum 'C30 H36 Br2 Fe1 N6 O8 P2'
_chemical_formula_moiety
;
C30 H24 Fe1 N6 O2 P2 2+,2(Br1 1-),6(H2 O1)
;
_journal_coden_Cambridge 1147
_journal_volume 11
_journal_year 2011
_journal_page_first 933
_journal_name_full 'Cryst.Growth Des. '
loop_
_publ_author_name
"A.Bakhoda"
"H.R.Khavasi"
"N.Safari"
_chemical_name_systematic
;
(tris(2-Pyridyl)phosphine oxide)-iron dibromide hexahydrate
;
_cell_volume   2573.470
_exptl_crystal_colour 'orange'
_exptl_crystal_density_diffrn 1.685
_exptl_crystal_description 'prism'
_diffrn_ambient_temperature 298
#These two values have been output from a single CSD field.
_refine_ls_R_factor_gt 0.052
_refine_ls_wR_factor_gt 0.052
_symmetry_cell_setting rhombohedral
_symmetry_space_group_name_H-M 'R -3'
_symmetry_Int_Tables_number 148
loop_
_symmetry_equiv_pos_site_id
_symmetry_equiv_pos_as_xyz
1 x,y,z
2 -y,x-y,z
3 -x+y,-x,z
4 2/3+x,1/3+y,1/3+z
5 2/3-y,1/3+x-y,1/3+z
6 2/3-x+y,1/3-x,1/3+z
7 1/3+x,2/3+y,2/3+z
8 1/3-y,2/3+x-y,2/3+z
9 1/3-x+y,2/3-x,2/3+z
10 -x,-y,-z
11 y,-x+y,-z
12 x-y,x,-z
13 -2/3-x,-1/3-y,-1/3-z
14 -2/3+y,-1/3-x+y,-1/3-z
15 -2/3+x-y,-1/3+x,-1/3-z
16 -1/3-x,-2/3-y,-2/3-z
17 -1/3+y,-2/3-x+y,-2/3-z
18 -1/3+x-y,-2/3+x,-2/3-z
_cell_length_a 9.8606(11)
_cell_length_b 9.8606(11)
_cell_length_c 30.562(5)
_cell_angle_alpha 90
_cell_angle_beta 90
_cell_angle_gamma 120
_cell_formula_units_Z 3
loop_
_atom_type_symbol
_atom_type_radius_bond
C 0.68
H 0.23
Br 1.21
Fe 1.52
N 0.68
O 0.68
P 1.05
loop_
_atom_site_label
_atom_site_type_symbol
_atom_site_fract_x
_atom_site_fract_y
_atom_site_fract_z
C1 C -0.1815(3) -0.0456(3) 0.41860(9)
C2 C -0.3103(4) -0.0756(4) 0.39311(11)
H1 H -0.302(6) -0.061(5) 0.3588(14)
C3 C -0.4491(4) -0.1104(4) 0.41292(13)
H2 H -0.528(6) -0.124(6) 0.3981(16)
C4 C -0.4575(4) -0.1172(4) 0.45833(12)
H3 H -0.561(6) -0.147(5) 0.4738(14)
C5 C -0.3258(3) -0.0866(4) 0.48193(11)
H4 H -0.327(5) -0.092(5) 0.5160(12)
N1 N -0.1878(3) -0.0501(3) 0.46316(8)
O1 O 0.00000 0.00000 0.3442(5)
P1 P 0.00000 0.00000 0.39092(4)
Fe1 Fe 0.00000 0.00000 0.50000
O2 O 0.5576(4) -0.3564(5) 0.69426(14)
H5 H 0.492(7) -0.430(7) 0.6785(16)
H6 H 0.532(7) -0.346(7) 0.717(2)
Br1 Br 0.33330 -0.33330 0.55966(2)
C1B C 0.1359(3) 0.1815(3) 0.41860(9)
C1A C 0.0456(3) -0.1359(3) 0.41860(9)
C1I C 0.1815(3) 0.0456(3) 0.58140(9)
C1K C -0.1359(3) -0.1815(3) 0.58140(9)
C1J C -0.0456(3) 0.1359(3) 0.58140(9)
C2B C 0.2347(4) 0.3103(4) 0.39311(11)
C2A C 0.0756(4) -0.2347(4) 0.39311(11)
C2I C 0.3103(4) 0.0756(4) 0.60689(11)
C2K C -0.2347(4) -0.3103(4) 0.60689(11)
C2J C -0.0756(4) 0.2347(4) 0.60689(11)
H1B H 0.241(6) 0.302(5) 0.3588(14)
H1A H 0.061(6) -0.241(5) 0.3588(14)
H1I H 0.302(6) 0.061(5) 0.6412(14)
H1K H -0.241(6) -0.302(5) 0.6412(14)
H1J H -0.061(6) 0.241(5) 0.6412(14)
C3B C 0.3387(4) 0.4491(4) 0.41292(13)
C3A C 0.1104(4) -0.3387(4) 0.41292(13)
C3I C 0.4491(4) 0.1104(4) 0.58708(13)
C3K C -0.3387(4) -0.4491(4) 0.58708(13)
C3J C -0.1104(4) 0.3387(4) 0.58708(13)
H2B H 0.404(6) 0.528(6) 0.3981(16)
H2A H 0.124(6) -0.404(6) 0.3981(16)
H2I H 0.528(6) 0.124(6) 0.6019(16)
H2K H -0.404(6) -0.528(6) 0.6019(16)
H2J H -0.124(6) 0.404(6) 0.6019(16)
C4B C 0.3403(4) 0.4575(4) 0.45833(12)
C4A C 0.1172(4) -0.3403(4) 0.45833(12)
C4I C 0.4575(4) 0.1172(4) 0.54167(12)
C4K C -0.3403(4) -0.4575(4) 0.54167(12)
C4J C -0.1172(4) 0.3403(4) 0.54167(12)
H3B H 0.414(6) 0.561(5) 0.4738(14)
H3A H 0.147(6) -0.414(5) 0.4738(14)
H3I H 0.561(6) 0.147(5) 0.5262(14)
H3K H -0.414(6) -0.561(5) 0.5262(14)
H3J H -0.147(6) 0.414(5) 0.5262(14)
C5B C 0.2392(3) 0.3258(4) 0.48193(11)
C5A C 0.0866(3) -0.2392(4) 0.48193(11)
C5I C 0.3258(3) 0.0866(4) 0.51807(11)
C5K C -0.2392(3) -0.3258(4) 0.51807(11)
C5J C -0.0866(3) 0.2392(4) 0.51807(11)
H4B H 0.235(5) 0.327(5) 0.5160(12)
H4A H 0.092(5) -0.235(5) 0.5160(12)
H4I H 0.327(5) 0.092(5) 0.4840(12)
H4K H -0.235(5) -0.327(5) 0.4840(12)
H4J H -0.092(5) 0.235(5) 0.4840(12)
N1B N 0.1377(3) 0.1878(3) 0.46316(8)
N1A N 0.0501(3) -0.1377(3) 0.46316(8)
N1I N 0.1878(3) 0.0501(3) 0.53684(8)
N1K N -0.1377(3) -0.1878(3) 0.53684(8)
N1J N -0.0501(3) 0.1377(3) 0.53684(8)
O1I O 0.00000 0.00000 0.6558(5)
P1I P 0.00000 0.00000 0.60908(4)
#END
