
#######################################################################
#
#                 Cambridge Crystallographic Data Centre
#                                CCDC
#
#######################################################################
#
# If this CIF has been generated from an entry in the Cambridge
# Structural Database, then it will include bibliographic, chemical,
# crystal, experimental, refinement or atomic coordinate data resulting
# from the CCDC's data processing and validation procedures.
#
#######################################################################

data_CSD_CIF_VADQUN
_audit_creation_date 2003-03-19
_audit_creation_method CSD-ConQuest-V1
_database_code_CSD VADQUN
_database_code_depnum_ccdc_archive 'CCDC 202968'
_chemical_formula_sum 'C32 H34 Co1 N4 O10'
_chemical_formula_moiety
;
C20 H24 Co1 N4 O4 2+,C12 H6 O4 2-,2(H2 O1)
;
_journal_coeditor_code "IUCr CM6026"
_journal_coden_Cambridge 1370
_journal_volume 59
_journal_year 2003
_journal_page_first m8
_journal_name_full 'Acta Crystallogr.,Sect.E:Struct.Rep.Online '
loop_
_publ_author_name
"F.A.A.Paz"
"Y.Z.Khimyak"
"J.Klinowski"
_chemical_name_systematic
;
bis(4,4'-Bipyridine)-tetra-aqua-cobalt(ii) 2,6-naphthalenedicarboxylate 
dihydrate
;
_cell_volume    753.617
_exptl_crystal_colour 'colorless'
_exptl_crystal_density_diffrn 1.528
_exptl_crystal_description 'needle'
_diffrn_ambient_temperature 180
#These two values have been output from a single CSD field.
_refine_ls_R_factor_gt 0.046
_refine_ls_wR_factor_gt 0.046
_symmetry_cell_setting triclinic
_symmetry_space_group_name_H-M 'P -1'
_symmetry_Int_Tables_number 2
loop_
_symmetry_equiv_pos_site_id
_symmetry_equiv_pos_as_xyz
1 x,y,z
2 -x,-y,-z
_cell_length_a 6.9856(5)
_cell_length_b 9.2926(11)
_cell_length_c 12.3538(14)
_cell_angle_alpha 78.585(5)
_cell_angle_beta 84.015(7)
_cell_angle_gamma 73.740(7)
_cell_formula_units_Z 1
loop_
_atom_type_symbol
_atom_type_radius_bond
C 0.68
H 0.23
Co 1.33
N 0.68
O 0.68
loop_
_atom_site_label
_atom_site_type_symbol
_atom_site_fract_x
_atom_site_fract_y
_atom_site_fract_z
Co1 Co 0.00000 0.00000 0.00000
O1 O 0.0282(3) 0.2253(3) -0.0172(2)
H1 H 0.140(3) 0.243(4) -0.022(3)
H2 H -0.054(4) 0.305(3) -0.045(3)
O2 O -0.2876(3) 0.0816(3) -0.05407(19)
H3 H -0.380(4) 0.150(3) -0.033(3)
H4 H -0.315(5) 0.060(4) -0.111(2)
N1 N -0.1176(4) 0.0191(3) 0.1663(2)
N2 N -0.3546(4) 0.0322(3) 0.7407(2)
C1 C -0.2266(4) 0.1472(4) 0.2008(3)
H5 H -0.26580 0.23730 0.14730
C2 C -0.2844(5) 0.1540(4) 0.3105(3)
H6 H -0.36230 0.24730 0.33060
C3 C -0.2292(4) 0.0252(3) 0.3918(3)
C4 C -0.1193(5) -0.1075(4) 0.3548(3)
H7 H -0.07940 -0.19970 0.40620
C5 C -0.0687(5) -0.1053(4) 0.2447(3)
H8 H 0.00590 -0.19800 0.22230
C6 C -0.2590(5) -0.0958(4) 0.7025(3)
H9 H -0.21700 -0.18690 0.75470
C7 C -0.2179(5) -0.1029(4) 0.5913(3)
H10 H -0.14850 -0.19690 0.56920
C8 C -0.2778(4) 0.0269(4) 0.5120(3)
C9 C -0.3809(5) 0.1597(4) 0.5512(3)
H11 H -0.42760 0.25180 0.50070
C10 C -0.4155(5) 0.1574(4) 0.6640(3)
H12 H -0.48620 0.24950 0.68840
O3 O 0.2499(3) 0.5218(3) 0.11565(19)
O4 O 0.4913(3) 0.5177(3) 0.22336(18)
C11 C 0.3174(5) 0.5157(3) 0.2074(3)
C12 C 0.1736(4) 0.5057(3) 0.3090(3)
C13 C 0.2309(4) 0.5086(3) 0.4112(3)
H13 H 0.36270 0.51360 0.41870
C14 C 0.0979(4) 0.5043(3) 0.5060(3)
C15 C 0.1538(4) 0.5079(3) 0.6127(3)
H14 H 0.28480 0.51360 0.62170
C16 C -0.0226(4) 0.4969(3) 0.2976(3)
H15 H -0.06290 0.49420 0.22700
O5 O 0.3739(3) 0.3226(3) -0.0310(2)
H16 H 0.398(5) 0.374(3) -0.0914(18)
H17 H 0.348(5) 0.375(3) 0.018(2)
O1A O -0.0282(3) -0.2253(3) 0.0172(2)
H1A H -0.140(3) -0.243(4) 0.022(3)
H2A H 0.054(4) -0.305(3) 0.045(3)
O2A O 0.2876(3) -0.0816(3) 0.05407(19)
H3A H 0.380(4) -0.150(3) 0.033(3)
H4A H 0.315(5) -0.060(4) 0.111(2)
N1A N 0.1176(4) -0.0191(3) -0.1663(2)
C1A C 0.2266(4) -0.1472(4) -0.2008(3)
H5A H 0.26580 -0.23730 -0.14730
C2A C 0.2844(5) -0.1540(4) -0.3105(3)
H6A H 0.36230 -0.24730 -0.33060
C3A C 0.2292(4) -0.0252(3) -0.3918(3)
C4A C 0.1193(5) 0.1075(4) -0.3548(3)
H7A H 0.07940 0.19970 -0.40620
C5A C 0.0687(5) 0.1053(4) -0.2447(3)
H8A H -0.00590 0.19800 -0.22230
C8A C 0.2778(4) -0.0269(4) -0.5120(3)
C7A C 0.2179(5) 0.1029(4) -0.5913(3)
C6A C 0.2590(5) 0.0958(4) -0.7025(3)
N2A N 0.3546(4) -0.0322(3) -0.7407(2)
C10A C 0.4155(5) -0.1574(4) -0.6640(3)
C9A C 0.3809(5) -0.1597(4) -0.5512(3)
H11A H 0.42760 -0.25180 -0.50070
H12A H 0.48620 -0.24950 -0.68840
H9A H 0.21700 0.18690 -0.75470
H10A H 0.14850 0.19690 -0.56920
C14A C -0.0979(4) 0.4957(3) 0.4940(3)
C13A C -0.2309(4) 0.4914(3) 0.5888(3)
C12A C -0.1736(4) 0.4943(3) 0.6910(3)
C11A C -0.3174(5) 0.4843(3) 0.7926(3)
O3A O -0.2499(3) 0.4782(3) 0.88435(19)
O4A O -0.4913(3) 0.4823(3) 0.77664(18)
C16A C 0.0226(4) 0.5031(3) 0.7024(3)
H15A H 0.06290 0.50580 0.77300
H13A H -0.36270 0.48640 0.58130
C15A C -0.1538(4) 0.4921(3) 0.3873(3)
H14A H -0.28480 0.48640 0.37830
#END
