
#######################################################################
#
#                 Cambridge Crystallographic Data Centre
#                                CCDC
#
#######################################################################
#
# If this CIF has been generated from an entry in the Cambridge
# Structural Database, then it will include bibliographic, chemical,
# crystal, experimental, refinement or atomic coordinate data resulting
# from the CCDC's data processing and validation procedures.
#
#######################################################################

data_CSD_CIF_VAGBIQ
_audit_creation_date 2011-03-04
_audit_creation_method CSD-ConQuest-V1
_database_code_CSD VAGBIQ
_database_code_depnum_ccdc_archive 'CCDC 679243'
_chemical_formula_sum 'C4 H16 Br2 Cl1 Cr1 N4 O4'
_chemical_formula_moiety
;
C4 H16 Br2 Cr1 N4 1+,Cl1 O4 1-
;
_journal_coden_Cambridge 1003
_journal_volume 40
_journal_year 2010
_journal_page_first 567
_journal_name_full 'J.Chem.Cryst. '
loop_
_publ_author_name
"Jong-Ha Choi"
"W.Clegg"
"R.W.Harrington"
"Sang Hak Lee"
_chemical_name_systematic
;
trans-Dibromo-bis(ethane-1,2-diamine-N,N')-chromium(iii) perchlorate
;
_cell_volume    648.867
_exptl_crystal_colour 'green'
_exptl_crystal_density_diffrn 2.208
_exptl_crystal_description 'block'
_diffrn_ambient_temperature 150
#These two values have been output from a single CSD field.
_refine_ls_R_factor_gt 0.0328
_refine_ls_wR_factor_gt 0.0328
_symmetry_cell_setting triclinic
_symmetry_space_group_name_H-M 'P -1'
_symmetry_Int_Tables_number 2
loop_
_symmetry_equiv_pos_site_id
_symmetry_equiv_pos_as_xyz
1 x,y,z
2 -x,-y,-z
_cell_length_a 6.853(4)
_cell_length_b 8.109(5)
_cell_length_c 12.475(8)
_cell_angle_alpha 81.006(10)
_cell_angle_beta 77.005(10)
_cell_angle_gamma 74.981(10)
_cell_formula_units_Z 2
loop_
_atom_type_symbol
_atom_type_radius_bond
C 0.68
H 0.23
Br 1.21
Cl 0.99
Cr 1.39
N 0.68
O 0.68
loop_
_atom_site_label
_atom_site_type_symbol
_atom_site_fract_x
_atom_site_fract_y
_atom_site_fract_z
Br1 Br 0.30323(5) 0.47566(4) -0.13786(3)
Br2 Br 0.29433(5) 0.38247(4) 0.40400(2)
Cr1 Cr 0.50000 0.50000 0.00000
Cr2 Cr 0.50000 0.50000 0.50000
Cl1 Cl -0.02195(12) 0.88379(10) 0.22031(6)
O1 O -0.1334(7) 1.0375(6) 0.2655(5)
O2 O -0.0878(5) 0.7406(5) 0.2882(3)
O3 O -0.0552(5) 0.8840(5) 0.1118(2)
O4 O 0.1945(4) 0.8613(4) 0.2165(2)
N1 N 0.2537(4) 0.4549(4) 0.1233(2)
H1 H 0.264(6) 0.483(5) 0.188(2)
H2 H 0.136(5) 0.514(6) 0.103(4)
N2 N 0.6005(4) 0.2337(4) 0.0231(2)
H3 H 0.728(4) 0.201(6) 0.035(4)
H4 H 0.587(8) 0.197(6) -0.036(3)
N3 N 0.2279(4) 0.6368(3) 0.5888(2)
H5 H 0.245(6) 0.662(5) 0.653(2)
H6 H 0.139(5) 0.569(5) 0.605(3)
N4 N 0.4769(4) 0.7220(3) 0.3909(2)
H7 H 0.436(7) 0.714(6) 0.329(3)
H8 H 0.596(4) 0.749(5) 0.366(3)
C1 C 0.2539(6) 0.2698(5) 0.1349(3)
H9 H 0.19270 0.24550 0.07600
H10 H 0.17150 0.23760 0.20750
C2 C 0.4725(6) 0.1689(5) 0.1257(3)
H11 H 0.52630 0.18000 0.19090
H12 H 0.47900 0.04590 0.12400
C3 C 0.1485(5) 0.7943(4) 0.5175(3)
H13 H 0.05370 0.88170 0.56390
H14 H 0.07190 0.76650 0.46690
C4 C 0.3302(5) 0.8632(4) 0.4514(3)
H15 H 0.28310 0.96190 0.39830
H16 H 0.39850 0.90240 0.50140
Br1A Br 0.69677(5) 0.52434(4) 0.13786(3)
Br2A Br 0.70567(5) 0.61753(4) 0.59600(2)
N1A N 0.7463(4) 0.5451(4) -0.1233(2)
H1A H 0.736(6) 0.517(5) -0.188(2)
H2A H 0.864(5) 0.486(6) -0.103(4)
N2A N 0.3995(4) 0.7663(4) -0.0231(2)
H3A H 0.272(4) 0.799(6) -0.035(4)
H4A H 0.413(8) 0.803(6) 0.036(3)
N3A N 0.7721(4) 0.3632(3) 0.4112(2)
H5A H 0.755(6) 0.338(5) 0.347(2)
H6A H 0.861(5) 0.431(5) 0.395(3)
N4A N 0.5231(4) 0.2780(3) 0.6091(2)
H7A H 0.564(7) 0.286(6) 0.671(3)
H8A H 0.404(4) 0.251(5) 0.634(3)
C1A C 0.7461(6) 0.7302(5) -0.1349(3)
H9A H 0.80730 0.75450 -0.07600
H10A H 0.82850 0.76240 -0.20750
C2A C 0.5275(6) 0.8311(5) -0.1257(3)
H11A H 0.47370 0.82000 -0.19090
H12A H 0.52100 0.95410 -0.12400
C3A C 0.8515(5) 0.2057(4) 0.4825(3)
H13A H 0.94630 0.11830 0.43610
H14A H 0.92810 0.23350 0.53310
C4A C 0.6698(5) 0.1368(4) 0.5486(3)
H15A H 0.71690 0.03810 0.60170
H16A H 0.60150 0.09760 0.49860
#END
