
#######################################################################
#
#                 Cambridge Crystallographic Data Centre
#                                CCDC
#
#######################################################################
#
# If this CIF has been generated from an entry in the Cambridge
# Structural Database, then it will include bibliographic, chemical,
# crystal, experimental, refinement or atomic coordinate data resulting
# from the CCDC's data processing and validation procedures.
#
#######################################################################

data_CSD_CIF_VAGTAY
_audit_creation_date 1989-11-29
_audit_creation_method CSD-ConQuest-V1
_database_code_CSD VAGTAY
_chemical_formula_sum 'C11 H9 Cl1 Cr1 O3'
_chemical_formula_moiety
;
C11 H9 Cl1 Cr1 O3
;
_journal_coden_Cambridge 36
_journal_volume 363
_journal_year 1989
_journal_page_first 123
_journal_name_full 'J.Organomet.Chem. '
loop_
_publ_author_name
"F.Rose-Munch"
"E.Rose"
"A.Semra"
"M.Filoche"
_chemical_name_systematic
;
Tricarbonyl-(\h^6^-2,6-dimethylchlorophenyl)-chromium
;
_chemical_melting_point 363.15
_cell_volume    565.800
_exptl_crystal_colour 'yellow'
_exptl_crystal_density_diffrn 1.62
_exptl_special_details
;
Melting point range 363.15-365.15K

;
_diffrn_ambient_temperature ?
_diffrn_special_details
;
The study was carried out at room temperature,in the range 283-303K

;
#These two values have been output from a single CSD field.
_refine_ls_R_factor_gt 0.0576
_refine_ls_wR_factor_gt 0.0576
_symmetry_cell_setting triclinic
_symmetry_space_group_name_H-M 'P -1'
_symmetry_Int_Tables_number 2
loop_
_symmetry_equiv_pos_site_id
_symmetry_equiv_pos_as_xyz
1 x,y,z
2 -x,-y,-z
_cell_length_a 6.594(1)
_cell_length_b 7.339(1)
_cell_length_c 12.105(2)
_cell_angle_alpha 89.69(2)
_cell_angle_beta 89.12(2)
_cell_angle_gamma 75.01(2)
_cell_formula_units_Z 2
loop_
_atom_type_symbol
_atom_type_radius_bond
C 0.68
H 0.23
Cl 0.99
Cr 1.35
O 0.68
loop_
_atom_site_label
_atom_site_type_symbol
_atom_site_fract_x
_atom_site_fract_y
_atom_site_fract_z
Cr1 Cr 0.46316(8) 0.24741(8) 0.74177(5)
Cl1 Cl 0.3135(2) -0.1634(2) 0.8338(1)
O1 O 0.6924(6) 0.3788(6) 0.9235(3)
O2 O 0.6850(6) 0.4516(6) 0.5870(3)
O3 O 0.8199(5) -0.0962(5) 0.7172(4)
C1 C 0.2528(5) 0.0645(5) 0.7834(3)
C2 C 0.2086(6) 0.2140(6) 0.8587(4)
C3 C 0.1562(6) 0.3991(6) 0.8139(5)
C4 C 0.1496(6) 0.4288(6) 0.7020(5)
C5 C 0.1966(6) 0.2767(7) 0.6286(4)
C6 C 0.2484(6) 0.0911(6) 0.6682(3)
C7 C 0.2076(8) 0.1838(8) 0.9823(4)
C8 C 0.2903(9) -0.0747(8) 0.5900(4)
C9 C 0.6022(6) 0.3288(6) 0.8549(4)
C10 C 0.5978(6) 0.3743(6) 0.6463(4)
C11 C 0.6834(6) 0.0385(6) 0.7269(4)
H1 H 0.11880 0.50750 0.87500
H2 H 0.11030 0.55680 0.67320
H3 H 0.19790 0.28120 0.55540
H4 H 0.06690 0.14850 1.00690
H5 H 0.21470 0.29520 1.00590
H6 H 0.36180 0.08450 1.00440
H7 H 0.17150 -0.10620 0.59100
H8 H 0.44290 -0.17950 0.61680
H9 H 0.29580 -0.02990 0.52500
#END
