
#######################################################################
#
#                 Cambridge Crystallographic Data Centre
#                                CCDC
#
#######################################################################
#
# If this CIF has been generated from an entry in the Cambridge
# Structural Database, then it will include bibliographic, chemical,
# crystal, experimental, refinement or atomic coordinate data resulting
# from the CCDC's data processing and validation procedures.
#
#######################################################################

data_CSD_CIF_VAKTIK
_audit_creation_date 1989-12-21
_audit_creation_method CSD-ConQuest-V1
_database_code_CSD VAKTIK
_chemical_formula_sum 'C17 H32 Cl1 Co1 N4 O5'
_chemical_formula_moiety
;
C17 H32 Co1 N4 O1 1+,Cl1 O4 1-
;
_journal_coden_Cambridge 9
_journal_volume 28
_journal_year 1989
_journal_page_first 1446
_journal_name_full 'Inorg.Chem. '
loop_
_publ_author_name
"D.J.Szalda"
"E.Fujita"
"C.Creutz"
_chemical_name_systematic
;
Carbonyl-(5,7,7,12,14,14-hexamethyl-1,4,8,11-tetra-azacyclotetradeca-4,11-dien
e-N,N',N'',N''')-cobalt(i) perchlorate
;
_cell_volume   1058.741
_exptl_crystal_colour 'orange'
_exptl_crystal_density_diffrn 1.464
_diffrn_ambient_temperature ?
_diffrn_special_details
;
The study was carried out at room temperature,in the range 283-303K

;
_refine_special_details
;
The perchlorate ion is disordered; O11 and O11' have occupancies of 0.25, 
whilst O12-O14 have 0.5 each. The anion was discarded.
;
#These two values have been output from a single CSD field.
_refine_ls_R_factor_gt 0.057
_refine_ls_wR_factor_gt 0.057
_symmetry_cell_setting monoclinic
_symmetry_space_group_name_H-M 'C 2'
_symmetry_Int_Tables_number 5
loop_
_symmetry_equiv_pos_site_id
_symmetry_equiv_pos_as_xyz
1 x,y,z
2 1/2+x,1/2+y,z
3 -x,y,-z
4 1/2-x,1/2+y,-z
_cell_length_a 15.362(3)
_cell_length_b 7.580(5)
_cell_length_c 9.611(3)
_cell_angle_alpha 90
_cell_angle_beta 108.91(2)
_cell_angle_gamma 90
_cell_formula_units_Z 2
loop_
_atom_type_symbol
_atom_type_radius_bond
C 0.68
H 0.23
Co 1.33
N 0.68
O 0.68
loop_
_atom_site_label
_atom_site_type_symbol
_atom_site_fract_x
_atom_site_fract_y
_atom_site_fract_z
Co1 Co 0.00000 0.00000 0.00000
C1 C 0.00000 0.2370(14) 0.00000
O1 O 0.00000 0.3831(13) 0.00000
N1 N 0.0465(3) -0.0805(8) 0.2276(6)
C2 C -0.0270(5) -0.1936(11) 0.2487(7)
C3 C -0.1188(5) -0.1072(12) 0.1734(7)
N2 N -0.1261(4) -0.0688(8) 0.0202(6)
C4 C -0.20354(4) -0.0690(9) -0.0813(7)
C5 C -0.2948(5) -0.0962(12) -0.0589(9)
C6 C -0.2054(4) -0.0291(10) -0.2374(7)
C7 C 0.1426(4) -0.1492(9) 0.2938(7)
C8 C 0.1733(6) -0.1346(14) 0.4623(8)
C9 C 0.1497(6) -0.3385(10) 0.2519(9)
H1 H 0.0552(3) 0.0236(8) 0.2856(6)
H2 H -0.0254(5) -0.3066(11) 0.2068(7)
H3 H -0.0182(5) -0.2061(11) 0.3507(7)
H4 H -0.1232(5) -0.0006(12) 0.2227(7)
H5 H -0.1671(5) -0.1845(12) 0.1754(7)
H6 H -0.3424(5) -0.0906(12) -0.1512(9)
H7 H -0.3042(5) -0.0066(12) 0.0040(9)
H8 H -0.2957(5) -0.2084(12) -0.0155(9)
H9 H -0.2668(4) -0.0426(10) -0.3012(7)
H10 H -0.1863(4) 0.0896(10) -0.2406(7)
H11 H 0.1690(6) -0.0152(14) 0.4895(8)
H12 H 0.2352(6) -0.1735(14) 0.5028(8)
H13 H 0.1347(6) -0.2060(14) 0.4988(8)
H14 H 0.1308(6) -0.3484(10) 0.1478(9)
H15 H 0.1111(6) -0.4096(10) 0.2887(9)
H16 H 0.2116(6) -0.3771(10) 0.2927(9)
N1B N -0.0465(3) -0.0805(8) -0.2276(6)
N2B N 0.1261(4) -0.0688(8) -0.0202(6)
C7B C -0.1426(4) -0.1492(9) -0.2938(7)
C6B C 0.2054(4) -0.0291(10) 0.2374(7)
C2B C 0.0270(5) -0.1936(11) -0.2487(7)
H1B H -0.0552(3) 0.0236(8) -0.2856(6)
C3B C 0.1188(5) -0.1072(12) -0.1734(7)
C4B C 0.20354(4) -0.0690(9) 0.0813(7)
C8B C -0.1733(6) -0.1346(14) -0.4623(8)
C9B C -0.1497(6) -0.3385(10) -0.2519(9)
H9B H 0.2668(4) -0.0426(10) 0.3012(7)
H10B H 0.1863(4) 0.0896(10) 0.2406(7)
H2B H 0.0254(5) -0.3066(11) -0.2068(7)
H3B H 0.0182(5) -0.2061(11) -0.3507(7)
H4B H 0.1232(5) -0.0006(12) -0.2227(7)
H5B H 0.1671(5) -0.1845(12) -0.1754(7)
C5B C 0.2948(5) -0.0962(12) 0.0589(9)
H11B H -0.1690(6) -0.0152(14) -0.4895(8)
H12B H -0.2352(6) -0.1735(14) -0.5028(8)
H13B H -0.1347(6) -0.2060(14) -0.4988(8)
H14B H -0.1308(6) -0.3484(10) -0.1478(9)
H15B H -0.1111(6) -0.4096(10) -0.2887(9)
H16B H -0.2116(6) -0.3771(10) -0.2927(9)
H6B H 0.3424(5) -0.0906(12) 0.1512(9)
H7B H 0.3042(5) -0.0066(12) -0.0040(9)
H8B H 0.2957(5) -0.2084(12) 0.0155(9)
#END
