
#######################################################################
#
#                 Cambridge Crystallographic Data Centre
#                                CCDC
#
#######################################################################
#
# If this CIF has been generated from an entry in the Cambridge
# Structural Database, then it will include bibliographic, chemical,
# crystal, experimental, refinement or atomic coordinate data resulting
# from the CCDC's data processing and validation procedures.
#
#######################################################################

data_CSD_CIF_VAKVAE
_audit_creation_date 1989-12-21
_audit_creation_method CSD-ConQuest-V1
_database_code_CSD VAKVAE
_chemical_formula_sum 'C17 H32 Cl1 Co1 N4 O7'
_chemical_formula_moiety
;
C17 H32 Co1 N4 O3 1+,Cl1 O4 1-
;
_journal_coden_Cambridge 9
_journal_volume 28
_journal_year 1989
_journal_page_first 1446
_journal_name_full 'Inorg.Chem. '
loop_
_publ_author_name
"D.J.Szalda"
"E.Fujita"
"C.Creutz"
_chemical_name_systematic
;
cis-(Carbonato-O,O')-(5,7,7,12,14,14-hexamethyl-1,4,8,11-tetra-azacyclotetrade
ca-4,11-diene-N,N',N'',N''')-cobalt(iii) perchlorate
;
_cell_volume   1046.550
_exptl_crystal_colour 'red'
_exptl_crystal_density_diffrn 1.584
_diffrn_ambient_temperature ?
_diffrn_special_details
;
The study was carried out at room temperature,in the range 283-303K

;
_refine_special_details
;
The perchlorate ion is disordered and was deleted.

;
#These two values have been output from a single CSD field.
_refine_ls_R_factor_gt 0.033
_refine_ls_wR_factor_gt 0.033
_symmetry_cell_setting monoclinic
_symmetry_space_group_name_H-M 'C 2'
_symmetry_Int_Tables_number 5
loop_
_symmetry_equiv_pos_site_id
_symmetry_equiv_pos_as_xyz
1 x,y,z
2 1/2+x,1/2+y,z
3 -x,y,-z
4 1/2-x,1/2+y,-z
_cell_length_a 15.072(5)
_cell_length_b 7.603(4)
_cell_length_c 9.703(3)
_cell_angle_alpha 90
_cell_angle_beta 109.74(3)
_cell_angle_gamma 90
_cell_formula_units_Z 2
loop_
_atom_type_symbol
_atom_type_radius_bond
C 0.68
H 0.23
Co 1.25
N 0.68
O 0.68
loop_
_atom_site_label
_atom_site_type_symbol
_atom_site_fract_x
_atom_site_fract_y
_atom_site_fract_z
Co1 Co 0.00000 0.00000 0.00000
N1 N -0.04400(13) 0.0086(5) -0.21614(19)
C1 C 0.0353(2) -0.0618(5) -0.2575(3)
C2 C 0.0798(2) -0.2177(4) -0.1626(3)
N2 N 0.08970(19) -0.1758(3) -0.0100(3)
C3 C 0.14653(8) -0.2684(4) 0.0934(3)
C4 C 0.2066(2) -0.4121(5) 0.0662(4)
C5 C 0.1564(2) -0.2413(5) 0.2504(3)
C6 C -0.1420(2) -0.0566(5) -0.3002(3)
C7 C -0.1582(3) -0.0620(6) -0.4651(3)
C8 C -0.2109(2) 0.0724(6) -0.2732(4)
O1 O 0.06946(17) 0.2081(3) -0.0072(3)
C9 C 0.00000 0.3084(6) 0.00000
O2 O 0.00000 0.4681(5) 0.00000
H1 H -0.05744(13) 0.1267(5) -0.24828(19)
H2 H 0.0123(2) -0.09877(5) -0.3571(3)
H3 H 0.0813(2) 0.0277(5) -0.2452(3)
H4 H 0.1401(2) -0.2404(4) -0.1696(3)
H5 H 0.0409(2) -0.3184(4) -0.1938(3)
H6 H 0.2431(2) -0.4636(5) 0.1569(4)
H7 H 0.2474(2) -0.3645(5) 0.0195(4)
H8 H 0.1675(2) -0.4992(5) 0.0052(4)
H9 H 0.1117(2) -0.3157(5) 0.2708(3)
H10 H 0.2183(2) -0.2771(5) 0.3076(3)
H11 H -0.1153(3) -0.1426(6) -0.4834(3)
H12 H -0.1484(3) 0.0518(6) -0.4975(3)
H13 H -0.2210(3) -0.0987(6) -0.5163(3)
H14 H -0.2016(2) 0.0768(6) -0.1714(4)
H15 H -0.2736(2) 0.0353(6) -0.3250(4)
H16 H -0.2009(2) 0.1858(6) -0.3062(4)
N1B N 0.04400(13) 0.0086(5) 0.21614(19)
N2B N -0.08970(19) -0.1758(3) 0.0100(3)
O1B O -0.06946(17) 0.2081(3) 0.0072(3)
C6B C 0.1420(2) -0.0566(5) 0.3002(3)
C5B C -0.1564(2) -0.2413(5) -0.2504(3)
C1B C -0.0353(2) -0.0618(5) 0.2575(3)
H1B H 0.05744(13) 0.1267(5) 0.24828(19)
C2B C -0.0798(2) -0.2177(4) 0.1626(3)
C3B C -0.14653(8) -0.2684(4) -0.0934(3)
C7B C 0.1582(3) -0.0620(6) 0.4651(3)
C8B C 0.2109(2) 0.0724(6) 0.2732(4)
H9B H -0.1117(2) -0.3157(5) -0.2708(3)
H10B H -0.2183(2) -0.2771(5) -0.3076(3)
H2B H -0.0123(2) -0.09877(5) 0.3571(3)
H3B H -0.0813(2) 0.0277(5) 0.2452(3)
H4B H -0.1401(2) -0.2404(4) 0.1696(3)
H5B H -0.0409(2) -0.3184(4) 0.1938(3)
C4B C -0.2066(2) -0.4121(5) -0.0662(4)
H11B H 0.1153(3) -0.1426(6) 0.4834(3)
H12B H 0.1484(3) 0.0518(6) 0.4975(3)
H13B H 0.2210(3) -0.0987(6) 0.5163(3)
H14B H 0.2016(2) 0.0768(6) 0.1714(4)
H15B H 0.2736(2) 0.0353(6) 0.3250(4)
H16B H 0.2009(2) 0.1858(6) 0.3062(4)
H6B H -0.2431(2) -0.4636(5) -0.1569(4)
H7B H -0.2474(2) -0.3645(5) -0.0195(4)
H8B H -0.1675(2) -0.4992(5) -0.0052(4)
#END
