
#######################################################################
#
#                 Cambridge Crystallographic Data Centre
#                                CCDC
#
#######################################################################
#
# If this CIF has been generated from an entry in the Cambridge
# Structural Database, then it will include bibliographic, chemical,
# crystal, experimental, refinement or atomic coordinate data resulting
# from the CCDC's data processing and validation procedures.
#
#######################################################################

data_CSD_CIF_VAMYOX
_audit_creation_date 1990-01-09
_audit_creation_method CSD-ConQuest-V1
_database_code_CSD VAMYOX
_chemical_formula_sum 'C28 H40 B2 Co1 N8'
_chemical_formula_moiety
;
C28 H40 B2 Co1 N8
;
_journal_coden_Cambridge 179
_journal_volume 28
_journal_year 1989
_journal_page_first 205
_journal_name_full 'Angew.Chem.,Int.Ed. '
loop_
_publ_author_name
"S.Trofimenko"
"J.C.Calabrese"
"J.S.Thompson"
_chemical_name_systematic
;
bis((Cyclo-octane-1,5-diyl)-bis(pyrazol-1-yl)borato-N,N',N'')-cobalt(ii)
;
_cell_volume    677.881
_exptl_crystal_colour 'light orange'
_exptl_crystal_density_diffrn 1.394
_diffrn_ambient_temperature 203.15
#These two values have been output from a single CSD field.
_refine_ls_R_factor_gt 0.046
_refine_ls_wR_factor_gt 0.046
_symmetry_cell_setting triclinic
_symmetry_space_group_name_H-M 'P -1'
_symmetry_Int_Tables_number 2
loop_
_symmetry_equiv_pos_site_id
_symmetry_equiv_pos_as_xyz
1 x,y,z
2 -x,-y,-z
_cell_length_a 7.665(1)
_cell_length_b 9.301(2)
_cell_length_c 10.551(3)
_cell_angle_alpha 88.56(2)
_cell_angle_beta 80.27(2)
_cell_angle_gamma 66.26(2)
_cell_formula_units_Z 1
loop_
_atom_type_symbol
_atom_type_radius_bond
C 0.68
H 0.23
B 0.83
Co 1.33
N 0.68
loop_
_atom_site_label
_atom_site_type_symbol
_atom_site_fract_x
_atom_site_fract_y
_atom_site_fract_z
Co1 Co 0.50000 0.50000 0.50000
N1 N 0.2503(5) 0.3522(4) 0.6104(3)
N2 N 0.3300(5) 0.3941(4) 0.4990(3)
N3 N 0.7423(5) 0.4411(4) 0.2534(3)
N4 N 0.6640(5) 0.3740(4) 0.3502(3)
C1 C 0.2538(6) 0.3606(5) 0.4047(4)
C2 C 0.1240(6) 0.2971(5) 0.4532(4)
C3 C 0.1228(6) 0.2962(5) 0.5848(4)
C4 C 0.7456(6) 0.2182(5) 0.3251(4)
C5 C 0.8795(6) 0.1824(5) 0.2120(4)
C6 C 0.8733(6) 0.3254(5) 0.1710(4)
C7 C 0.5552(6) 0.2854(5) 0.7135(4)
C8 C 0.6101(7) 0.1101(5) 0.6872(4)
C9 C 0.5183(8) 0.0325(5) 0.7915(5)
C10 C 0.3043(7) 0.1281(6) 0.8422(4)
C11 C 0.2446(6) 0.3060(5) 0.8633(4)
C12 C 0.3225(7) 0.3417(5) 0.9794(4)
C13 C 0.5420(7) 0.2881(5) 0.9606(4)
C14 C 0.6334(6) 0.3218(5) 0.8296(4)
B1 B 0.3236(7) 0.3760(5) 0.7359(5)
H1 H 0.28380 0.37800 0.31640
H2 H 0.05080 0.26180 0.40780
H3 H 0.04470 0.26100 0.64610
H4 H 0.71690 0.14260 0.37630
H5 H 0.95830 0.08130 0.17240
H6 H 0.95090 0.33900 0.09550
H7 H 0.60670 0.32450 0.63890
H8 H 0.57790 0.09520 0.60660
H9 H 0.74670 0.05540 0.67370
H10 H 0.53650 -0.06820 0.75970
H11 H 0.58820 0.00960 0.86070
H12 H 0.22930 0.11120 0.78560
H13 H 0.26650 0.08460 0.91930
H14 H 0.10620 0.35630 0.88170
H15 H 0.26210 0.45110 1.00180
H16 H 0.28090 0.29780 1.05500
H17 H 0.57400 0.33530 1.02700
H18 H 0.60030 0.17880 0.97410
H19 H 0.76980 0.26550 0.81760
H20 H 0.61640 0.42930 0.82970
N2A N 0.6700(5) 0.6059(4) 0.5010(3)
N4A N 0.3360(5) 0.6260(4) 0.6498(3)
B1A B 0.6764(7) 0.6240(5) 0.2641(5)
N3A N 0.2577(5) 0.5589(4) 0.7466(3)
N1A N 0.7497(5) 0.6478(4) 0.3896(3)
C1A C 0.7462(6) 0.6394(5) 0.5953(4)
C4A C 0.2544(6) 0.7818(5) 0.6749(4)
C7A C 0.4448(6) 0.7146(5) 0.2865(4)
C11A C 0.7554(6) 0.6940(5) 0.1367(4)
C6A C 0.1267(6) 0.6746(5) 0.8290(4)
C3A C 0.8772(6) 0.7038(5) 0.4152(4)
C2A C 0.8760(6) 0.7029(5) 0.5468(4)
H1A H 0.71620 0.62200 0.68360
C5A C 0.1205(6) 0.8176(5) 0.7880(4)
H4A H 0.28310 0.85740 0.62370
C8A C 0.3899(7) 0.8899(5) 0.3128(4)
C14A C 0.3666(6) 0.6782(5) 0.1704(4)
H7A H 0.39330 0.67550 0.36110
C10A C 0.6957(7) 0.8719(6) 0.1578(4)
C12A C 0.6775(7) 0.6583(5) 0.0206(4)
H14A H 0.89380 0.64370 0.11830
H6A H 0.04910 0.66100 0.90450
H3A H 0.95530 0.73900 0.35390
H2A H 0.94920 0.73820 0.59220
H5A H 0.04170 0.91870 0.82760
C9A C 0.4817(8) 0.9675(5) 0.2085(5)
H8A H 0.42210 0.90480 0.39340
H9A H 0.25330 0.94460 0.32630
C13A C 0.4580(7) 0.7119(5) 0.0394(4)
H19A H 0.23020 0.73450 0.18240
H20A H 0.38360 0.57070 0.17030
H12A H 0.77070 0.88880 0.21440
H13A H 0.73350 0.91540 0.08070
H15A H 0.73790 0.54890 -0.00180
H16A H 0.71910 0.70220 -0.05500
H10A H 0.46350 1.06820 0.24030
H11A H 0.41180 0.99040 0.13930
H17A H 0.42600 0.66470 -0.02700
H18A H 0.39970 0.82120 0.02590
#END
