
#######################################################################
#
#                 Cambridge Crystallographic Data Centre
#                                CCDC
#
#######################################################################
#
# If this CIF has been generated from an entry in the Cambridge
# Structural Database, then it will include bibliographic, chemical,
# crystal, experimental, refinement or atomic coordinate data resulting
# from the CCDC's data processing and validation procedures.
#
#######################################################################

data_CSD_CIF_VAPCAR
_audit_creation_date 2004-02-10
_audit_creation_method CSD-ConQuest-V1
_database_code_CSD VAPCAR
_database_code_depnum_ccdc_archive 'CCDC 193345'
_chemical_formula_sum 'C14 H14 Cl2 Co1 N2 O1 S1'
_chemical_formula_moiety
;
C14 H14 Cl2 Co1 N2 O1 S1
;
_journal_coden_Cambridge 1003
_journal_volume 33
_journal_year 2003
_journal_page_first 651
_journal_name_full 'J.Chem.Cryst. '
loop_
_publ_author_name
"B.Brewer"
"N.R.Brooks"
"S.Abdul-Halim"
"A.G.Sykes"
_chemical_name_systematic
;
Dichloro-(dimethylsulfoxide-O)-(1,10-phenanthroline)-cobalt(ii)
;
_cell_volume    803.062
_exptl_crystal_colour 'blue'
_exptl_crystal_density_diffrn 1.605
_exptl_special_details
;
isostructural with the bipyridyl analogue

;
_exptl_crystal_description 'block'
_exptl_crystal_preparation 'dimethylsulfoxide/diethyl ether'
_diffrn_ambient_temperature 238
#These two values have been output from a single CSD field.
_refine_ls_R_factor_gt 0.0285
_refine_ls_wR_factor_gt 0.0285
_symmetry_cell_setting triclinic
_symmetry_space_group_name_H-M 'P -1'
_symmetry_Int_Tables_number 2
loop_
_symmetry_equiv_pos_site_id
_symmetry_equiv_pos_as_xyz
1 x,y,z
2 -x,-y,-z
_cell_length_a 7.4470(18)
_cell_length_b 9.6545(15)
_cell_length_c 12.367(5)
_cell_angle_alpha 80.19(2)
_cell_angle_beta 72.48(3)
_cell_angle_gamma 71.904(16)
_cell_formula_units_Z 2
loop_
_atom_type_symbol
_atom_type_radius_bond
C 0.68
H 0.23
Cl 0.99
Co 1.33
N 0.68
O 0.68
S 1.02
loop_
_atom_site_label
_atom_site_type_symbol
_atom_site_fract_x
_atom_site_fract_y
_atom_site_fract_z
Co1 Co 0.32894(5) 0.20235(3) 0.24380(3)
S1 S 0.63056(9) 0.31373(7) 0.04309(5)
Cl1 Cl 0.19457(10) 0.15670(8) 0.11230(6)
Cl2 Cl 0.20748(14) 0.45757(7) 0.25260(7)
O1 O 0.6063(3) 0.2083(2) 0.15095(15)
N1 N 0.2073(3) 0.1517(2) 0.41910(16)
N2 N 0.4744(3) -0.0281(2) 0.27120(17)
C1 C 0.2773(3) 0.0105(3) 0.4601(2)
C2 C 0.0694(4) 0.2424(3) 0.4919(2)
H1 H 0.02080 0.33900 0.46550
C3 C 0.2138(4) -0.0426(3) 0.5743(2)
C4 C 0.5071(4) -0.2329(3) 0.4168(2)
C5 C 0.6987(4) -0.2623(3) 0.2230(3)
H2 H 0.79130 -0.31960 0.16720
C6 C 0.8275(4) 0.2051(3) -0.0573(2)
H3 H 0.78310 0.13380 -0.07970
H4 H 0.93330 0.15630 -0.02320
H5 H 0.87220 0.26690 -0.12300
C7 C 0.0666(4) 0.0566(3) 0.6477(2)
H6 H 0.01840 0.02630 0.72360
C8 C 0.7533(4) 0.4327(3) 0.0679(3)
H7 H 0.66370 0.49980 0.12190
H8 H 0.80030 0.48630 -0.00240
H9 H 0.86180 0.37580 0.09740
C9 C -0.0051(4) 0.1981(3) 0.6065(2)
H10 H -0.10250 0.26420 0.65420
C10 C 0.6511(4) -0.3210(3) 0.3329(3)
H11 H 0.71250 -0.41780 0.35250
C11 C 0.4249(3) -0.0868(3) 0.3803(2)
C12 C 0.4422(4) -0.2825(3) 0.5348(2)
H12 H 0.49860 -0.37790 0.56030
C13 C 0.6080(4) -0.1156(3) 0.1944(2)
H13 H 0.64210 -0.07770 0.11910
C14 C 0.3001(4) -0.1925(3) 0.6094(2)
H14 H 0.25770 -0.22820 0.68460
#END
