
#######################################################################
#
#                 Cambridge Crystallographic Data Centre
#                                CCDC
#
#######################################################################
#
# If this CIF has been generated from an entry in the Cambridge
# Structural Database, then it will include bibliographic, chemical,
# crystal, experimental, refinement or atomic coordinate data resulting
# from the CCDC's data processing and validation procedures.
#
#######################################################################

data_CSD_CIF_VAPFEY
_audit_creation_date 2004-02-10
_audit_creation_method CSD-ConQuest-V1
_database_code_CSD VAPFEY
_database_code_depnum_ccdc_archive 'CCDC 186839'
_chemical_formula_sum 'C12 H14 Cl2 Co1 N2 O1 S1'
_chemical_formula_moiety
;
C12 H14 Cl2 Co1 N2 O1 S1
;
_journal_coden_Cambridge 1003
_journal_volume 33
_journal_year 2003
_journal_page_first 663
_journal_name_full 'J.Chem.Cryst. '
loop_
_publ_author_name
"B.Brewer"
"N.R.Brooks"
"A.G.Sykes"
_chemical_name_systematic
;
(2,2'-Bipyridyl)-dichloro-(dimethylsulfoxide-O)-cobalt(ii)
;
_cell_volume    739.898
_exptl_crystal_colour 'blue'
_exptl_crystal_density_diffrn 1.634
_exptl_special_details
;
isostructural with the phenanthroline analogue

;
_exptl_crystal_description 'block'
_diffrn_ambient_temperature 238
#These two values have been output from a single CSD field.
_refine_ls_R_factor_gt 0.0278
_refine_ls_wR_factor_gt 0.0278
_symmetry_cell_setting triclinic
_symmetry_space_group_name_H-M 'P -1'
_symmetry_Int_Tables_number 2
loop_
_symmetry_equiv_pos_site_id
_symmetry_equiv_pos_as_xyz
1 x,y,z
2 -x,-y,-z
_cell_length_a 7.8238(18)
_cell_length_b 9.570(4)
_cell_length_c 10.0253(19)
_cell_angle_alpha 83.24(3)
_cell_angle_beta 87.14(2)
_cell_angle_gamma 83.35(3)
_cell_formula_units_Z 2
loop_
_atom_type_symbol
_atom_type_radius_bond
C 0.68
H 0.23
Cl 0.99
Co 1.33
N 0.68
O 0.68
S 1.02
loop_
_atom_site_label
_atom_site_type_symbol
_atom_site_fract_x
_atom_site_fract_y
_atom_site_fract_z
Co1 Co 0.30810(4) 0.30428(3) 0.26525(3)
S1 S 0.62367(7) 0.15345(6) 0.42436(5)
Cl1 Cl 0.18392(8) 0.09573(6) 0.26131(6)
Cl2 Cl 0.25063(9) 0.36080(7) 0.48360(6)
O1 O 0.5664(2) 0.24262(19) 0.29404(16)
N1 N 0.3861(2) 0.30549(19) 0.05734(18)
N2 N 0.1835(2) 0.49515(19) 0.17280(18)
C1 C 0.3288(3) 0.4197(2) -0.0260(2)
C2 C 0.2154(3) 0.5285(2) 0.0399(2)
C3 C 0.5319(3) 0.2036(3) -0.1292(3)
H1 H 0.60140 0.12750 -0.16230
C4 C 0.0779(3) 0.5866(2) 0.2394(2)
H2 H 0.05400 0.56290 0.33150
C5 C 0.1444(3) 0.6555(3) -0.0280(3)
H3 H 0.16910 0.67760 -0.12030
C6 C 0.3712(3) 0.4314(3) -0.1627(2)
H4 H 0.33080 0.51280 -0.21910
C7 C 0.7933(4) 0.2392(3) 0.4779(3)
H5 H 0.74600 0.32690 0.51210
H6 H 0.87250 0.25980 0.40260
H7 H 0.85400 0.17790 0.54840
C8 C 0.4856(3) 0.1998(3) 0.0053(2)
H8 H 0.52550 0.11950 0.06340
C9 C 0.0370(3) 0.7489(3) 0.0422(3)
H9 H -0.01230 0.83510 -0.00190
C10 C 0.4738(3) 0.3217(3) -0.2144(2)
H10 H 0.50390 0.32740 -0.30670
C11 C 0.0033(3) 0.7140(3) 0.1773(3)
H11 H -0.06950 0.77610 0.22660
C12 C 0.7469(3) 0.0019(3) 0.3690(3)
H12 H 0.67080 -0.05770 0.33500
H13 H 0.80890 -0.05090 0.44370
H14 H 0.82840 0.03140 0.29810
#END
