
#######################################################################
#
#                 Cambridge Crystallographic Data Centre
#                                CCDC
#
#######################################################################
#
# If this CIF has been generated from an entry in the Cambridge
# Structural Database, then it will include bibliographic, chemical,
# crystal, experimental, refinement or atomic coordinate data resulting
# from the CCDC's data processing and validation procedures.
#
#######################################################################

data_CSD_CIF_VAQFAW
_audit_creation_date 2012-04-10
_audit_creation_method CSD-ConQuest-V1
_database_code_CSD VAQFAW
_database_code_depnum_ccdc_archive 'CCDC 823976'
_chemical_formula_sum 'C5 H26 Mn1 N2 O14 S2'
_chemical_formula_moiety
;
C5 H14 N2 2+,H12 Mn1 O6 2+,2(O4 S1 2-)
;
_journal_coden_Cambridge 36
_journal_volume 700
_journal_year 2012
_journal_page_first 110
_journal_name_full 'J.Organomet.Chem. '
loop_
_publ_author_name
"F.Hajlaoui"
"H.Naili"
"S.Yahyaoui"
"A.J.Norquist"
"T.Mhiri"
"T.Bataille"
_chemical_name_systematic
;
Hexaaqua-manganese(ii) 2-methylpiperazinediium bis(sulfate)
;
_cell_volume    906.162
_exptl_crystal_colour 'white'
_exptl_crystal_density_diffrn 1.676
_exptl_special_details
;
Absolute configuration

;
_exptl_crystal_description 'prism'
_diffrn_ambient_temperature 293
#These two values have been output from a single CSD field.
_refine_ls_R_factor_gt 0.0353
_refine_ls_wR_factor_gt 0.0353
loop_
_citation_database_id_CSD
_citation_special_details
VAQDEY "is a stereoisomer of this entry"
IDAGEB "is a racemate of this entry"
_symmetry_cell_setting monoclinic
_symmetry_space_group_name_H-M 'P 21'
_symmetry_Int_Tables_number 4
loop_
_symmetry_equiv_pos_site_id
_symmetry_equiv_pos_as_xyz
1 x,y,z
2 -x,1/2+y,-z
_cell_length_a 6.6276(2)
_cell_length_b 11.0852(3)
_cell_length_c 12.6084(2)
_cell_angle_alpha 90
_cell_angle_beta 101.974(2)
_cell_angle_gamma 90
_cell_formula_units_Z 2
loop_
_atom_type_symbol
_atom_type_radius_bond
C 0.68
H 0.23
Mn 1.61
N 0.68
O 0.68
S 1.02
loop_
_atom_site_label
_atom_site_type_symbol
_atom_site_fract_x
_atom_site_fract_y
_atom_site_fract_z
Mn1 Mn 0.25507(7) 0.20764(5) -0.24824(3)
O1 O 0.5160(3) 0.1627(2) -0.31729(19)
O2 O 0.2634(3) 0.0253(2) -0.17569(18)
O3 O 0.4793(4) 0.2767(3) -0.10924(18)
O4 O -0.0151(4) 0.2489(2) -0.18376(19)
O5 O 0.2336(3) 0.3931(2) -0.31046(18)
O6 O 0.0410(3) 0.1411(2) -0.39157(17)
S1 S 0.18867(9) 0.49573(5) 0.03381(5)
O7 O 0.1239(4) 0.4724(3) 0.13616(17)
O8 O 0.3906(3) 0.4378(2) 0.03939(17)
O9 O 0.0357(3) 0.4423(2) -0.05465(18)
O10 O 0.1997(4) 0.6258(2) 0.0164(2)
S2 S 0.31249(9) -0.07935(5) 0.46248(5)
O11 O 0.4346(4) -0.0394(2) 0.56715(17)
O12 O 0.1111(3) -0.0179(2) 0.44278(16)
O13 O 0.2928(3) -0.2104(2) 0.4653(2)
O14 O 0.4203(3) -0.0440(3) 0.37626(18)
N1 N 0.3721(3) 0.3113(2) 0.27634(17)
H1 H 0.30550 0.35960 0.22310
H2 H 0.45070 0.35800 0.32700
N2 N 0.2227(4) 0.0798(2) 0.19652(18)
H3 H 0.28710 0.03120 0.25010
H4 H 0.14400 0.03330 0.14560
C1 C 0.0860(5) 0.3351(4) 0.3728(3)
H5 H 0.17320 0.38360 0.42670
H6 H -0.01180 0.29260 0.40530
H7 H 0.01380 0.38620 0.31580
C2 C 0.2174(4) 0.2448(3) 0.32596(18)
H8 H 0.29140 0.19390 0.38490
C3 C 0.0893(4) 0.1649(3) 0.2404(2)
H9 H -0.00960 0.12010 0.27180
H10 H 0.01340 0.21440 0.18210
C4 C 0.3782(5) 0.1429(3) 0.1484(2)
H11 H 0.30980 0.18950 0.08620
H12 H 0.46690 0.08420 0.12380
C5 C 0.5072(4) 0.2259(3) 0.2310(2)
H13 H 0.58800 0.17830 0.28920
H14 H 0.60170 0.27120 0.19690
H15 H 0.445(5) 0.321(3) -0.051(2)
H16 H 0.143(3) 0.007(4) -0.152(3)
H17 H 0.060(6) 0.078(3) -0.439(3)
H18 H 0.111(3) 0.408(4) -0.358(2)
H19 H 0.340(4) 0.428(4) -0.338(3)
H20 H 0.572(5) 0.218(3) -0.075(3)
H21 H -0.088(6) 0.188(3) -0.160(3)
H22 H 0.587(8) 0.216(4) -0.357(4)
H23 H 0.011(8) 0.310(4) -0.130(4)
H24 H -0.095(4) 0.169(4) -0.421(3)
H25 H 0.370(4) -0.018(4) -0.129(3)
H26 H 0.497(8) 0.091(3) -0.362(4)
#END
