
#######################################################################
#
#                 Cambridge Crystallographic Data Centre
#                                CCDC
#
#######################################################################
#
# If this CIF has been generated from an entry in the Cambridge
# Structural Database, then it will include bibliographic, chemical,
# crystal, experimental, refinement or atomic coordinate data resulting
# from the CCDC's data processing and validation procedures.
#
#######################################################################

data_CSD_CIF_VAQGUR
_audit_creation_date 2012-04-10
_audit_creation_method CSD-ConQuest-V1
_database_code_CSD VAQGUR
_database_code_depnum_ccdc_archive 'CCDC 822795'
_chemical_formula_sum 'C12 H11 Mn1 O5'
_chemical_formula_moiety
;
C12 H11 Mn1 O5
;
_journal_coden_Cambridge 489
_journal_volume 17
_journal_year 2012
_journal_page_first 175
_journal_name_full 'J.Biol.Inorg.Chem.(JBIC) '
loop_
_publ_author_name
"Wanning Hu"
"K.Splith"
"I.Neundorf"
"K.Merz"
"U.Schatzschneider"
_chemical_name_systematic
;
tricarbonyl-(\h^5^-(3-carboxypropyl)cyclopentadienyl)-manganese
;
_cell_volume    628.515
_exptl_crystal_density_diffrn 1.533
_diffrn_ambient_temperature 223
#These two values have been output from a single CSD field.
_refine_ls_R_factor_gt 0.0559
_refine_ls_wR_factor_gt 0.0559
_symmetry_cell_setting triclinic
_symmetry_space_group_name_H-M 'P -1'
_symmetry_Int_Tables_number 2
loop_
_symmetry_equiv_pos_site_id
_symmetry_equiv_pos_as_xyz
1 x,y,z
2 -x,-y,-z
_cell_length_a 7.484(4)
_cell_length_b 8.845(4)
_cell_length_c 10.481(5)
_cell_angle_alpha 114.257(9)
_cell_angle_beta 95.124(10)
_cell_angle_gamma 91.489(10)
_cell_formula_units_Z 2
loop_
_atom_type_symbol
_atom_type_radius_bond
C 0.68
H 0.23
Mn 1.47
O 0.68
loop_
_atom_site_label
_atom_site_type_symbol
_atom_site_fract_x
_atom_site_fract_y
_atom_site_fract_z
Mn1 Mn 0.34547(8) 0.69774(7) 0.24352(6)
O1 O 0.4142(4) 0.8856(4) 0.8393(3)
O2 O 0.2646(5) 1.0512(4) 1.0118(3)
O3 O 0.2994(5) 1.0565(4) 0.3684(4)
C1 C 0.2731(6) 0.9413(5) 0.8820(4)
O4 O 0.2074(6) 0.6538(5) -0.0413(4)
C2 C 0.2331(6) 0.6829(5) 0.4195(4)
C3 C 0.1205(6) 0.5879(5) 0.2939(5)
H1 H -0.00750 0.60470 0.27380
C4 C 0.0958(6) 0.8917(6) 0.7951(5)
H2 H 0.04790 0.98980 0.78690
H3 H 0.01240 0.85260 0.84370
C5 C 0.4038(6) 0.6152(5) 0.4078(5)
H4 H 0.50880 0.65250 0.48050
C6 C 0.3921(7) 0.4785(6) 0.2732(5)
H5 H 0.48950 0.40420 0.23600
O5 O 0.7201(5) 0.7428(5) 0.1968(5)
C7 C 0.2201(7) 0.4625(6) 0.2042(5)
H6 H 0.17420 0.37490 0.11070
C8 C 0.3182(6) 0.9155(6) 0.3172(5)
C9 C 0.2627(7) 0.6723(6) 0.0710(5)
C10 C 0.1813(6) 0.8211(5) 0.5491(5)
H7 H 0.09260 0.88480 0.52160
H8 H 0.28770 0.89620 0.59880
C11 C 0.1026(6) 0.7566(6) 0.6482(5)
H9 H -0.01940 0.70700 0.60850
H10 H 0.17540 0.66900 0.65470
C12 C 0.5736(7) 0.7266(6) 0.2152(6)
H11 H 0.362(9) 1.060(8) 1.058(7)
#END
