
#######################################################################
#
#                 Cambridge Crystallographic Data Centre
#                                CCDC
#
#######################################################################
#
# If this CIF has been generated from an entry in the Cambridge
# Structural Database, then it will include bibliographic, chemical,
# crystal, experimental, refinement or atomic coordinate data resulting
# from the CCDC's data processing and validation procedures.
#
#######################################################################

data_CSD_CIF_VARMUW
_audit_creation_date 1990-02-14
_audit_creation_method CSD-ConQuest-V1
_database_code_CSD VARMUW
_chemical_formula_sum 'C16 H22 Mn1 O4 P1 S1'
_chemical_formula_moiety
;
C16 H22 Mn1 O4 P1 S1
;
_journal_coden_Cambridge 179
_journal_volume 28
_journal_year 1989
_journal_page_first 448
_journal_name_full 'Angew.Chem.,Int.Ed. '
loop_
_publ_author_name
"E.Lindner"
"V.Kass"
"W.Hiller"
"R.Fawzi"
_chemical_name_systematic
;
Tetracarbonyl-(dicyclohexythiophosphinito-P,S)-manganese
;
_cell_volume    947.482
_exptl_crystal_density_diffrn 1.389
_diffrn_ambient_temperature ?
_diffrn_special_details
;
The study was carried out at room temperature,in the range 283-303K

;
#These two values have been output from a single CSD field.
_refine_ls_R_factor_gt 0.045
_refine_ls_wR_factor_gt 0.045
_symmetry_cell_setting triclinic
_symmetry_space_group_name_H-M 'P -1'
_symmetry_Int_Tables_number 2
loop_
_symmetry_equiv_pos_site_id
_symmetry_equiv_pos_as_xyz
1 x,y,z
2 -x,-y,-z
_cell_length_a 10.641(4)
_cell_length_b 12.266(6)
_cell_length_c 8.543(3)
_cell_angle_alpha 95.48(3)
_cell_angle_beta 112.86(3)
_cell_angle_gamma 67.51(3)
_cell_formula_units_Z 2
loop_
_atom_type_symbol
_atom_type_radius_bond
C 0.68
H 0.23
Mn 1.35
O 0.68
P 1.05
S 1.02
loop_
_atom_site_label
_atom_site_type_symbol
_atom_site_fract_x
_atom_site_fract_y
_atom_site_fract_z
Mn1 Mn 0.32808(6) 0.33449(6) 0.14379(8)
S1 S 0.2697(1) 0.4747(1) -0.0821(2)
P1 P 0.3639(1) 0.30070(9) -0.1034(1)
O1 O 0.6284(4) 0.3389(4) 0.3189(5)
O2 O 0.0301(4) 0.3249(4) -0.0105(5)
O3 O 0.2307(4) 0.4976(3) 0.3878(4)
O4 O 0.4323(4) 0.1095(3) 0.3329(5)
C1 C 0.5141(5) 0.3387(4) 0.2494(6)
C2 C 0.1436(5) 0.3296(5) 0.0435(6)
C3 C 0.2694(3) 0.4338(4) 0.2938(6)
C4 C 0.3914(5) 0.1975(4) 0.2589(6)
C5 C 0.2622(5) 0.2402(4) -0.2894(6)
C6 C 0.2586(5) 0.1242(4) -0.2501(6)
C7 C 0.1814(7) 0.0708(5) -0.4046(8)
C8 C 0.0408(6) 0.1517(5) -0.5176(9)
C9 C 0.0392(6) 0.2675(5) -0.5597(7)
C10 C 0.1180(5) 0.3226(4) -0.4043(7)
C11 C 0.5493(5) 0.2608(4) -0.1039(5)
C12 C 0.5562(5) 0.3038(4) -0.2562(6)
C13 C 0.7122(5) 0.2698(5) -0.2418(6)
C14 C 0.8012(5) 0.1427(6) -0.1982(8)
C15 C 0.7931(6) 0.0977(6) -0.0548(9)
C16 C 0.6371(5) 0.1301(4) -0.0610(7)
H1 H 0.32030 0.22080 -0.36040
H2 H 0.20620 0.13930 -0.17370
H3 H 0.35750 0.06960 -0.18700
H4 H 0.17340 0.00120 -0.37260
H5 H 0.24510 0.04210 -0.47070
H6 H -0.02480 0.16790 -0.45460
H7 H 0.00240 0.11480 -0.61610
H8 H -0.06130 0.32190 -0.61900
H9 H 0.08800 0.25520 -0.63830
H10 H 0.12770 0.39170 -0.43610
H11 H 0.05540 0.35320 -0.33630
H12 H 0.60020 0.30270 -0.01430
H13 H 0.50340 0.38840 -0.27550
H14 H 0.50490 0.26910 -0.35540
H15 H 0.75930 0.31280 -0.15030
H16 H 0.71410 0.29500 -0.34380
H17 H 0.90010 0.12660 -0.18670
H18 H 0.76040 0.10150 -0.29780
H19 H 0.84660 0.13450 0.04700
H20 H 0.85000 0.01520 -0.03380
H21 H 0.58730 0.08740 -0.15040
H22 H 0.63590 0.10650 0.04290
#END
