
#######################################################################
#
#                 Cambridge Crystallographic Data Centre
#                                CCDC
#
#######################################################################
#
# If this CIF has been generated from an entry in the Cambridge
# Structural Database, then it will include bibliographic, chemical,
# crystal, experimental, refinement or atomic coordinate data resulting
# from the CCDC's data processing and validation procedures.
#
#######################################################################

data_CSD_CIF_VASXAQ
_audit_creation_date 2012-05-08
_audit_creation_method CSD-ConQuest-V1
_database_code_CSD VASXAQ
_database_code_depnum_ccdc_archive 'CCDC 833740'
_chemical_formula_sum 'C26 H24 Cl2 Co1 N8 O10 S2'
_chemical_formula_moiety
;
C26 H24 Co1 N8 O2 S2 2+,2(Cl1 O4 1-)
;
_journal_coden_Cambridge 222
_journal_volume 41
_journal_year 2012
_journal_page_first 1397
_journal_name_full 'Dalton Trans. '
loop_
_publ_author_name
"J.Klingele"
"D.Kaase"
"M.H.Klingele"
"J.Lach"
_chemical_name_systematic
;
bis((Methanol)-(2-(5-(pyridin-2-yl)-1,3,4-thiadiazol-2-yl)pyridine))-cobalt(ii
) diperchlorate
;
_cell_volume    777.554
_exptl_crystal_colour 'yellow'
_exptl_crystal_density_diffrn 1.714
_exptl_crystal_description 'block'
_diffrn_ambient_temperature 100
#These two values have been output from a single CSD field.
_refine_ls_R_factor_gt 0.0576
_refine_ls_wR_factor_gt 0.0576
_symmetry_cell_setting triclinic
_symmetry_space_group_name_H-M 'P -1'
_symmetry_Int_Tables_number 2
loop_
_symmetry_equiv_pos_site_id
_symmetry_equiv_pos_as_xyz
1 x,y,z
2 -x,-y,-z
_cell_length_a 8.8258(7)
_cell_length_b 9.5333(9)
_cell_length_c 9.6104(8)
_cell_angle_alpha 87.171(6)
_cell_angle_beta 88.589(6)
_cell_angle_gamma 74.330(5)
_cell_formula_units_Z 1
loop_
_atom_type_symbol
_atom_type_radius_bond
C 0.68
H 0.23
Cl 0.99
Co 1.26
N 0.68
O 0.68
S 1.02
loop_
_atom_site_label
_atom_site_type_symbol
_atom_site_fract_x
_atom_site_fract_y
_atom_site_fract_z
Co1 Co 0.50000 0.50000 0.50000
S1 S 0.72098(17) 0.01660(15) 0.56649(15)
N1 N 0.6796(5) 0.3978(5) 0.3561(4)
N2 N 0.5548(5) 0.2797(5) 0.5728(4)
N3 N 0.4953(5) 0.2076(5) 0.6785(4)
N4 N 0.6442(6) -0.1630(5) 0.8028(5)
C1 C 0.7416(6) 0.4597(6) 0.2485(6)
H1 H 0.69790 0.56050 0.22600
C2 C 0.8668(6) 0.3823(6) 0.1689(6)
H2 H 0.90600 0.42960 0.09240
C3 C 0.9334(6) 0.2380(6) 0.2008(6)
H3 H 1.01960 0.18400 0.14750
C4 C 0.8726(6) 0.1715(6) 0.3129(6)
H4 H 0.91690 0.07140 0.33800
C5 C 0.7469(6) 0.2538(6) 0.3866(6)
C6 C 0.6725(6) 0.1940(6) 0.5048(5)
C7 C 0.5700(6) 0.0697(6) 0.6876(5)
C8 C 0.5311(6) -0.0369(6) 0.7862(5)
C9 C 0.3859(7) -0.0077(6) 0.8549(6)
H5 H 0.30930 0.08300 0.84020
C10 C 0.3571(7) -0.1145(6) 0.9447(6)
H6 H 0.25930 -0.09870 0.99330
C11 C 0.4716(7) -0.2456(6) 0.9639(6)
H7 H 0.45370 -0.32100 1.02510
C12 C 0.6139(7) -0.2641(6) 0.8912(6)
H8 H 0.69310 -0.35330 0.90560
O1 O 0.6739(4) 0.5395(4) 0.6220(4)
H9 H 0.721(8) 0.468(6) 0.683(6)
C13 C 0.7964(7) 0.5993(7) 0.5658(6)
H10 H 0.86560 0.60840 0.64110
H11 H 0.74960 0.69570 0.52170
H12 H 0.85760 0.53460 0.49640
Cl1 Cl 0.96026(16) 0.24274(15) 0.79539(14)
O2 O 0.8012(5) 0.3335(5) 0.8188(4)
O3 O 1.0689(5) 0.3079(5) 0.8556(5)
O4 O 0.9904(5) 0.2297(5) 0.6480(4)
O5 O 0.9737(5) 0.1033(4) 0.8611(4)
S1A S 0.27902(17) 0.98340(15) 0.43351(15)
N1A N 0.3204(5) 0.6022(5) 0.6439(4)
N2A N 0.4452(5) 0.7203(5) 0.4272(4)
N3A N 0.5047(5) 0.7924(5) 0.3215(4)
N4A N 0.3558(6) 1.1630(5) 0.1972(5)
C1A C 0.2584(6) 0.5403(6) 0.7515(6)
H1A H 0.30210 0.43950 0.77400
C2A C 0.1332(6) 0.6177(6) 0.8311(6)
H2A H 0.09400 0.57040 0.90760
C3A C 0.0666(6) 0.7620(6) 0.7992(6)
H3A H -0.01960 0.81600 0.85250
C4A C 0.1274(6) 0.8285(6) 0.6871(6)
H4A H 0.08310 0.92860 0.66200
C5A C 0.2531(6) 0.7462(6) 0.6134(6)
C6A C 0.3275(6) 0.8060(6) 0.4952(5)
C7A C 0.4300(6) 0.9303(6) 0.3124(5)
C8A C 0.4689(6) 1.0369(6) 0.2138(5)
C9A C 0.6141(7) 1.0077(6) 0.1451(6)
H5A H 0.69070 0.91700 0.15980
C10A C 0.6429(7) 1.1145(6) 0.0553(6)
H6A H 0.74070 1.09870 0.00670
C11A C 0.5284(7) 1.2456(6) 0.0361(6)
H7A H 0.54630 1.32100 -0.02510
C12A C 0.3861(7) 1.2641(6) 0.1088(6)
H8A H 0.30690 1.35330 0.09440
O1A O 0.3261(4) 0.4605(4) 0.3780(4)
H9A H 0.279(8) 0.532(6) 0.317(6)
C13A C 0.2036(7) 0.4007(7) 0.4342(6)
H10A H 0.13440 0.39160 0.35890
H11A H 0.25040 0.30430 0.47830
H12A H 0.14240 0.46540 0.50360
#END
