
#######################################################################
#
#                 Cambridge Crystallographic Data Centre
#                                CCDC
#
#######################################################################
#
# If this CIF has been generated from an entry in the Cambridge
# Structural Database, then it will include bibliographic, chemical,
# crystal, experimental, refinement or atomic coordinate data resulting
# from the CCDC's data processing and validation procedures.
#
#######################################################################

data_CSD_CIF_VAVDOM
_audit_creation_date 2006-02-21
_audit_creation_method CSD-ConQuest-V1
_database_code_CSD VAVDOM
_database_code_depnum_ccdc_archive 'CCDC 232549'
_chemical_formula_sum 'C14 H18 Cl2 Mn1 N2 O4'
_chemical_formula_moiety
;
C14 H18 Cl1 Mn1 N2 O4 1+,Cl1 1-
;
_journal_coden_Cambridge 211
_journal_volume 58
_journal_year 2005
_journal_page_first 1523
_journal_name_full 'J.Coord.Chem. '
loop_
_publ_author_name
"S.Onaka"
"Li Hong"
"M.Ito"
"T.Sunahara"
"H.Imai"
"K.Inoue"
_chemical_name_systematic
;
Chloro-((6-hydroxymethyl-2-pyridyl)methanol-N,O)-((6-hydroxymethyl-2-pyridyl)m
ethanol-N,O,O')-manganese(ii) chloride
;
_cell_volume    851.483
_exptl_crystal_colour 'pale pink'
_exptl_crystal_density_diffrn 1.58
_diffrn_ambient_temperature 293
#These two values have been output from a single CSD field.
_refine_ls_R_factor_gt 0.0349
_refine_ls_wR_factor_gt 0.0349
_symmetry_cell_setting triclinic
_symmetry_space_group_name_H-M 'P -1'
_symmetry_Int_Tables_number 2
loop_
_symmetry_equiv_pos_site_id
_symmetry_equiv_pos_as_xyz
1 x,y,z
2 -x,-y,-z
_cell_length_a 7.888(2)
_cell_length_b 8.417(2)
_cell_length_c 14.38(3)
_cell_angle_alpha 77.56(2)
_cell_angle_beta 81.97(2)
_cell_angle_gamma 66.19(2)
_cell_formula_units_Z 2
loop_
_atom_type_symbol
_atom_type_radius_bond
C 0.68
H 0.23
Cl 0.99
Mn 1.35
N 0.68
O 0.68
loop_
_atom_site_label
_atom_site_type_symbol
_atom_site_fract_x
_atom_site_fract_y
_atom_site_fract_z
C1 C 1.1606(3) 0.0000(3) 0.12346(17)
C2 C 0.7587(3) 0.0739(3) 0.46380(15)
C3 C 0.7620(3) -0.1634(3) 0.40704(15)
C4 C 1.0449(3) 0.1637(3) 0.05891(15)
C5 C 0.8269(3) 0.4700(3) -0.04839(17)
C6 C 1.0959(4) 0.2013(3) -0.03695(17)
C7 C 0.7792(4) -0.2520(3) 0.32321(17)
C8 C 0.7385(3) -0.2479(3) 0.49885(17)
C9 C 0.7843(3) 0.4238(3) 0.04757(15)
C10 C 0.7323(3) -0.0021(3) 0.55711(16)
C11 C 0.6146(3) 0.5388(3) 0.09921(18)
C12 C 0.7724(4) 0.2518(3) 0.44311(18)
C13 C 0.7211(4) -0.1658(3) 0.57480(17)
C14 C 0.9838(4) 0.3566(4) -0.09055(17)
N1 N 0.8914(2) 0.2722(2) 0.10026(12)
N2 N 0.7715(2) -0.0030(2) 0.38861(12)
O1 O 0.9091(3) -0.4309(2) 0.33855(14)
O2 O 0.8444(3) 0.2806(2) 0.34841(12)
O3 O 0.6288(3) 0.4785(2) 0.19748(13)
O4 O 1.0522(2) -0.0247(2) 0.20837(13)
Cl1 Cl 0.53661(8) 0.13181(8) 0.17709(5)
Cl2 Cl 1.28004(8) -0.37286(7) 0.32318(4)
Mn1 Mn 0.77703(4) 0.17549(4) 0.24127(2)
H1 H 1.197(4) -0.102(4) 0.090(2)
H2 H 0.694(4) -0.225(4) 0.635(2)
H3 H 0.726(4) 0.055(4) 0.606(2)
H4 H 0.820(4) -0.192(4) 0.268(2)
H5 H 1.266(4) 0.017(4) 0.1392(19)
H6 H 0.747(4) 0.580(4) -0.083(2)
H7 H 0.731(4) -0.358(4) 0.509(2)
H8 H 0.663(4) -0.257(4) 0.317(2)
H9 H 0.599(4) 0.664(4) 0.083(2)
H10 H 1.117(6) -0.125(5) 0.243(3)
H11 H 1.015(5) 0.390(4) -0.156(2)
H12 H 0.854(5) 0.248(4) 0.490(2)
H13 H 1.201(4) 0.120(4) -0.061(2)
H14 H 0.855(5) 0.367(5) 0.342(3)
H15 H 0.653(5) 0.343(4) 0.452(2)
H16 H 0.501(5) 0.538(4) 0.079(2)
H17 H 1.018(5) -0.431(5) 0.341(3)
H18 H 0.520(6) 0.510(6) 0.226(3)
#END
