
#######################################################################
#
#                 Cambridge Crystallographic Data Centre
#                                CCDC
#
#######################################################################
#
# If this CIF has been generated from an entry in the Cambridge
# Structural Database, then it will include bibliographic, chemical,
# crystal, experimental, refinement or atomic coordinate data resulting
# from the CCDC's data processing and validation procedures.
#
#######################################################################

data_CSD_CIF_VAYBEC
_audit_creation_date 1990-04-21
_audit_creation_method CSD-ConQuest-V1
_database_code_CSD VAYBEC
_database_code_depnum_ccdc_archive 'CCDC 1280770'
_chemical_formula_sum 'C36 H30 I2 Mn1 O2 P2'
_chemical_formula_moiety
;
C36 H30 I2 Mn1 O2 P2
;
_journal_coden_Cambridge 3
_journal_volume 42
_journal_year 1988
_journal_page_first 544
_journal_name_full 'Acta Chem.Scand. '
loop_
_publ_author_name
"B.Beagley"
"C.A.McAuliffe"
"R.G.Pritchard"
"E.W.White"
_chemical_name_systematic
;
Di-iodo-bis(triphenylphosphineoxy-O)-manganese(ii)
;
_cell_volume    897.000
_exptl_crystal_density_diffrn 1.602
_exptl_special_details
;
y(C35) is 1.2576 not 1.2376

;
_diffrn_ambient_temperature ?
_diffrn_special_details
;
The study was carried out at room temperature,in the range 283-303K

;
#These two values have been output from a single CSD field.
_refine_ls_R_factor_gt 0.039
_refine_ls_wR_factor_gt 0.039
_symmetry_cell_setting triclinic
_symmetry_space_group_name_H-M 'P 1'
_symmetry_Int_Tables_number 1
loop_
_symmetry_equiv_pos_site_id
_symmetry_equiv_pos_as_xyz
1 x,y,z
_cell_length_a 10.105(4)
_cell_length_b 10.471(4)
_cell_length_c 10.703(5)
_cell_angle_alpha 114.77(3)
_cell_angle_beta 116.29(3)
_cell_angle_gamma 90.14(3)
_cell_formula_units_Z 1
loop_
_atom_type_symbol
_atom_type_radius_bond
C 0.68
H 0.23
I 1.40
Mn 1.35
O 0.68
P 1.05
loop_
_atom_site_label
_atom_site_type_symbol
_atom_site_fract_x
_atom_site_fract_y
_atom_site_fract_z
I1 I 0.8436(1) 0.8795(1) 0.3617(1)
I2 I 0.51880 0.99620 0.00000
Mn1 Mn 0.5671(1) 0.9243(1) 0.2254(1)
P1 P 0.2456(2) 0.6826(1) 0.0951(1)
P2 P 0.5223(2) 1.2326(1) 0.4726(1)
O1 O 0.3997(5) 0.7576(4) 0.1427(5)
O2 O 0.5525(6) 1.0860(4) 0.4051(5)
C1 C 0.2369(7) 0.6982(6) 0.2638(6)
C2 C 0.1696(9) 0.5829(8) 0.2640(9)
C3 C 0.1741(12) 0.6036(10) 0.4034(10)
C4 C 0.2426(13) 0.7321(12) 0.5374(9)
C5 C 0.3050(16) 0.8476(11) 0.5342(11)
C6 C 0.3041(12) 0.8300(9) 0.3996(9)
C7 C 0.2111(6) 0.4937(6) -0.0307(6)
C8 C 0.0624(7) 0.4083(7) -0.1363(8)
C9 C 0.0430(9) 0.2609(7) -0.2253(9)
C10 C 0.1649(11) 0.1993(7) -0.211(1)
C11 C 0.3095(11) 0.2843(8) -0.1105(11)
C12 C 0.3326(8) 0.4319(7) -0.0206(8)
C13 C 0.6121(7) 1.3586(6) 0.4454(6)
C14 C 0.5528(9) 1.4722(7) 0.4254(9)
C15 C 0.6335(11) 1.5667(8) 0.4099(10)
C16 C 0.7706(11) 1.5501(8) 0.4182(9)
C17 C 0.8290(11) 1.4397(9) 0.4387(12)
C18 C 0.7497(8) 1.3425(7) 0.4514(9)
C19 C 0.6012(7) 1.3007(7) 0.6818(6)
C20 C 0.6178(11) 1.4443(9) 0.7792(9)
C21 C 0.6792(13) 1.4919(14) 0.9399(11)
C22 C 0.7221(13) 1.3952(21) 0.9991(11)
C23 C 0.7085(12) 1.2576(21) 0.9037(14)
C24 C 0.6471(8) 1.2042(11) 0.7409(9)
C25 C 0.3256(6) 1.2251(5) 0.3882(6)
C26 C 0.2415(8) 1.2017(8) 0.2324(8)
C27 C 0.0907(9) 1.1783(9) 0.1589(9)
C28 C 0.0113(9) 1.1771(9) 0.2369(11)
C29 C 0.0875(9) 1.1991(10) 0.3882(12)
C30 C 0.2465(8) 1.2247(8) 0.4663(9)
C31 C 0.0967(7) 0.7514(6) -0.0066(7)
C32 C 0.107(1) 0.7843(8) -0.1156(8)
C33 C -0.0110(12) 0.8307(10) -0.2016(9)
C34 C -0.1362(13) 0.8427(10) -0.1829(12)
C35 C -0.1438(10) 0.8142(10) -0.0743(14)
C36 C -0.0258(9) 0.7668(8) 0.0147(10)
H1 H 0.1151(9) 0.4797(8) 0.1589(9)
H2 H 0.1215(12) 0.5148(10) 0.4048(10)
H3 H 0.2483(13) 0.7438(12) 0.6450(9)
H4 H 0.3545(16) 0.9519(11) 0.6380(11)
H5 H 0.3564(12) 0.9199(9) 0.3994(9)
H6 H -0.0342(7) 0.4561(7) -0.1478(8)
H7 H -0.0704(9) 0.1936(7) -0.3073(9)
H8 H 0.1472(11) 0.0840(7) -0.2787(10)
H9 H 0.4056(11) 0.2360(8) -0.1015(11)
H10 H 0.4466(8) 0.4985(7) 0.0576(8)
H11 H 0.4457(9) 1.4869(7) 0.4220(9)
H12 H 0.5875(11) 1.6540(8) 0.3909(10)
H13 H 0.8332(11) 1.6259(8) 0.4085(9)
H14 H 0.9376(11) 1.4276(9) 0.4450(12)
H15 H 0.7957(8) 1.2537(7) 0.4662(9)
H16 H 0.5834(11) 1.5184(9) 0.7311(9)
H17 H 0.6934(13) 1.6038(14) 1.0182(11)
H18 H 0.7669(13) 1.4314(21) 1.1236(11)
H19 H 0.7460(12) 1.1852(21) 0.9537(14)
H20 H 0.6360(8) 1.0924(11) 0.6646(9)
H21 H 0.3007(8) 1.2026(8) 0.1699(8)
H22 H 0.0299(9) 1.1604(9) 0.0386(9)
H23 H -0.1109(9) 1.1585(9) 0.1771(11)
H24 H 0.0259(9) 1.197(1) 0.4482(12)
H25 H 0.3074(8) 1.2439(8) 0.5871(9)
H26 H 0.2049(10) 0.7739(8) -0.1326(8)
H27 H -0.0039(12) 0.858(1) -0.2855(9)
H28 H -0.2289(13) 0.8749(10) -0.2550(12)
H29 H -0.2407(10) 0.8278(10) -0.0559(14)
H30 H -0.0327(9) 0.7425(8) 0.1006(10)
#END
