
#######################################################################
#
#                 Cambridge Crystallographic Data Centre
#                                CCDC
#
#######################################################################
#
# If this CIF has been generated from an entry in the Cambridge
# Structural Database, then it will include bibliographic, chemical,
# crystal, experimental, refinement or atomic coordinate data resulting
# from the CCDC's data processing and validation procedures.
#
#######################################################################

data_CSD_CIF_VEBYEH
_audit_creation_date 2006-05-24
_audit_creation_method CSD-ConQuest-V1
_database_code_CSD VEBYEH
_database_code_depnum_ccdc_archive 'CCDC 275722'
_chemical_formula_sum 'C20 H20 Cr1 Dy1 I2'
_chemical_formula_moiety
;
C10 H10 Cr1 1+,C10 H10 Dy1 I2 1-
;
_journal_coden_Cambridge 1290
_journal_year 2006
_journal_page_first 351
_journal_name_full 'Eur.J.Inorg.Chem. '
loop_
_publ_author_name
"M.E.Burin"
"M.V.Smirnova"
"G.K.Fukin"
"E.V.Baranov"
"M.N.Bochkarev"
_chemical_name_systematic
;
bis(\h^5^-Cyclopentadienyl)-chromium 
bis(\h^5^-cyclopentadienyl)-diiodo-dysprosium
;
_cell_volume   2081.847
_exptl_crystal_colour 'brown'
_exptl_crystal_density_diffrn 2.325
_exptl_crystal_description 'rhombus'
_diffrn_ambient_temperature 100
#These two values have been output from a single CSD field.
_refine_ls_R_factor_gt 0.0287
_refine_ls_wR_factor_gt 0.0287
_symmetry_cell_setting monoclinic
_symmetry_space_group_name_H-M 'C 2/m'
_symmetry_Int_Tables_number 12
loop_
_symmetry_equiv_pos_site_id
_symmetry_equiv_pos_as_xyz
1 x,y,z
2 1/2+x,1/2+y,z
3 -x,y,-z
4 1/2-x,1/2+y,-z
5 -x,-y,-z
6 -1/2-x,-1/2-y,-z
7 x,-y,z
8 -1/2+x,-1/2-y,z
_cell_length_a 15.6319(10)
_cell_length_b 16.6176(11)
_cell_length_c 8.2121(5)
_cell_angle_alpha 90
_cell_angle_beta 102.599(1)
_cell_angle_gamma 90
_cell_formula_units_Z 4
loop_
_atom_type_symbol
_atom_type_radius_bond
C 0.68
H 0.23
Cr 1.35
Dy 1.75
I 1.40
loop_
_atom_site_label
_atom_site_type_symbol
_atom_site_fract_x
_atom_site_fract_y
_atom_site_fract_z
Dy1 Dy 0.687830(16) 0.50000 0.95436(3)
Cr1 Cr 1.00000 0.31666(5) 1.50000
I1 I 0.64728(2) 0.50000 1.29406(4)
I2 I 0.88203(2) 0.50000 1.07619(5)
C1 C 0.7242(3) 0.6511(3) 0.8921(6)
H1 H 0.784(3) 0.668(3) 0.931(6)
C2 C 0.6521(3) 0.6548(2) 0.9611(6)
H2 H 0.65010 0.68530 1.06520
C3 C 0.5812(3) 0.6222(3) 0.8596(5)
H3 H 0.523(3) 0.614(3) 0.878(6)
C4 C 0.6078(3) 0.5964(2) 0.7161(5)
H4 H 0.564(3) 0.565(3) 0.636(6)
C5 C 0.6963(3) 0.6133(3) 0.7376(5)
H5 H 0.735(3) 0.598(3) 0.660(5)
C6 C 1.0770(3) 0.3783(3) 1.3429(6)
H6 H 1.0509(17) 0.4234(9) 1.278(3)
C7 C 1.1279(3) 0.3727(3) 1.5039(6)
H7 H 1.146(3) 0.413(4) 1.581(7)
C8 C 1.1407(3) 0.2917(3) 1.5461(5)
H8 H 1.1696(16) 0.2725(16) 1.6540(16)
C9 C 1.0988(3) 0.2461(3) 1.4078(5)
H9 H 1.098(3) 0.188(3) 1.401(5)
C10 C 1.0583(3) 0.2992(3) 1.2823(5)
H10 H 1.018(3) 0.285(3) 1.173(5)
C1F C 0.7242(3) 0.3489(3) 0.8921(6)
H1F H 0.784(3) 0.332(3) 0.931(6)
C2F C 0.6521(3) 0.3452(2) 0.9611(6)
H2F H 0.65010 0.31470 1.06520
C3F C 0.5812(3) 0.3778(3) 0.8596(5)
H3F H 0.523(3) 0.386(3) 0.878(6)
C4F C 0.6078(3) 0.4036(2) 0.7161(5)
H4F H 0.564(3) 0.435(3) 0.636(6)
C5F C 0.6963(3) 0.3867(3) 0.7376(5)
H5F H 0.735(3) 0.402(3) 0.660(5)
C6B C 0.9230(3) 0.3783(3) 1.6571(6)
H6B H 0.9491(17) 0.4234(9) 1.722(3)
C7B C 0.8721(3) 0.3727(3) 1.4961(6)
H7B H 0.854(3) 0.413(4) 1.419(7)
C8B C 0.8593(3) 0.2917(3) 1.4539(5)
H8B H 0.8304(16) 0.2725(16) 1.3460(16)
C9B C 0.9012(3) 0.2461(3) 1.5922(5)
H9B H 0.902(3) 0.188(3) 1.599(5)
C10B C 0.9417(3) 0.2992(3) 1.7177(5)
H10B H 0.982(3) 0.285(3) 1.827(5)
#END
