
#######################################################################
#
#                 Cambridge Crystallographic Data Centre
#                                CCDC
#
#######################################################################
#
# If this CIF has been generated from an entry in the Cambridge
# Structural Database, then it will include bibliographic, chemical,
# crystal, experimental, refinement or atomic coordinate data resulting
# from the CCDC's data processing and validation procedures.
#
#######################################################################

data_CSD_CIF_VECQEB
_audit_creation_date 2012-08-21
_audit_creation_method CSD-ConQuest-V1
_database_code_CSD VECQEB
_database_code_depnum_ccdc_archive 'CCDC 891846'
_chemical_formula_sum 'C14 H12 Mn1 N1 O2'
_chemical_formula_moiety
;
C14 H12 Mn1 N1 O2
;
_journal_coden_Cambridge 579
_journal_volume 24
_journal_year 2005
_journal_page_first 5807
_journal_name_full 'Organometallics '
loop_
_publ_author_name
"Lei Zhang"
"Nu Xiao"
"Qiang Xu"
"Jie Sun"
"Jiabi Chen"
_chemical_name_systematic
;
(\h^5^-cyclopentadienyl)-dicarbonyl-(amino(phenyl)methylidene)-manganese
;
_cell_volume    624.496
_exptl_crystal_density_diffrn 1.495
_diffrn_ambient_temperature 293
#These two values have been output from a single CSD field.
_refine_ls_R_factor_gt 0.0516
_refine_ls_wR_factor_gt 0.0516
_symmetry_cell_setting monoclinic
_symmetry_space_group_name_H-M 'P n'
_symmetry_Int_Tables_number 7
loop_
_symmetry_equiv_pos_site_id
_symmetry_equiv_pos_as_xyz
1 x,y,z
2 1/2+x,-y,1/2+z
_cell_length_a 6.0443(9)
_cell_length_b 10.6127(15)
_cell_length_c 9.8443(14)
_cell_angle_alpha 90
_cell_angle_beta 98.527(3)
_cell_angle_gamma 90
_cell_formula_units_Z 2
loop_
_atom_type_symbol
_atom_type_radius_bond
C 0.68
H 0.23
Mn 1.40
N 0.68
O 0.68
loop_
_atom_site_label
_atom_site_type_symbol
_atom_site_fract_x
_atom_site_fract_y
_atom_site_fract_z
Mn1 Mn 0.7589(1) 0.7707(1) 0.7563(1)
N1 N 1.0229(11) 0.5960(7) 0.6198(7)
O1 O 0.5223(11) 0.5429(6) 0.8153(7)
O2 O 1.1253(12) 0.6924(8) 0.9663(7)
C1 C 0.6139(13) 0.6357(7) 0.7868(8)
C2 C 0.9828(14) 0.7262(8) 0.8781(9)
C3 C 0.8263(14) 0.9698(7) 0.7792(11)
C4 C 0.6709(19) 0.9351(10) 0.8632(11)
C5 C 0.4882(16) 0.8921(8) 0.7856(16)
C6 C 0.5158(19) 0.8944(8) 0.6469(11)
C7 C 0.731(2) 0.9444(8) 0.6427(9)
C8 C 0.8649(12) 0.6819(7) 0.6065(7)
C9 C 0.7704(12) 0.7026(6) 0.4624(6)
C10 C 0.5552(13) 0.6665(8) 0.4098(8)
C11 C 0.4684(14) 0.6827(8) 0.2728(8)
C12 C 0.601(2) 0.7349(9) 0.1874(14)
C13 C 0.8121(16) 0.7737(7) 0.2356(9)
C14 C 0.901(2) 0.7558(8) 0.3689(11)
H1 H 1.05900 0.55950 0.54820
H2 H 1.09020 0.57610 0.70010
H3 H 0.96740 1.00370 0.80800
H4 H 0.69170 0.94110 0.95840
H5 H 0.36020 0.86440 0.81870
H6 H 0.41300 0.86830 0.57250
H7 H 0.79780 0.95790 0.56460
H8 H 0.46580 0.63020 0.46830
H9 H 0.32250 0.65840 0.23970
H10 H 0.54610 0.74410 0.09450
H11 H 0.89690 0.81310 0.17650
H12 H 1.04840 0.77860 0.39910
#END
