
#######################################################################
#
#                 Cambridge Crystallographic Data Centre
#                                CCDC
#
#######################################################################
#
# If this CIF has been generated from an entry in the Cambridge
# Structural Database, then it will include bibliographic, chemical,
# crystal, experimental, refinement or atomic coordinate data resulting
# from the CCDC's data processing and validation procedures.
#
#######################################################################

data_CSD_CIF_VEFVEH
_audit_creation_date 1990-10-01
_audit_creation_method CSD-ConQuest-V1
_database_code_CSD VEFVEH
_chemical_formula_sum 'C10 H24 Br3 Cr1 N4'
_chemical_formula_moiety
;
C10 H24 Br2 Cr1 N4 1+,Br1 1-
;
_journal_coeditor_code "IUCr MU0077"
_journal_coden_Cambridge 591
_journal_volume 46
_journal_year 1990
_journal_page_first 396
_journal_name_full 'Acta Crystallogr.,Sect.C:Cryst.Struct.Commun. '
loop_
_publ_author_name
"J.N.Lisgarten"
"R.A.Palmer"
"A.M.Hemmings"
"D.M.Gazi"
_chemical_name_systematic
;
trans-Dibromo-(1,4,8,11-tetra-azacyclotetradecane-N,N',N'',N''')-chromium(iii)
 bromide
;
_cell_volume    834.457
_exptl_crystal_colour 'bright green'
_exptl_crystal_density_diffrn 1.96
_diffrn_ambient_temperature ?
_diffrn_special_details
;
The study was carried out at room temperature,in the range 283-303K

;
#These two values have been output from a single CSD field.
_refine_ls_R_factor_gt 0.0722
_refine_ls_wR_factor_gt 0.0722
_symmetry_cell_setting tetragonal
_symmetry_space_group_name_H-M 'P 42/m'
_symmetry_Int_Tables_number 84
loop_
_symmetry_equiv_pos_site_id
_symmetry_equiv_pos_as_xyz
1 x,y,z
2 -y,x,1/2+z
3 -x,-y,z
4 y,-x,1/2+z
5 -x,-y,-z
6 y,-x,-1/2-z
7 x,y,-z
8 -y,x,-1/2-z
_cell_length_a 7.860(1)
_cell_length_b 7.860(1)
_cell_length_c 13.507(2)
_cell_angle_alpha 90
_cell_angle_beta 90
_cell_angle_gamma 90
_cell_formula_units_Z 2
loop_
_atom_type_symbol
_atom_type_radius_bond
C 0.68
H 0.23
Br 1.21
Cr 1.35
N 0.68
loop_
_atom_site_label
_atom_site_type_symbol
_atom_site_fract_x
_atom_site_fract_y
_atom_site_fract_z
Br1 Br 0.2466(1) 1.1914(1) 0.50000
Cr1 Cr 0.50000 1.00000 0.50000
Br2 Br 0.50000 0.50000 0.25000
C1 C 0.4137(9) 0.9559(7) 0.7037(3)
N1 N 0.4025(6) 0.8526(5) 0.6121(3)
C2 C 0.2310(8) 0.7810(7) 0.5980(6)
C3 C 0.2236(12) 0.6772(11) 0.50000
H1 H 0.31330 1.04970 0.70400
H2 H 0.40200 0.87560 0.76820
H3 H 0.49280 0.74900 0.61630
H4 H 0.19890 0.69870 0.65920
H5 H 0.13990 0.88360 0.59370
H6 H 0.33180 0.59240 0.50000
H7 H 0.10770 0.60350 0.50000
Br1D Br 0.7534(1) 0.8086(1) 0.50000
N1D N 0.5975(6) 1.1474(5) 0.3879(3)
N1B N 0.5975(6) 1.1474(5) 0.6121(3)
N1F N 0.4025(6) 0.8526(5) 0.3879(3)
C1B C 0.5863(9) 1.0441(7) 0.7037(3)
C2F C 0.2310(8) 0.7810(7) 0.4020(6)
C1D C 0.5863(9) 1.0441(7) 0.2963(3)
C2D C 0.7690(8) 1.2190(7) 0.4020(6)
H3D H 0.50720 1.25100 0.38370
C2B C 0.7690(8) 1.2190(7) 0.5980(6)
H3B H 0.50720 1.25100 0.61630
C1F C 0.4137(9) 0.9559(7) 0.2963(3)
H3F H 0.49280 0.74900 0.38370
H1B H 0.68670 0.95030 0.70400
H2B H 0.59800 1.12440 0.76820
H4F H 0.19890 0.69870 0.34080
H5F H 0.13990 0.88360 0.40630
H1D H 0.68670 0.95030 0.29600
H2D H 0.59800 1.12440 0.23180
C3D C 0.7764(12) 1.3228(11) 0.50000
H4D H 0.80110 1.30130 0.34080
H5D H 0.86010 1.11640 0.40630
H4B H 0.80110 1.30130 0.65920
H5B H 0.86010 1.11640 0.59370
H1F H 0.31330 1.04970 0.29600
H2F H 0.40200 0.87560 0.23180
H6D H 0.66820 1.40760 0.50000
H7D H 0.89230 1.39650 0.50000
#END
