
#######################################################################
#
#                 Cambridge Crystallographic Data Centre
#                                CCDC
#
#######################################################################
#
# If this CIF has been generated from an entry in the Cambridge
# Structural Database, then it will include bibliographic, chemical,
# crystal, experimental, refinement or atomic coordinate data resulting
# from the CCDC's data processing and validation procedures.
#
#######################################################################

data_CSD_CIF_VEFYIR
_audit_creation_date 2017-09-11
_audit_creation_method CSD-ConQuest-V1
_database_code_CSD VEFYIR
_database_code_depnum_ccdc_archive 'CCDC 1485991'
_chemical_formula_sum 'C14 H29 Br1 Mn1 N1 O2 P2'
_chemical_formula_moiety
;
C14 H29 Br1 Mn1 N1 O2 P2
;
_journal_coden_Cambridge 179
_journal_volume 55
_journal_year 2016
_journal_page_first 15364
_journal_name_full 'Angew.Chem.,Int.Ed. '
loop_
_publ_author_name
"S.Elangovan"
"M.Garbe"
"Haijun Jiao"
"A.Spannenberg"
"Kathrin Junge"
"M.Beller"
_chemical_name_systematic
;
bromo-dicarbonyl-(N,N-bis(2-(diethylphosphino)ethyl)amine)-manganese
;
_cell_volume    972.635
_exptl_crystal_colour 'yellow'
_exptl_crystal_density_diffrn 1.503
_exptl_crystal_description 'prism'
_diffrn_ambient_temperature 150
#These two values have been output from a single CSD field.
_refine_ls_R_factor_gt 0.0197
_refine_ls_wR_factor_gt 0.0197
_symmetry_cell_setting triclinic
_symmetry_space_group_name_H-M 'P -1'
_symmetry_Int_Tables_number 2
loop_
_symmetry_equiv_pos_site_id
_symmetry_equiv_pos_as_xyz
1 x,y,z
2 -x,-y,-z
_cell_length_a 9.1243(2)
_cell_length_b 10.5149(3)
_cell_length_c 11.5011(3)
_cell_angle_alpha 101.4765(7)
_cell_angle_beta 101.9794(6)
_cell_angle_gamma 109.6092(6)
_cell_formula_units_Z 2
loop_
_atom_type_symbol
_atom_type_radius_bond
C 0.68
H 0.23
Br 1.21
Mn 1.61
N 0.68
O 0.68
P 1.05
loop_
_atom_site_label
_atom_site_type_symbol
_atom_site_fract_x
_atom_site_fract_y
_atom_site_fract_z
Br1 Br 0.35722(2) 0.63338(2) 0.50799(2)
C1 C 0.77779(19) 0.80720(17) 0.74846(16)
H1 H 0.77110 0.78440 0.65930
H2 H 0.88710 0.88070 0.79630
C2 C 0.74981(18) 0.67621(16) 0.79162(16)
H3 H 0.82280 0.63090 0.76810
H4 H 0.77480 0.70240 0.88320
C3 C 0.54339(19) 0.44964(16) 0.77735(15)
H5 H 0.55440 0.47610 0.86720
H6 H 0.62230 0.40660 0.76450
C4 C 0.37124(19) 0.34469(16) 0.70519(15)
H7 H 0.33760 0.26880 0.74500
H8 H 0.36660 0.30120 0.61910
C5 C 0.6240(2) 0.98801(16) 0.67542(15)
H9 H 0.73650 1.05940 0.69780
H10 H 0.59430 0.93210 0.58770
C6 C 0.5094(2) 1.06346(19) 0.68679(18)
H11 H 0.39670 0.99380 0.65930
H12 H 0.52100 1.12740 0.63480
H13 H 0.53650 1.11780 0.77360
C7 C 0.7073(2) 0.99255(16) 0.93146(14)
H14 H 0.62320 1.02450 0.95280
H15 H 0.73210 0.93920 0.98930
C8 C 0.8610(2) 1.12283(18) 0.95507(17)
H16 H 0.94420 1.09380 0.93050
H17 H 0.90180 1.17510 1.04360
H18 H 0.83570 1.18340 0.90630
C9 C 0.1352(2) 0.39154(17) 0.82078(15)
H19 H 0.08590 0.28750 0.80130
H20 H 0.21860 0.42910 0.90300
C10 C 0.0034(2) 0.4493(2) 0.82732(19)
H21 H 0.05180 0.55240 0.84750
H22 H -0.04500 0.42240 0.89180
H23 H -0.08120 0.41010 0.74690
C11 C 0.07140(19) 0.33953(16) 0.55720(15)
H24 H -0.01380 0.37840 0.55360
H25 H 0.11690 0.35530 0.48780
C12 C -0.0088(2) 0.18094(19) 0.53667(18)
H26 H 0.07490 0.14170 0.54520
H27 H -0.08640 0.13610 0.45310
H28 H -0.06650 0.16320 0.59850
C13 C 0.25375(19) 0.74123(16) 0.74137(13)
C14 C 0.43679(19) 0.69435(15) 0.90158(14)
Mn1 Mn 0.40312(3) 0.66757(2) 0.74135(2)
N1 N 0.57767(15) 0.57647(13) 0.73319(12)
O1 O 0.15737(15) 0.78937(14) 0.74602(12)
O2 O 0.45560(16) 0.71337(13) 1.00628(11)
P1 P 0.61952(5) 0.87099(4) 0.77367(3)
P2 P 0.23369(5) 0.43843(4) 0.70343(3)
H29 H 0.565(2) 0.5491(17) 0.6584(17)
#END
