
#######################################################################
#
#                 Cambridge Crystallographic Data Centre
#                                CCDC
#
#######################################################################
#
# If this CIF has been generated from an entry in the Cambridge
# Structural Database, then it will include bibliographic, chemical,
# crystal, experimental, refinement or atomic coordinate data resulting
# from the CCDC's data processing and validation procedures.
#
#######################################################################

data_CSD_CIF_VEGHOE
_audit_creation_date 1990-10-01
_audit_creation_method CSD-ConQuest-V1
_database_code_CSD VEGHOE
_chemical_formula_sum 'C11 H20 Cl1 Co1 N6 O4'
_chemical_formula_moiety
;
C11 H18 Co1 N6 O3 1+,Cl1 1-,H2 O1
;
_journal_coeditor_code "IUCr MN0694"
_journal_coden_Cambridge 591
_journal_volume 46
_journal_year 1990
_journal_page_first 578
_journal_name_full 'Acta Crystallogr.,Sect.C:Cryst.Struct.Commun. '
loop_
_publ_author_name
"A.Wojtczak"
"Z.Kosturkiewicz"
"A.Surdykowski"
_chemical_name_systematic
;
bis(4-(2-Aminoethyl)imidazole-N,N')-(carbonato-O,O')-cobalt(iii) chloride 
monohydrate
;
_chemical_name_common
;
(Carbonato-O,O')-bis(histamine-N,N')-cobalt(iii) chloride monohydrate
;
_cell_volume    784.074
_exptl_crystal_density_diffrn 1.672
_diffrn_ambient_temperature ?
_diffrn_special_details
;
The study was carried out at room temperature,in the range 283-303K

;
#These two values have been output from a single CSD field.
_refine_ls_R_factor_gt 0.03
_refine_ls_wR_factor_gt 0.03
_symmetry_cell_setting triclinic
_symmetry_space_group_name_H-M 'P -1'
_symmetry_Int_Tables_number 2
loop_
_symmetry_equiv_pos_site_id
_symmetry_equiv_pos_as_xyz
1 x,y,z
2 -x,-y,-z
_cell_length_a 9.712(3)
_cell_length_b 15.556(5)
_cell_length_c 7.192(3)
_cell_angle_alpha 92.24(3)
_cell_angle_beta 128.14(2)
_cell_angle_gamma 106.69(3)
_cell_formula_units_Z 2
loop_
_atom_type_symbol
_atom_type_radius_bond
C 0.68
H 0.23
Cl 0.99
Co 1.22
N 0.68
O 0.68
loop_
_atom_site_label
_atom_site_type_symbol
_atom_site_fract_x
_atom_site_fract_y
_atom_site_fract_z
Co1 Co 0.48298(6) 0.22669(3) 0.09438(8)
N1 N 0.0824(4) -0.0330(2) -0.1529(5)
C1 C 0.1411(5) 0.0570(2) -0.1431(6)
N2 N 0.3294(4) 0.0995(2) 0.0296(5)
C2 C 0.3930(5) 0.0320(2) 0.1355(6)
C3 C 0.2405(6) -0.0494(2) 0.0224(7)
C4 C 0.5997(5) 0.0550(2) 0.3389(7)
C5 C 0.6987(5) 0.1504(2) 0.5176(6)
N3 N 0.7109(4) 0.2262(2) 0.4035(5)
N4 N 0.8182(4) 0.4684(2) 0.1432(6)
C6 C 0.7344(5) 0.3760(2) 0.0828(6)
N5 N 0.6326(4) 0.3530(2) 0.1518(5)
C7 C 0.6557(5) 0.4369(2) 0.2646(6)
C8 C 0.7721(6) 0.5083(2) 0.2591(7)
C9 C 0.5603(6) 0.4429(2) 0.3624(7)
C10 C 0.5190(5) 0.3585(3) 0.4465(7)
N6 N 0.3911(4) 0.2716(2) 0.2381(5)
O1 O 0.5236(3) 0.1791(2) -0.1101(4)
O2 O 0.2856(3) 0.2164(2) -0.2469(4)
C11 C 0.3667(5) 0.1812(2) -0.3032(6)
O3 O 0.2981(3) 0.1512(2) -0.5197(4)
Cl1 Cl 0.0328(1) 0.35590 -0.0116(2)
O4 O 0.0058(4) 0.2653(2) 0.3684(5)
H1 H -0.06000 -0.08100 -0.28000
H2 H 0.04200 0.08100 -0.28300
H3 H 0.22400 -0.11800 0.02200
H4 H 0.60600 0.00700 0.42300
H5 H 0.66400 0.05300 0.26300
H6 H 0.63600 0.16200 0.57900
H7 H 0.82700 0.16100 0.67000
H8 H 0.77200 0.28700 0.53000
H9 H 0.77900 0.22400 0.36400
H10 H 0.90100 0.50500 0.11300
H11 H 0.74600 0.32900 0.00300
H12 H 0.82400 0.57900 0.31600
H13 H 0.67200 0.49800 0.53200
H14 H 0.42100 0.44300 0.21300
H15 H 0.65300 0.35500 0.60300
H16 H 0.44900 0.36500 0.50300
H17 H 0.26900 0.27800 0.10600
H18 H 0.34000 0.22100 0.27400
H19 H 0.02400 0.29000 0.26200
H20 H 0.11600 0.26100 0.50500
#END
