
#######################################################################
#
#                 Cambridge Crystallographic Data Centre
#                                CCDC
#
#######################################################################
#
# If this CIF has been generated from an entry in the Cambridge
# Structural Database, then it will include bibliographic, chemical,
# crystal, experimental, refinement or atomic coordinate data resulting
# from the CCDC's data processing and validation procedures.
#
#######################################################################

data_CSD_CIF_VEKFIA
_audit_creation_date 1991-02-12
_audit_creation_method CSD-ConQuest-V1
_database_code_CSD VEKFIA
_database_code_depnum_ccdc_archive 'CCDC 1281738'
_chemical_formula_sum 'C10 H14 Mn1 N4 O8'
_chemical_formula_moiety
;
C10 H10 Mn1 N4 O6,2(H2 O1)
;
_journal_coden_Cambridge 155
_journal_volume 166
_journal_year 1989
_journal_page_first 233
_journal_name_full 'Inorg.Chim.Acta '
loop_
_publ_author_name
"E.S.Ardiwinata"
"D.C.Craig"
"D.J.Phillips"
_chemical_name_systematic
;
Diaqua-bis(3-pyridazinecarboxylato-N,O)-manganese(ii) dihydrate
;
_cell_volume    364.355
_exptl_crystal_colour 'yellow'
_exptl_crystal_density_diffrn 1.7
_diffrn_ambient_temperature ?
_diffrn_special_details
;
The study was carried out at room temperature,in the range 283-303K

;
#These two values have been output from a single CSD field.
_refine_ls_R_factor_gt 0.021
_refine_ls_wR_factor_gt 0.021
_symmetry_cell_setting triclinic
_symmetry_space_group_name_H-M 'P -1'
_symmetry_Int_Tables_number 2
loop_
_symmetry_equiv_pos_site_id
_symmetry_equiv_pos_as_xyz
1 x,y,z
2 -x,-y,-z
_cell_length_a 5.356(1)
_cell_length_b 7.433(2)
_cell_length_c 9.800(2)
_cell_angle_alpha 79.79(2)
_cell_angle_beta 88.92(2)
_cell_angle_gamma 71.74(2)
_cell_formula_units_Z 1
loop_
_atom_type_symbol
_atom_type_radius_bond
C 0.68
H 0.23
Mn 1.35
N 0.68
O 0.68
loop_
_atom_site_label
_atom_site_type_symbol
_atom_site_fract_x
_atom_site_fract_y
_atom_site_fract_z
Mn1 Mn 0.50000 0.50000 0.50000
O1 O 0.2921(2) 0.4641(2) 0.6860(1)
O2 O 0.2955(3) 0.2848(2) 0.8938(1)
O3 O 0.3215(2) 0.3121(2) 0.4115(1)
N1 N 0.7697(2) 0.2427(2) 0.6386(1)
N2 N 1.0104(3) 0.1396(2) 0.6066(1)
C1 C 1.1365(3) -0.0212(2) 0.6925(2)
C2 C 1.0327(4) -0.0883(3) 0.8140(2)
C3 C 0.7910(3) 0.0203(2) 0.8480(2)
C4 C 0.6638(3) 0.1883(2) 0.7561(1)
C5 C 0.3942(3) 0.3244(2) 0.7808(2)
H1 H 0.2093(56) 0.2878(40) 0.4530(29)
H2 H 0.2653(53) 0.3562(39) 0.3324(29)
H3 H 1.3176(56) -0.0961(37) 0.6679(27)
H4 H 1.1221(56) -0.2024(40) 0.8695(28)
H5 H 0.7001(53) -0.0078(37) 0.9312(28)
O4 O 0.2350(3) 0.4726(2) 1.1329(1)
H6 H 0.2761(60) 0.4320(43) 1.0601(32)
H7 H 0.0739(68) 0.5393(42) 1.1275(33)
O1A O 0.7079(2) 0.5359(2) 0.3140(1)
O3A O 0.6785(2) 0.6879(2) 0.5885(1)
N1A N 0.2303(2) 0.7573(2) 0.3614(1)
C5A C 0.6058(3) 0.6756(2) 0.2192(2)
H1A H 0.7907(56) 0.7122(40) 0.5470(29)
H2A H 0.7347(53) 0.6438(39) 0.6676(29)
N2A N -0.0104(3) 0.8604(2) 0.3934(1)
C4A C 0.3362(3) 0.8117(2) 0.2439(1)
O2A O 0.7045(3) 0.7152(2) 0.1062(1)
C1A C -0.1365(3) 1.0212(2) 0.3075(2)
C3A C 0.2090(3) 0.9797(2) 0.1520(2)
C2A C -0.0327(4) 1.0883(3) 0.1860(2)
H3A H -0.3176(56) 1.0961(37) 0.3321(27)
H5A H 0.2999(53) 1.0078(37) 0.0688(28)
H4A H -0.1221(56) 1.2024(40) 0.1305(28)
#END
