
#######################################################################
#
#                 Cambridge Crystallographic Data Centre
#                                CCDC
#
#######################################################################
#
# If this CIF has been generated from an entry in the Cambridge
# Structural Database, then it will include bibliographic, chemical,
# crystal, experimental, refinement or atomic coordinate data resulting
# from the CCDC's data processing and validation procedures.
#
#######################################################################

data_CSD_CIF_VEKFIA01
_audit_creation_date 2003-01-14
_audit_creation_method CSD-ConQuest-V1
_database_code_CSD VEKFIA01
_database_code_depnum_ccdc_archive 'CCDC 194023'
_chemical_formula_sum 'C10 H14 Mn1 N4 O8'
_chemical_formula_moiety
;
C10 H10 Mn1 N4 O6,2(H2 O1)
;
_journal_coden_Cambridge 1078
_journal_year 2002
_journal_name_full 'CSD Communication(Private Communication) '
loop_
_publ_author_name
"M.Nieger"
"H.Hupfer"
"C.Jung"
"E.Steckhan"
_chemical_name_systematic
;
Diaqua-bis(3-pyridazinecarboxylato-N,O)-manganese(ii) dihydrate
;
_cell_volume    357.630
_exptl_crystal_colour 'yellow'
_exptl_crystal_density_diffrn 1.733
_exptl_special_details
;
contribution from Institut fur Anorganische Chemie, Universitat Bonn, 
Gerhard-Domagk-Str. 1, D-53121 Bonn, Bundesrepublik Deutschland
;
_exptl_crystal_description 'prisms'
_diffrn_ambient_temperature 123
#These two values have been output from a single CSD field.
_refine_ls_R_factor_gt 0.0266
_refine_ls_wR_factor_gt 0.0266
_symmetry_cell_setting triclinic
_symmetry_space_group_name_H-M 'P -1'
_symmetry_Int_Tables_number 2
loop_
_symmetry_equiv_pos_site_id
_symmetry_equiv_pos_as_xyz
1 x,y,z
2 -x,-y,-z
_cell_length_a 5.3270(4)
_cell_length_b 7.3291(7)
_cell_length_c 9.7475(9)
_cell_angle_alpha 80.530(4)
_cell_angle_beta 89.503(5)
_cell_angle_gamma 72.482(5)
_cell_formula_units_Z 1
loop_
_atom_type_symbol
_atom_type_radius_bond
C 0.68
H 0.23
Mn 1.35
N 0.68
O 0.68
loop_
_atom_site_label
_atom_site_type_symbol
_atom_site_fract_x
_atom_site_fract_y
_atom_site_fract_z
Mn1 Mn 0.50000 0.50000 0.50000
N1 N -0.0106(2) 0.86010(19) 0.39390(14)
N2 N 0.2305(2) 0.75693(18) 0.36119(13)
C1 C 0.3363(3) 0.8116(2) 0.24345(15)
C2 C 0.2095(3) 0.9805(2) 0.15064(16)
H1 H 0.28820 1.01840 0.06730
C3 C -0.0339(3) 1.0896(2) 0.18480(17)
H2 H -0.12870 1.20730 0.12660
C4 C -0.1370(3) 1.0218(2) 0.30758(17)
H3 H -0.30680 1.09500 0.33090
C5 C 0.6055(3) 0.6752(2) 0.21799(16)
O1 O 0.7049(2) 0.71505(16) 0.10468(11)
O2 O 0.7081(2) 0.53439(16) 0.31347(11)
O3 O 0.3211(2) 0.30748(17) 0.41075(12)
H4 H 0.204(4) 0.273(3) 0.452(2)
H5 H 0.265(4) 0.348(3) 0.3274(17)
O4 O 0.7678(2) 0.52795(19) -0.13484(12)
H6 H 0.733(4) 0.582(3) -0.0646(19)
H7 H 0.927(3) 0.452(3) -0.123(2)
N2A N 0.7695(2) 0.24307(18) 0.63881(13)
N1A N 1.0106(2) 0.13990(19) 0.60610(14)
C4A C 1.1370(3) -0.0218(2) 0.69242(17)
C3A C 1.0339(3) -0.0896(2) 0.81520(17)
C2A C 0.7905(3) 0.0195(2) 0.84936(16)
C1A C 0.6637(3) 0.1884(2) 0.75655(15)
C5A C 0.3945(3) 0.3248(2) 0.78201(16)
O1A O 0.2951(2) 0.28495(16) 0.89532(11)
O2A O 0.2919(2) 0.46561(16) 0.68653(11)
O3A O 0.6789(2) 0.69252(17) 0.58925(12)
H4A H 0.796(4) 0.727(3) 0.548(2)
H5A H 0.735(4) 0.652(3) 0.6726(17)
H1A H 0.71180 -0.01840 0.93270
H2A H 1.12870 -0.20730 0.87340
H3A H 1.30680 -0.09500 0.66910
#END
