
#######################################################################
#
#                 Cambridge Crystallographic Data Centre
#                                CCDC
#
#######################################################################
#
# If this CIF has been generated from an entry in the Cambridge
# Structural Database, then it will include bibliographic, chemical,
# crystal, experimental, refinement or atomic coordinate data resulting
# from the CCDC's data processing and validation procedures.
#
#######################################################################

data_CSD_CIF_VERBEZ
_audit_creation_date 1991-03-28
_audit_creation_method CSD-ConQuest-V1
_database_code_CSD VERBEZ
_chemical_formula_sum 'C19 H15 Cl1 Cr1 O3'
_chemical_formula_moiety
;
C19 H15 Cl1 Cr1 O3
;
_journal_coden_Cambridge 9
_journal_volume 29
_journal_year 1990
_journal_page_first 1807
_journal_name_full 'Inorg.Chem. '
loop_
_publ_author_name
"P.Stavropoulos"
"N.Bryson"
"M.-T.Youinou"
"J.A.Osborn"
_chemical_name_systematic
;
Chloro-dioxo-triphenylmethoxy-chromium(vi)
;
_cell_volume    846.782
_exptl_crystal_colour 'red'
_exptl_crystal_density_diffrn 1.486
_exptl_special_details
;
Fw reported as 846.8; we calculate 378.8

;
_diffrn_ambient_temperature 173.15
#These two values have been output from a single CSD field.
_refine_ls_R_factor_gt 0.044
_refine_ls_wR_factor_gt 0.044
_symmetry_cell_setting triclinic
_symmetry_space_group_name_H-M 'P -1'
_symmetry_Int_Tables_number 2
loop_
_symmetry_equiv_pos_site_id
_symmetry_equiv_pos_as_xyz
1 x,y,z
2 -x,-y,-z
_cell_length_a 9.913(3)
_cell_length_b 10.173(3)
_cell_length_c 9.019(3)
_cell_angle_alpha 92.93(2)
_cell_angle_beta 92.74(2)
_cell_angle_gamma 110.84(3)
_cell_formula_units_Z 2
loop_
_atom_type_symbol
_atom_type_radius_bond
C 0.68
H 0.23
Cl 0.99
Cr 1.29
O 0.68
loop_
_atom_site_label
_atom_site_type_symbol
_atom_site_fract_x
_atom_site_fract_y
_atom_site_fract_z
Cr1 Cr 0.1685(1) 0.3604(1) 0.1770(2)
Cl1 Cl 0.0838(2) 0.3580(2) 0.3901(2)
O1 O 0.3140(6) 0.4914(5) 0.1802(6)
O2 O 0.0542(6) 0.3778(5) 0.0565(6)
O3 O 0.1940(5) 0.2071(5) 0.1359(5)
C1 C 0.3038(7) 0.1450(7) 0.1037(8)
C2 C 0.2870(7) 0.1187(7) -0.0679(8)
C3 C 0.3101(8) 0.2304(7) -0.1567(9)
C4 C 0.2905(8) 0.2094(8) -0.3090(8)
C5 C 0.2549(8) 0.0741(8) -0.3744(9)
C6 C 0.2352(8) -0.0372(8) -0.2896(9)
C7 C 0.2503(8) -0.0164(8) -0.1344(9)
C8 C 0.2610(8) 0.0105(7) 0.1850(8)
C9 C 0.1179(8) -0.0700(8) 0.1983(9)
C10 C 0.0828(9) -0.1941(8) 0.2695(9)
C11 C 0.1881(9) -0.2406(8) 0.3268(9)
C12 C 0.3276(8) -0.1631(8) 0.311(1)
C13 C 0.3662(8) -0.0376(8) 0.2410(9)
C14 C 0.4552(8) 0.2487(7) 0.1620(8)
C15 C 0.4732(8) 0.3023(8) 0.3112(9)
C16 C 0.6090(8) 0.3884(8) 0.3700(9)
C17 C 0.7257(8) 0.4207(8) 0.283(1)
C18 C 0.7077(8) 0.3680(8) 0.1378(9)
C19 C 0.5728(7) 0.2830(7) 0.0771(8)
H1 H 0.34010 0.32350 -0.11130
H2 H 0.30110 0.28340 -0.36850
H3 H 0.24410 0.05870 -0.47970
H4 H 0.23100 -0.12940 -0.33590
H5 H 0.23550 -0.09410 -0.07400
H6 H 0.04350 -0.04050 0.15870
H7 H -0.01600 -0.24850 0.27900
H8 H 0.16260 -0.32580 0.37630
H9 H 0.40110 -0.19470 0.34800
H10 H 0.46340 0.01550 0.23150
H11 H 0.39270 0.27950 0.37090
H12 H 0.62190 0.42540 0.47060
H13 H 0.81880 0.47960 0.32480
H14 H 0.78860 0.39010 0.07870
H15 H 0.56070 0.24780 -0.02410
#END
