
#######################################################################
#
#                 Cambridge Crystallographic Data Centre
#                                CCDC
#
#######################################################################
#
# If this CIF has been generated from an entry in the Cambridge
# Structural Database, then it will include bibliographic, chemical,
# crystal, experimental, refinement or atomic coordinate data resulting
# from the CCDC's data processing and validation procedures.
#
#######################################################################

data_CSD_CIF_VEVTEY
_audit_creation_date 2018-01-25
_audit_creation_method CSD-ConQuest-V1
_database_code_CSD VEVTEY
_database_code_depnum_ccdc_archive 'CCDC 1571483'
_chemical_formula_sum 'C16 H18 Br3 Co1 N4'
_chemical_formula_moiety
;
C16 H18 Br2 Co1 N4 1+,Br1 1-
;
_journal_coden_Cambridge 182
_journal_volume 54
_journal_year 2018
_journal_page_first 1579
_journal_name_full 'Chem.Commun. '
loop_
_publ_author_name
"Weixuan Nie"
"C.C.L.McCrory"
_chemical_name_systematic
;
dibromo-{N,N'-(ethane-1,2-diyl)bis[1-(pyridin-2-yl)ethan-1-imine]}-cobalt 
bromide
;
_cell_volume    931.710
_exptl_crystal_colour 'green'
_exptl_crystal_density_diffrn 2.014
_exptl_crystal_description 'block'
_diffrn_ambient_temperature 293
#These two values have been output from a single CSD field.
_refine_ls_R_factor_gt 0.0252
_refine_ls_wR_factor_gt 0.0252
_symmetry_cell_setting triclinic
_symmetry_space_group_name_H-M 'P -1'
_symmetry_Int_Tables_number 2
loop_
_symmetry_equiv_pos_site_id
_symmetry_equiv_pos_as_xyz
1 x,y,z
2 -x,-y,-z
_cell_length_a 8.2736(4)
_cell_length_b 10.7007(5)
_cell_length_c 11.1674(4)
_cell_angle_alpha 85.313(4)
_cell_angle_beta 71.078(4)
_cell_angle_gamma 86.856(4)
_cell_formula_units_Z 2
loop_
_atom_type_symbol
_atom_type_radius_bond
C 0.68
H 0.23
Br 1.21
Co 1.26
N 0.68
loop_
_atom_site_label
_atom_site_type_symbol
_atom_site_fract_x
_atom_site_fract_y
_atom_site_fract_z
Co1 Co 0.61361(5) 0.26079(3) 0.24346(3)
Br1 Br 0.48486(3) 0.46495(2) 0.22276(2)
Br2 Br 0.74943(3) 0.06128(2) 0.26588(2)
C1 C 0.5566(3) 0.2130(2) -0.0021(2)
H1 H 0.65490 0.25650 -0.04590
C2 C 0.4655(3) 0.1627(2) -0.0705(2)
H2 H 0.50370 0.17200 -0.15870
C3 C 0.3181(3) 0.0988(2) -0.0073(3)
H3 H 0.25710 0.06290 -0.05190
C4 C 0.2628(3) 0.0892(2) 0.1251(2)
H4 H 0.16320 0.04790 0.17070
C5 C 0.3595(3) 0.1426(2) 0.1874(2)
C6 C 0.3098(3) 0.1425(2) 0.3266(2)
C7 C 0.1549(3) 0.0774(3) 0.4098(2)
H5 H 0.14270 0.08710 0.49700
H6 H 0.16620 -0.01020 0.39470
H7 H 0.05590 0.11310 0.39140
C8 C 0.4082(3) 0.2052(2) 0.4972(2)
H8 H 0.44540 0.12480 0.52770
H9 H 0.29220 0.22360 0.55040
C9 C 0.5264(3) 0.3077(2) 0.5027(2)
H10 H 0.46330 0.38720 0.51790
H11 H 0.57350 0.28680 0.57110
C10 C 0.8036(3) 0.3765(2) 0.3577(2)
C11 C 0.8558(3) 0.4399(3) 0.4520(2)
H12 H 0.75880 0.44980 0.52660
H13 H 0.89900 0.52080 0.41630
H14 H 0.94330 0.39000 0.47410
C12 C 0.9130(3) 0.3757(2) 0.2244(2)
C13 C 1.0758(3) 0.4228(2) 0.1802(2)
H15 H 1.11970 0.46170 0.23400
C14 C 1.1726(3) 0.4110(2) 0.0538(2)
H16 H 1.28250 0.44170 0.02160
C15 C 1.1025(3) 0.3531(2) -0.0229(2)
H17 H 1.16520 0.34390 -0.10770
C16 C 0.9377(3) 0.3084(2) 0.0270(2)
H18 H 0.89230 0.26840 -0.02520
N1 N 0.5081(3) 0.20120(19) 0.12448(19)
N2 N 0.4141(3) 0.20055(19) 0.36418(19)
N3 N 0.6648(3) 0.31734(19) 0.38028(19)
N4 N 0.8423(3) 0.32107(19) 0.14804(19)
Br3 Br -0.06645(4) 0.23957(2) 0.71420(2)
#END
