
#######################################################################
#
#                 Cambridge Crystallographic Data Centre
#                                CCDC
#
#######################################################################
#
# If this CIF has been generated from an entry in the Cambridge
# Structural Database, then it will include bibliographic, chemical,
# crystal, experimental, refinement or atomic coordinate data resulting
# from the CCDC's data processing and validation procedures.
#
#######################################################################

data_CSD_CIF_VIBFIX
_audit_creation_date 2013-05-24
_audit_creation_method CSD-ConQuest-V1
_database_code_CSD VIBFIX
_database_code_depnum_ccdc_archive 'CCDC 922137'
_chemical_formula_sum 'C18 H13 Fe1 N1 S2'
_chemical_formula_moiety
;
C18 H13 Fe1 N1 S2
;
_journal_coden_Cambridge 440
_journal_volume 37
_journal_year 2013
_journal_page_first 2019
_journal_name_full 'New J.Chem. '
loop_
_publ_author_name
"J.Tauchman"
"K.Hladikova"
"Filip Uhlik"
"I.Cisarova"
"P.Stepnicka"
_chemical_name_systematic
;
2-ferrocenyl-4H-3,1-benzothiazine-4-thione
;
_cell_volume    736.101
_exptl_crystal_colour 'red'
_exptl_crystal_density_diffrn 1.639
_exptl_crystal_description 'plate'
_diffrn_ambient_temperature 150
#These two values have been output from a single CSD field.
_refine_ls_R_factor_gt 0.0294
_refine_ls_wR_factor_gt 0.0294
_symmetry_cell_setting triclinic
_symmetry_space_group_name_H-M 'P -1'
_symmetry_Int_Tables_number 2
loop_
_symmetry_equiv_pos_site_id
_symmetry_equiv_pos_as_xyz
1 x,y,z
2 -x,-y,-z
_cell_length_a 7.3774(3)
_cell_length_b 9.9499(4)
_cell_length_c 10.5660(4)
_cell_angle_alpha 87.451(1)
_cell_angle_beta 79.770(1)
_cell_angle_gamma 74.670(1)
_cell_formula_units_Z 2
loop_
_atom_type_symbol
_atom_type_radius_bond
C 0.68
H 0.23
Fe 1.52
N 0.68
S 1.02
loop_
_atom_site_label
_atom_site_type_symbol
_atom_site_fract_x
_atom_site_fract_y
_atom_site_fract_z
Fe1 Fe 0.45556(4) 0.34639(3) 0.25077(2)
S1 S 0.29308(8) 0.32986(6) 0.62899(5)
S2 S 0.27877(9) 0.24750(6) 0.89268(5)
N1 N 0.0460(2) 0.24351(16) 0.50941(15)
C1 C 0.2156(3) 0.39321(19) 0.38861(18)
C2 C 0.1672(3) 0.3777(2) 0.26561(18)
H1 H 0.10380 0.31240 0.24430
C3 C 0.2306(3) 0.4774(2) 0.18112(19)
H2 H 0.21580 0.49080 0.09360
C4 C 0.3200(3) 0.5537(2) 0.24976(19)
H3 H 0.37540 0.62650 0.21580
C5 C 0.3123(3) 0.50252(19) 0.37789(18)
H4 H 0.36190 0.53460 0.44440
C6 C 0.6321(3) 0.1575(2) 0.2871(2)
H5 H 0.60570 0.09580 0.35490
C7 C 0.5868(3) 0.1581(2) 0.1615(2)
H6 H 0.52590 0.09640 0.13040
C8 C 0.6486(3) 0.2672(2) 0.09105(19)
H7 H 0.63560 0.29170 0.00460
C9 C 0.7333(3) 0.3334(2) 0.1718(2)
H8 H 0.78710 0.40980 0.14880
C10 C 0.7238(3) 0.2657(2) 0.2932(2)
H9 H 0.77040 0.28850 0.36550
C11 C 0.1706(3) 0.31413(19) 0.50397(18)
C12 C 0.1961(3) 0.2416(2) 0.75789(19)
C13 C 0.0547(3) 0.17010(18) 0.73857(18)
C14 C -0.0087(3) 0.17227(19) 0.62003(18)
C15 C -0.0220(3) 0.0961(2) 0.84209(19)
H10 H 0.01880 0.09500 0.92260
C16 C -0.1545(3) 0.0253(2) 0.8290(2)
H11 H -0.20400 -0.02460 0.89960
C17 C -0.2157(3) 0.0275(2) 0.7109(2)
H12 H -0.30630 -0.02200 0.70100
C18 C -0.1460(3) 0.1004(2) 0.60937(19)
H13 H -0.19110 0.10260 0.53030
#END
