
#######################################################################
#
#                 Cambridge Crystallographic Data Centre
#                                CCDC
#
#######################################################################
#
# If this CIF has been generated from an entry in the Cambridge
# Structural Database, then it will include bibliographic, chemical,
# crystal, experimental, refinement or atomic coordinate data resulting
# from the CCDC's data processing and validation procedures.
#
#######################################################################

data_CSD_CIF_VIDBIU
_audit_creation_date 2007-06-01
_audit_creation_method CSD-ConQuest-V1
_database_code_CSD VIDBIU
_database_code_depnum_ccdc_archive 'CCDC 643071'
_chemical_formula_sum 'C22 H22 Co1 N4 O8'
_chemical_formula_moiety
;
C22 H22 Co1 N4 O8
;
_journal_coeditor_code "IUCr NG2234"
_journal_coden_Cambridge 1370
_journal_volume 63
_journal_year 2007
_journal_page_first m1116
_journal_name_full 'Acta Crystallogr.,Sect.E:Struct.Rep.Online '
loop_
_publ_author_name
"Zhao-Peng Deng"
"Shan Gao"
"Li-Hua Huo"
"Hui Zhao"
_chemical_name_systematic
;
Diaqua-bis(4-formylbenzoato-\kO)-bis(1H-imidazole-\kN^3^)-cobalt(ii)
;
_cell_volume    561.674
_exptl_crystal_colour 'pink'
_exptl_crystal_density_diffrn 1.565
_exptl_special_details
;
isostructural with the Mn and Ni analogues

;
_exptl_crystal_description 'prism'
_diffrn_ambient_temperature 295
_refine_special_details
;
The formyl group is disordered over two sites, with occupancies 0.67:0.33.

;
#These two values have been output from a single CSD field.
_refine_ls_R_factor_gt 0.0404
_refine_ls_wR_factor_gt 0.0404
_symmetry_cell_setting triclinic
_symmetry_space_group_name_H-M 'P -1'
_symmetry_Int_Tables_number 2
loop_
_symmetry_equiv_pos_site_id
_symmetry_equiv_pos_as_xyz
1 x,y,z
2 -x,-y,-z
_cell_length_a 5.6179(11)
_cell_length_b 8.0819(16)
_cell_length_c 12.871(3)
_cell_angle_alpha 74.56(3)
_cell_angle_beta 86.29(3)
_cell_angle_gamma 86.83(3)
_cell_formula_units_Z 1
loop_
_atom_type_symbol
_atom_type_radius_bond
C 0.68
H 0.23
Co 1.33
N 0.68
O 0.68
loop_
_atom_site_label
_atom_site_type_symbol
_atom_site_fract_x
_atom_site_fract_y
_atom_site_fract_z
Co1 Co 0.50000 0.00000 0.50000
O1 O 0.2018(3) 0.0875(2) 0.58371(13)
H1 H 0.073(3) 0.035(4) 0.596(2)
H2 H 0.261(5) 0.090(4) 0.6419(14)
O2 O 0.2701(3) 0.0238(2) 0.36708(12)
O3 O 0.5228(3) -0.0794(3) 0.25555(15)
O4 O -0.1687(8) 0.3412(6) -0.1804(3)
O5? O -0.3715(14) 0.4310(12) -0.0974(7)
N1 N 0.4136(3) -0.2584(2) 0.56987(15)
N2 N 0.4378(5) -0.5284(3) 0.6629(2)
H3 H 0.49260 -0.62220 0.70490
C1 C 0.3435(4) 0.0083(3) 0.27470(17)
C2 C 0.2012(4) 0.1055(3) 0.17948(18)
C3 C 0.2790(6) 0.0958(5) 0.0770(2)
H4 H 0.41820 0.03210 0.06800
C4 C 0.1536(6) 0.1790(5) -0.0124(2)
H5 H 0.20760 0.17110 -0.08080
C5 C -0.0534(5) 0.2745(4) 0.0009(2)
C6 C -0.1291(5) 0.2876(4) 0.1025(2)
H6 H -0.26690 0.35290 0.11110
C7 C -0.0028(5) 0.2049(3) 0.1920(2)
H7 H -0.05440 0.21590 0.26010
C8 C -0.1935(7) 0.3586(5) -0.0940(3)
H8 H -0.31650 0.43470 -0.08270
C9? C -0.1935(7) 0.3586(5) -0.0940(3)
H9? H -0.12480 0.35050 -0.16030
C10 C 0.5410(5) -0.3765(3) 0.6368(2)
H10 H 0.68480 -0.35690 0.66260
C11 C 0.2321(6) -0.5076(3) 0.6115(3)
H11 H 0.12200 -0.59080 0.61450
C12 C 0.2191(5) -0.3412(3) 0.5548(2)
H12 H 0.09480 -0.29020 0.51150
O1A O 0.7982(3) -0.0875(2) 0.41629(13)
H1A H 0.927(3) -0.035(4) 0.404(2)
H2A H 0.739(5) -0.090(4) 0.3581(14)
O2A O 0.7299(3) -0.0238(2) 0.63292(12)
O3A O 0.4772(3) 0.0794(3) 0.74445(15)
O4A O 1.1687(8) -0.3412(6) 1.1804(3)
N1A N 0.5864(3) 0.2584(2) 0.43013(15)
N2A N 0.5622(5) 0.5284(3) 0.3371(2)
H3A H 0.50740 0.62220 0.29510
C1A C 0.6565(4) -0.0083(3) 0.72530(17)
C2A C 0.7988(4) -0.1055(3) 0.82052(18)
C3A C 0.7210(6) -0.0958(5) 0.9230(2)
H4A H 0.58180 -0.03210 0.93200
C4A C 0.8464(6) -0.1790(5) 1.0124(2)
H5A H 0.79240 -0.17110 1.08080
C5A C 1.0534(5) -0.2745(4) 0.9991(2)
C6A C 1.1291(5) -0.2876(4) 0.8975(2)
H6A H 1.26690 -0.35290 0.88890
C7A C 1.0028(5) -0.2049(3) 0.8080(2)
H7A H 1.05440 -0.21590 0.73990
C8A C 1.1935(7) -0.3586(5) 1.0940(3)
H8A H 1.31650 -0.43470 1.08270
C10A C 0.4590(5) 0.3765(3) 0.3632(2)
H10A H 0.31520 0.35690 0.33740
C11A C 0.7679(6) 0.5076(3) 0.3885(3)
H11A H 0.87800 0.59080 0.38550
C12A C 0.7809(5) 0.3412(3) 0.4452(2)
H12A H 0.90520 0.29020 0.48850
#END
