
#######################################################################
#
#                 Cambridge Crystallographic Data Centre
#                                CCDC
#
#######################################################################
#
# If this CIF has been generated from an entry in the Cambridge
# Structural Database, then it will include bibliographic, chemical,
# crystal, experimental, refinement or atomic coordinate data resulting
# from the CCDC's data processing and validation procedures.
#
#######################################################################

data_CSD_CIF_VIDGIZ
_audit_creation_date 2007-06-01
_audit_creation_method CSD-ConQuest-V1
_database_code_CSD VIDGIZ
_database_code_depnum_ccdc_archive 'CCDC 643103'
_chemical_formula_sum 'C20 H32 Cl2 Mn1 N4 O12'
_chemical_formula_moiety
;
H12 Mn1 O6 2+,2(C10 H8 N2 O2),2(Cl1 1-),2(H2 O1)
;
_journal_coeditor_code "IUCr SJ2238"
_journal_coden_Cambridge 1370
_journal_volume 63
_journal_year 2007
_journal_page_first m1010
_journal_name_full 'Acta Crystallogr.,Sect.E:Struct.Rep.Online '
loop_
_publ_author_name
"Hui-Hua Song"
"Bao-Qing Ma"
_chemical_name_systematic
;
Hexaaqua-manganese(ii) dichloride 4,4'-bipyridine N,N'-dioxide dihydrate
;
_cell_volume    702.128
_exptl_crystal_colour 'yellow'
_exptl_crystal_density_diffrn 1.529
_exptl_crystal_description 'block'
_diffrn_ambient_temperature 298
#These two values have been output from a single CSD field.
_refine_ls_R_factor_gt 0.0406
_refine_ls_wR_factor_gt 0.0406
_symmetry_cell_setting triclinic
_symmetry_space_group_name_H-M 'P -1'
_symmetry_Int_Tables_number 2
loop_
_symmetry_equiv_pos_site_id
_symmetry_equiv_pos_as_xyz
1 x,y,z
2 -x,-y,-z
_cell_length_a 6.8062(2)
_cell_length_b 10.2999(5)
_cell_length_c 10.5095(6)
_cell_angle_alpha 83.965(5)
_cell_angle_beta 73.407(4)
_cell_angle_gamma 88.769(4)
_cell_formula_units_Z 1
loop_
_atom_type_symbol
_atom_type_radius_bond
C 0.68
H 0.23
Cl 0.99
Mn 1.35
N 0.68
O 0.68
loop_
_atom_site_label
_atom_site_type_symbol
_atom_site_fract_x
_atom_site_fract_y
_atom_site_fract_z
Mn1 Mn 0.00000 0.50000 0.50000
Cl1 Cl 0.20550(5) 0.10671(3) 0.56334(3)
O1 O 0.18127(14) 0.30795(6) 0.13229(7)
O2 O 0.36764(12) -0.52983(6) -0.22457(7)
O3 O 0.08514(13) 0.38457(7) 0.66624(7)
O4 O 0.30097(13) 0.59057(8) 0.43039(10)
O5 O 0.09776(16) 0.33810(7) 0.38612(7)
O6 O 0.65215(16) 0.14828(9) 0.59151(10)
N1 N 0.20546(12) 0.19269(7) 0.08677(7)
N2 N 0.33961(12) -0.41496(7) -0.17525(7)
C1 C 0.16868(16) 0.08173(9) 0.17018(9)
H1 H 0.12540 0.08610 0.26190
C2 C 0.19445(14) -0.03803(9) 0.12107(9)
H2 H 0.16870 -0.11360 0.18030
C3 C 0.25819(12) -0.04823(8) -0.01532(8)
C4 C 0.29464(14) 0.06909(9) -0.09798(8)
H3 H 0.33790 0.06720 -0.19010
C5 C 0.26803(15) 0.18694(8) -0.04634(8)
H4 H 0.29330 0.26380 -0.10360
C6 C 0.28563(12) -0.17630(8) -0.07069(8)
C7 C 0.25538(15) -0.29378(9) 0.01118(9)
H5 H 0.21610 -0.29260 0.10340
C8 C 0.28266(16) -0.41170(9) -0.04213(9)
H6 H 0.26160 -0.48920 0.01410
C9 C 0.36924(16) -0.30406(9) -0.25739(9)
H7 H 0.40760 -0.30770 -0.34930
C10 C 0.34354(16) -0.18518(9) -0.20717(9)
H8 H 0.36530 -0.10920 -0.26570
H9 H 0.2071(12) 0.4205(13) 0.6701(14)
H10 H 0.151(2) 0.3091(9) 0.6337(14)
H11 H 0.130(2) 0.3271(15) 0.2965(8)
H12 H 0.1429(19) 0.2614(9) 0.4236(13)
H13 H 0.7395(17) 0.0816(7) 0.5506(10)
H14 H 0.5387(9) 0.1372(15) 0.5617(11)
H15 H 0.347(3) 0.5818(10) 0.3362(7)
H16 H 0.300(3) 0.6855(7) 0.4384(11)
O3A O -0.08514(13) 0.61543(7) 0.33376(7)
O4A O -0.30097(13) 0.40943(8) 0.56961(10)
O5A O -0.09776(16) 0.66190(7) 0.61388(7)
H9A H -0.2071(12) 0.5795(13) 0.3299(14)
H10A H -0.151(2) 0.6909(9) 0.3663(14)
H11A H -0.130(2) 0.6729(15) 0.7035(8)
H12A H -0.1429(19) 0.7386(9) 0.5764(13)
H15A H -0.347(3) 0.4182(10) 0.6638(7)
H16A H -0.300(3) 0.3145(7) 0.5616(11)
#END
