
#######################################################################
#
#                 Cambridge Crystallographic Data Centre
#                                CCDC
#
#######################################################################
#
# If this CIF has been generated from an entry in the Cambridge
# Structural Database, then it will include bibliographic, chemical,
# crystal, experimental, refinement or atomic coordinate data resulting
# from the CCDC's data processing and validation procedures.
#
#######################################################################

data_CSD_CIF_VIFPIJ
_audit_creation_date 1991-08-13
_audit_creation_method CSD-ConQuest-V1
_database_code_CSD VIFPIJ
_database_code_depnum_ccdc_archive 'CCDC 1283507'
_chemical_formula_sum 'C12 H18 Mn1 N8 O2'
_chemical_formula_moiety
;
C12 H18 Mn1 N8 O2
;
_journal_coden_Cambridge 542
_journal_volume 25
_journal_year 1990
_journal_page_first 1271
_journal_name_full 'Cryst.Res.Technol. '
loop_
_publ_author_name
"F.A.Mautner"
"M.A.S.Goher"
_chemical_name_systematic
;
Diaqua-diazido-bis(3-methylpyridine)-manganese(ii)
;
_cell_volume    409.508
_exptl_crystal_colour 'pale green'
_exptl_crystal_density_diffrn 1.46
_diffrn_ambient_temperature ?
_diffrn_special_details
;
The study was carried out at room temperature,in the range 283-303K

;
#These two values have been output from a single CSD field.
_refine_ls_R_factor_gt 0.046
_refine_ls_wR_factor_gt 0.046
_symmetry_cell_setting triclinic
_symmetry_space_group_name_H-M 'P -1'
_symmetry_Int_Tables_number 2
loop_
_symmetry_equiv_pos_site_id
_symmetry_equiv_pos_as_xyz
1 x,y,z
2 -x,-y,-z
_cell_length_a 7.444(2)
_cell_length_b 7.691(2)
_cell_length_c 8.926(3)
_cell_angle_alpha 99.82(3)
_cell_angle_beta 108.80(2)
_cell_angle_gamma 114.99(2)
_cell_formula_units_Z 1
loop_
_atom_type_symbol
_atom_type_radius_bond
C 0.68
H 0.23
Mn 1.35
N 0.68
O 0.68
loop_
_atom_site_label
_atom_site_type_symbol
_atom_site_fract_x
_atom_site_fract_y
_atom_site_fract_z
Mn1 Mn 0.00000 0.00000 0.00000
N1 N 0.1794(7) -0.1513(6) -0.0320(5)
N2 N 0.2341(4) -0.2686(4) -0.0480(3)
N3 N 0.2941(5) -0.3836(5) -0.0661(5)
N4 N 0.1464(4) 0.0581(4) 0.2795(3)
C1 C 0.1624(5) -0.0845(5) 0.3381(5)
C2 C 0.2474(5) -0.0561(6) 0.5084(5)
C3 C 0.3180(6) 0.1315(7) 0.6201(5)
C4 C 0.3026(6) 0.2796(6) 0.5621(5)
C5 C 0.2178(6) 0.2404(5) 0.3916(5)
C6 C 0.2606(8) -0.2243(8) 0.5652(6)
O1 O 0.2830(5) 0.2930(4) 0.0476(4)
H1 H 0.1068(5) -0.2309(5) 0.2482(5)
H2 H 0.3867(6) 0.1618(7) 0.7546(5)
H3 H 0.3559(6) 0.4266(6) 0.6498(5)
H4 H 0.2085(6) 0.3594(5) 0.3465(5)
H5 H 0.1311(59) -0.3697(39) 0.4722(47)
H6 H 0.2490(84) -0.2165(71) 0.6818(39)
H7 H 0.4166(57) -0.2120(76) 0.5818(72)
H8 H 0.2817(68) 0.3923(61) 0.0347(54)
H9 H 0.3954(74) 0.3072(76) 0.0418(68)
N1A N -0.1794(7) 0.1513(6) 0.0320(5)
N4A N -0.1464(4) -0.0581(4) -0.2795(3)
O1A O -0.2830(5) -0.2930(4) -0.0476(4)
N2A N -0.2341(4) 0.2686(4) 0.0480(3)
C1A C -0.1624(5) 0.0845(5) -0.3381(5)
C5A C -0.2178(6) -0.2404(5) -0.3916(5)
H8A H -0.2817(68) -0.3923(61) -0.0347(54)
H9A H -0.3954(74) -0.3072(76) -0.0418(68)
N3A N -0.2941(5) 0.3836(5) 0.0661(5)
C2A C -0.2474(5) 0.0561(6) -0.5084(5)
H1A H -0.1068(5) 0.2309(5) -0.2482(5)
C4A C -0.3026(6) -0.2796(6) -0.5621(5)
H4A H -0.2085(6) -0.3594(5) -0.3465(5)
C3A C -0.3180(6) -0.1315(7) -0.6201(5)
C6A C -0.2606(8) 0.2243(8) -0.5652(6)
H3A H -0.3559(6) -0.4266(6) -0.6498(5)
H2A H -0.3867(6) -0.1618(7) -0.7546(5)
H5A H -0.1311(59) 0.3697(39) -0.4722(47)
H6A H -0.2490(84) 0.2165(71) -0.6818(39)
H7A H -0.4166(57) 0.2120(76) -0.5818(72)
#END
