
#######################################################################
#
#                 Cambridge Crystallographic Data Centre
#                                CCDC
#
#######################################################################
#
# If this CIF has been generated from an entry in the Cambridge
# Structural Database, then it will include bibliographic, chemical,
# crystal, experimental, refinement or atomic coordinate data resulting
# from the CCDC's data processing and validation procedures.
#
#######################################################################

data_CSD_CIF_VIFXEN
_audit_creation_date 1991-08-13
_audit_creation_method CSD-ConQuest-V1
_database_code_CSD VIFXEN
_chemical_formula_sum 'C16 H21 Cr1 N1 O4'
_chemical_formula_moiety
;
C16 H21 Cr1 N1 O4
;
_journal_coden_Cambridge 1090
_journal_volume 1
_journal_year 1990
_journal_page_first 817
_journal_name_full 'Tetrahedron:Asymm. '
loop_
_publ_author_name
"S.J.Coote"
"S.G.Davies"
"C.L.Goodfellow"
"K.H.Sutton"
"D.Middlemiss"
"A.Naylor"
_chemical_name_systematic
;
(\h^6^-(-)-(R,1S,2S)-(N,O,o-Trimethylephedrine))-tricarbonyl-chromium(0)
;
_chemical_melting_point 362.15
_cell_volume    844.059
_exptl_crystal_colour 'yellow'
_exptl_crystal_density_diffrn 1.35
_exptl_special_details
;
Melting point range 362.15-363.15K

;
_diffrn_ambient_temperature ?
_diffrn_special_details
;
The study was carried out at room temperature,in the range 283-303K

;
#These two values have been output from a single CSD field.
_refine_ls_R_factor_gt 0.042
_refine_ls_wR_factor_gt 0.042
loop_
_citation_database_id_CSD
_citation_special_details
VIFXIR "is a stereoisomer of this entry"
_symmetry_cell_setting monoclinic
_symmetry_space_group_name_H-M 'P 21'
_symmetry_Int_Tables_number 4
loop_
_symmetry_equiv_pos_site_id
_symmetry_equiv_pos_as_xyz
1 x,y,z
2 -x,1/2+y,-z
_cell_length_a 7.205(1)
_cell_length_b 17.845(3)
_cell_length_c 7.158(3)
_cell_angle_alpha 90
_cell_angle_beta 113.49(2)
_cell_angle_gamma 90
_cell_formula_units_Z 2
loop_
_atom_type_symbol
_atom_type_radius_bond
C 0.68
H 0.23
Cr 1.35
N 0.68
O 0.68
loop_
_atom_site_label
_atom_site_type_symbol
_atom_site_fract_x
_atom_site_fract_y
_atom_site_fract_z
Cr1 Cr 0.31437(9) -0.4857(1) 0.28334(9)
C1 C 0.2920(7) -0.6089(3) 0.3296(8)
C2 C 0.4829(7) -0.5850(3) 0.4740(8)
C3 C 0.4910(9) -0.5228(3) 0.6025(8)
C4 C 0.3159(8) -0.4874(5) 0.5929(7)
C5 C 0.1240(9) -0.5116(3) 0.4554(9)
C6 C 0.1164(7) -0.5718(3) 0.3268(9)
C7 C 0.2622(7) -0.6750(3) 0.1889(8)
C8 C 0.2656(8) -0.7500(3) 0.2957(8)
C9 C 0.269(1) -0.8169(3) 0.165(1)
C10 C 0.6796(8) -0.6226(3) 0.504(1)
C11 C 0.361(2) -0.6471(4) -0.087(1)
C12 C 0.1299(6) -0.4812(4) 0.0190(7)
C13 C 0.5177(7) -0.4774(5) 0.1951(8)
C14 C 0.3028(9) -0.3853(4) 0.2959(9)
C15 C 0.147(2) -0.8041(4) 0.538(1)
C16 C -0.0970(1) -0.7652(4) 0.215(1)
N1 N 0.1036(8) -0.7512(3) 0.3700(8)
O1 O 0.4116(7) -0.6793(3) 0.1065(6)
O2 O 0.0140(5) -0.4792(4) -0.1483(5)
O3 O 0.6445(7) -0.4732(5) 0.1326(8)
O4 O 0.2913(9) -0.3190(3) 0.3018(9)
H1 H 0.6264(9) -0.5057(3) 0.7023(8)
H2 H 0.3259(8) -0.4430(5) 0.6816(7)
H3 H -0.0033(9) -0.4873(3) 0.4493(9)
H4 H -0.0184(7) -0.5904(3) 0.2293(9)
H5 H 0.1304(7) -0.6667(3) 0.0705(8)
H6 H 0.3921(8) -0.7545(3) 0.4223(8)
H7 H 0.274(1) -0.8645(3) 0.240(1)
H8 H 0.391(1) -0.8139(3) 0.131(1)
H9 H 0.144(1) -0.8161(3) 0.036(1)
H10 H 0.7943(8) -0.5961(3) 0.613(1)
H11 H 0.6764(8) -0.6761(3) 0.545(1)
H12 H 0.6986(8) -0.6205(3) 0.373(1)
H13 H 0.239(2) -0.6737(4) -0.186(1)
H14 H 0.329(2) -0.5927(4) -0.083(1)
H15 H 0.475(2) -0.6526(4) -0.132(1)
H16 H 0.034(2) -0.8037(4) 0.585(1)
H17 H 0.160(2) -0.8555(4) 0.489(1)
H18 H 0.276(2) -0.7898(4) 0.653(1)
H19 H -0.199(1) -0.7648(4) 0.278(1)
H20 H -0.100(1) -0.8151(4) 0.150(1)
H21 H -0.132(1) -0.7250(4) 0.109(1)
#END
