
#######################################################################
#
#                 Cambridge Crystallographic Data Centre
#                                CCDC
#
#######################################################################
#
# If this CIF has been generated from an entry in the Cambridge
# Structural Database, then it will include bibliographic, chemical,
# crystal, experimental, refinement or atomic coordinate data resulting
# from the CCDC's data processing and validation procedures.
#
#######################################################################

data_CSD_CIF_VIHTOX
_audit_creation_date 2013-10-02
_audit_creation_method CSD-ConQuest-V1
_database_code_CSD VIHTOX
_database_code_depnum_ccdc_archive 'CCDC 964498'
_database_code_depnum_ccdc_journal 1267/3961
_chemical_formula_sum 'C10 H12 Co1 N4 O5 S2'
_chemical_formula_moiety
;
C10 H12 Co1 N4 O5 S2
;
_journal_coden_Cambridge 1267
_journal_volume 228
_journal_year 2013
_journal_page_first 193
_journal_name_full 'Z.Kristallogr.-New Cryst.Struct. '
loop_
_publ_author_name
"Mei-Li Zhang"
"Hua-Li Cui"
"Xiao-Li Chen"
"Lei Lv"
_chemical_name_systematic
;
bis((2-amino-1,3-thiazol-4-yl)acetato)-aqua-cobalt(ii)
;
_cell_volume   1392.087
_exptl_crystal_density_diffrn 1.867
_diffrn_ambient_temperature 293
#These two values have been output from a single CSD field.
_refine_ls_R_factor_gt 0.083
_refine_ls_wR_factor_gt 0.083
_symmetry_cell_setting monoclinic
_symmetry_space_group_name_H-M 'C 2/c'
_symmetry_Int_Tables_number 15
loop_
_symmetry_equiv_pos_site_id
_symmetry_equiv_pos_as_xyz
1 x,y,z
2 -x,y,1/2-z
3 1/2+x,1/2+y,z
4 1/2-x,1/2+y,1/2-z
5 -x,-y,-z
6 x,-y,-1/2+z
7 -1/2-x,-1/2-y,-z
8 -1/2+x,-1/2-y,-1/2+z
_cell_length_a 11.776
_cell_length_b 9.432
_cell_length_c 12.546
_cell_angle_alpha 90
_cell_angle_beta 92.58
_cell_angle_gamma 90
_cell_formula_units_Z 4
loop_
_atom_type_symbol
_atom_type_radius_bond
C 0.68
H 0.23
Co 1.26
N 0.68
O 0.68
S 1.02
loop_
_atom_site_label
_atom_site_type_symbol
_atom_site_fract_x
_atom_site_fract_y
_atom_site_fract_z
Co1 Co 1.00000 0.71482(12) 0.25000
N1 N 0.9585(5) 0.6623(6) 0.4021(4)
O1 O 0.8301(4) 0.7030(4) 0.2108(3)
O2 O 0.6677(4) 0.5908(5) 0.1914(3)
O3 O 1.00000 0.9245(7) 0.25000
H1 H 0.934(4) 0.959(5) 0.266(4)
S1 S 0.93126(18) 0.6971(2) 0.60111(12)
C1 C 0.7573(7) 0.6132(7) 0.2397(5)
C2 C 0.7912(7) 0.5248(6) 0.3361(5)
H2 H 0.72280 0.48720 0.36570
H3 H 0.83550 0.44490 0.31270
C3 C 0.8583(6) 0.5994(7) 0.4232(5)
C4 C 0.8302(6) 0.6072(7) 0.5247(5)
H4 H 0.76420 0.56890 0.55090
C5 C 1.0066(7) 0.7165(7) 0.4887(5)
N2 N 1.1079(7) 0.7808(7) 0.4942(5)
H5 H 1.155(7) 0.796(8) 0.559(8)
H6 H 1.151(7) 0.778(9) 0.429(7)
H1A H 1.066(4) 0.959(5) 0.234(4)
N1A N 1.0415(5) 0.6623(6) 0.0979(4)
O1A O 1.1699(4) 0.7030(4) 0.2892(3)
O2A O 1.3323(4) 0.5908(5) 0.3086(3)
S1A S 1.06874(18) 0.6971(2) -0.10111(12)
C1A C 1.2427(7) 0.6132(7) 0.2603(5)
C2A C 1.2088(7) 0.5248(6) 0.1639(5)
H2A H 1.27720 0.48720 0.13430
H3A H 1.16450 0.44490 0.18730
C3A C 1.1417(6) 0.5994(7) 0.0768(5)
C4A C 1.1698(6) 0.6072(7) -0.0247(5)
H4A H 1.23580 0.56890 -0.05090
C5A C 0.9934(7) 0.7165(7) 0.0113(5)
N2A N 0.8921(7) 0.7808(7) 0.0058(5)
H5A H 0.845(7) 0.796(8) -0.059(8)
H6A H 0.849(7) 0.778(9) 0.071(7)
#END
