
#######################################################################
#
#                 Cambridge Crystallographic Data Centre
#                                CCDC
#
#######################################################################
#
# If this CIF has been generated from an entry in the Cambridge
# Structural Database, then it will include bibliographic, chemical,
# crystal, experimental, refinement or atomic coordinate data resulting
# from the CCDC's data processing and validation procedures.
#
#######################################################################

data_CSD_CIF_VIJTAK
_audit_creation_date 2007-10-22
_audit_creation_method CSD-ConQuest-V1
_database_code_CSD VIJTAK
_database_code_depnum_ccdc_archive 'CCDC 635017'
_chemical_formula_sum 'C8 H12 Mn1 N2 O10'
_chemical_formula_moiety
;
C8 H12 Mn1 N2 O10
;
_journal_coden_Cambridge 9
_journal_volume 46
_journal_year 2007
_journal_page_first 5243
_journal_name_full 'Inorg.Chem. '
loop_
_publ_author_name
"P.M.T.Piggot"
"S.Seenarine"
"L.A.Hall"
_chemical_name_systematic
;
Tetraaqua-bis(3-amino-1,2-dioxocyclobut-3-en-4-olato)-manganese(ii)
;
_cell_volume   1254.525
_exptl_crystal_colour 'colorless'
_exptl_crystal_density_diffrn 1.859
_exptl_special_details
;
isomorphous with the cobalt and nickel analogues

;
_exptl_crystal_description 'plates'
_diffrn_ambient_temperature 150
#These two values have been output from a single CSD field.
_refine_ls_R_factor_gt 0.0314
_refine_ls_wR_factor_gt 0.0314
_symmetry_cell_setting monoclinic
_symmetry_space_group_name_H-M 'C 2/c'
_symmetry_Int_Tables_number 15
loop_
_symmetry_equiv_pos_site_id
_symmetry_equiv_pos_as_xyz
1 x,y,z
2 1/2+x,1/2+y,z
3 -x,y,1/2-z
4 1/2-x,1/2+y,1/2-z
5 -x,-y,-z
6 -1/2-x,-1/2-y,-z
7 x,-y,-1/2+z
8 -1/2+x,-1/2-y,-1/2+z
_cell_length_a 11.9636(6)
_cell_length_b 11.7190(7)
_cell_length_c 8.9846(5)
_cell_angle_alpha 90
_cell_angle_beta 95.172(3)
_cell_angle_gamma 90
_cell_formula_units_Z 4
loop_
_atom_type_symbol
_atom_type_radius_bond
C 0.68
H 0.23
Mn 1.35
N 0.68
O 0.68
loop_
_atom_site_label
_atom_site_type_symbol
_atom_site_fract_x
_atom_site_fract_y
_atom_site_fract_z
Mn1 Mn 0.50000 0.67544(3) 0.75000
O1 O 0.58917(10) 0.81051(9) 0.63702(13)
C1 C 0.60956(14) 0.81237(13) 0.50308(17)
O2 O 0.62280(11) 0.62107(10) 0.37425(13)
C2 C 0.62413(14) 0.72643(14) 0.38366(17)
O3 O 0.65312(11) 0.83007(9) 0.14359(13)
C3 C 0.63808(14) 0.82153(13) 0.27976(18)
N1 N 0.62217(13) 1.01488(12) 0.39941(15)
H1 H 0.6157(16) 1.0526(15) 0.4855(12)
H2 H 0.6269(18) 1.0553(16) 0.3150(13)
C4 C 0.62484(13) 0.90275(14) 0.39618(17)
O4 O 0.60867(10) 0.54893(10) 0.66445(13)
H3 H 0.6122(19) 0.4796(8) 0.708(2)
H4 H 0.610(2) 0.542(2) 0.5649(4)
O5 O 0.37534(11) 0.66251(10) 0.55871(13)
H5 H 0.364(2) 0.7196(13) 0.492(2)
H6 H 0.3050(8) 0.6534(19) 0.585(3)
O1B O 0.41083(10) 0.81051(9) 0.86298(13)
C1B C 0.39044(14) 0.81237(13) 0.99692(17)
O2B O 0.37720(11) 0.62107(10) 1.12575(13)
C2B C 0.37587(14) 0.72643(14) 1.11634(17)
O3B O 0.34688(11) 0.83007(9) 1.35641(13)
C3B C 0.36192(14) 0.82153(13) 1.22024(18)
N1B N 0.37783(13) 1.01488(12) 1.10059(15)
H1B H 0.3843(16) 1.0526(15) 1.0145(12)
H2B H 0.3731(18) 1.0553(16) 1.1850(13)
C4B C 0.37516(13) 0.90275(14) 1.10382(17)
O4B O 0.39133(10) 0.54893(10) 0.83555(13)
H3B H 0.3878(19) 0.4796(8) 0.792(2)
H4B H 0.390(2) 0.542(2) 0.9351(4)
O5B O 0.62466(11) 0.66251(10) 0.94129(13)
H5B H 0.636(2) 0.7196(13) 1.008(2)
H6B H 0.6950(8) 0.6534(19) 0.915(3)
#END
