
#######################################################################
#
#                 Cambridge Crystallographic Data Centre
#                                CCDC
#
#######################################################################
#
# If this CIF has been generated from an entry in the Cambridge
# Structural Database, then it will include bibliographic, chemical,
# crystal, experimental, refinement or atomic coordinate data resulting
# from the CCDC's data processing and validation procedures.
#
#######################################################################

data_CSD_CIF_VILLOS
_audit_creation_date 2008-01-22
_audit_creation_method CSD-ConQuest-V1
_database_code_CSD VILLOS
_database_code_depnum_ccdc_archive 'CCDC 638588'
_chemical_formula_sum 'C10 H18 Cl2 Mn1 N10 O12'
_chemical_formula_moiety
;
C10 H18 Mn1 N10 O4 2+,2(Cl1 O4 1-)
;
_journal_coden_Cambridge 580
_journal_volume 26
_journal_year 2007
_journal_page_first 4945
_journal_name_full 'Polyhedron '
loop_
_publ_author_name
"T.F.Mastropietro"
"D.Armentano"
"N.Marino"
"G.De Munno"
_chemical_name_systematic
;
Tetra-aqua-bis(adenine)-manganese(ii) diperchlorate
;
_cell_volume    539.653
_exptl_crystal_colour 'colorless'
_exptl_crystal_density_diffrn 1.834
_exptl_crystal_description 'parallelepiped'
_diffrn_ambient_temperature 293
#These two values have been output from a single CSD field.
_refine_ls_R_factor_gt 0.0345
_refine_ls_wR_factor_gt 0.0345
_symmetry_cell_setting triclinic
_symmetry_space_group_name_H-M 'P -1'
_symmetry_Int_Tables_number 2
loop_
_symmetry_equiv_pos_site_id
_symmetry_equiv_pos_as_xyz
1 x,y,z
2 -x,-y,-z
_cell_length_a 7.6718(3)
_cell_length_b 8.4545(3)
_cell_length_c 9.1032(3)
_cell_angle_alpha 73.355(2)
_cell_angle_beta 75.613(2)
_cell_angle_gamma 76.574(2)
_cell_formula_units_Z 1
loop_
_atom_type_symbol
_atom_type_radius_bond
C 0.68
H 0.23
Cl 0.99
Mn 1.35
N 0.68
O 0.68
loop_
_atom_site_label
_atom_site_type_symbol
_atom_site_fract_x
_atom_site_fract_y
_atom_site_fract_z
Mn1 Mn 0.50000 0.00000 0.50000
O1 O 0.41220(14) -0.15632(14) 0.38412(13)
H1 H 0.301(2) -0.198(3) 0.422(2)
H2 H 0.418(3) -0.127(3) 0.2749(11)
O2 O 0.34346(15) -0.12403(14) 0.71796(13)
H3 H 0.390(3) -0.2374(14) 0.760(2)
H4 H 0.285(3) -0.080(2) 0.8036(19)
N1 N -0.07940(14) 0.26126(15) 0.47817(15)
C1 C 0.07820(17) 0.16782(16) 0.51447(17)
H5 H 0.06840 0.06740 0.58960
N2 N 0.24727(14) 0.20065(13) 0.45650(14)
C2 C 0.25118(16) 0.35119(15) 0.34974(15)
C3 C 0.09547(16) 0.45721(15) 0.30411(15)
C4 C -0.07631(16) 0.40872(16) 0.36928(16)
N3 N -0.23408(17) 0.49995(17) 0.33134(19)
H6 H -0.33530 0.46450 0.37600
H7 H -0.23400 0.59390 0.26230
N4 N 0.15766(17) 0.59274(15) 0.19382(16)
C5 C 0.34111(19) 0.56359(18) 0.17874(19)
H8 H 0.41550 0.63740 0.11110
N5 N 0.40483(15) 0.41904(15) 0.27004(16)
Cl1 Cl 0.79925(5) -0.12489(4) 0.96559(4)
O3 O 0.8046(3) -0.1523(2) 1.12709(18)
O4 O 0.9718(2) -0.1995(3) 0.8940(3)
O5 O 0.7680(4) 0.0507(2) 0.9010(3)
O6 O 0.6624(3) -0.2003(4) 0.9483(3)
H9 H 0.095(3) 0.677(3) 0.149(3)
O1A O 0.58780(14) 0.15632(14) 0.61588(13)
H1A H 0.699(2) 0.198(3) 0.578(2)
H2A H 0.582(3) 0.127(3) 0.7251(11)
O2A O 0.65654(15) 0.12403(14) 0.28204(13)
H3A H 0.610(3) 0.2374(14) 0.240(2)
H4A H 0.715(3) 0.080(2) 0.1964(19)
N1A N 1.07940(14) -0.26126(15) 0.52183(15)
C1A C 0.92180(17) -0.16782(16) 0.48553(17)
H5A H 0.93160 -0.06740 0.41040
N2A N 0.75273(14) -0.20065(13) 0.54350(14)
C2A C 0.74882(16) -0.35119(15) 0.65026(15)
C3A C 0.90453(16) -0.45721(15) 0.69589(15)
C4A C 1.07631(16) -0.40872(16) 0.63072(16)
N3A N 1.23408(17) -0.49995(17) 0.66866(19)
H6A H 1.33530 -0.46450 0.62400
H7A H 1.23400 -0.59390 0.73770
N4A N 0.84234(17) -0.59274(15) 0.80618(16)
C5A C 0.65889(19) -0.56359(18) 0.82126(19)
H8A H 0.58450 -0.63740 0.88890
N5A N 0.59517(15) -0.41904(15) 0.72996(16)
H9A H 0.905(3) -0.677(3) 0.851(3)
#END
