
#######################################################################
#
#                 Cambridge Crystallographic Data Centre
#                                CCDC
#
#######################################################################
#
# If this CIF has been generated from an entry in the Cambridge
# Structural Database, then it will include bibliographic, chemical,
# crystal, experimental, refinement or atomic coordinate data resulting
# from the CCDC's data processing and validation procedures.
#
#######################################################################

data_CSD_CIF_VILRIT
_audit_creation_date 2013-10-03
_audit_creation_method CSD-ConQuest-V1
_database_code_CSD VILRIT
_database_code_depnum_ccdc_archive 'CCDC 924220'
_chemical_formula_sum 'C12 H10 Cl3 Fe1 N6'
_chemical_formula_moiety
;
C12 H10 Cl3 Fe1 N6
;
_journal_coden_Cambridge 580
_journal_volume 64
_journal_year 2013
_journal_page_first 189
_journal_name_full 'Polyhedron '
loop_
_publ_author_name
"N.C.Anastasiadis"
"G.Bilis"
"J.C.Plakatouras"
"C.P.Raptopoulou"
"V.Psycharis"
"C.Beavers"
"S.J.Teat"
"M.Louloudi"
"S.P.Perlepe"
_chemical_name_systematic
;
bis(1H-benzotriazole)-trichloro-iron(iii)
;
_cell_volume   1522.151
_exptl_crystal_colour 'orange'
_exptl_crystal_density_diffrn 1.748
_exptl_crystal_description 'needle'
_diffrn_ambient_temperature 100
_diffrn_radiation_probe x-ray
_diffrn_source synchrotron
#These two values have been output from a single CSD field.
_refine_ls_R_factor_gt 0.0277
_refine_ls_wR_factor_gt 0.0277
_symmetry_cell_setting monoclinic
_symmetry_space_group_name_H-M 'C 2/c'
_symmetry_Int_Tables_number 15
loop_
_symmetry_equiv_pos_site_id
_symmetry_equiv_pos_as_xyz
1 x,y,z
2 -x,y,1/2-z
3 1/2+x,1/2+y,z
4 1/2-x,1/2+y,1/2-z
5 -x,-y,-z
6 x,-y,-1/2+z
7 -1/2-x,-1/2-y,-z
8 -1/2+x,-1/2-y,-1/2+z
_cell_length_a 18.385(2)
_cell_length_b 6.7661(7)
_cell_length_c 14.3770(16)
_cell_angle_alpha 90
_cell_angle_beta 121.667(3)
_cell_angle_gamma 90
_cell_formula_units_Z 4
loop_
_atom_type_symbol
_atom_type_radius_bond
C 0.68
H 0.23
Cl 0.99
Fe 1.52
N 0.68
loop_
_atom_site_label
_atom_site_type_symbol
_atom_site_fract_x
_atom_site_fract_y
_atom_site_fract_z
Fe1 Fe 0.00000 0.30613(4) 0.25000
Cl1 Cl 0.039924(19) 0.12619(5) 0.40012(2)
Cl2 Cl 0.00000 0.63424(7) 0.25000
N1 N 0.12969(7) 0.31446(16) 0.28388(8)
N2 N 0.19082(7) 0.31197(17) 0.38757(9)
N3 N 0.26558(7) 0.32610(17) 0.39356(9)
H1 H 0.3137(13) 0.322(3) 0.4606(17)
C1 C 0.25457(8) 0.33625(19) 0.29252(10)
C2 C 0.31264(9) 0.3464(2) 0.25692(12)
H2 H 0.37280 0.34820 0.30650
C3 C 0.27639(10) 0.3534(2) 0.14531(12)
H3 H 0.31270 0.35920 0.11680
C4 C 0.18656(10) 0.3524(2) 0.07166(12)
H4 H 0.16480 0.35950 -0.00460
C5 C 0.12966(9) 0.3413(2) 0.10667(11)
H5 H 0.06960 0.34060 0.05680
C6 C 0.16567(8) 0.33122(19) 0.22049(10)
Cl1A Cl -0.039924(19) 0.12619(5) 0.09988(2)
N1A N -0.12969(7) 0.31446(16) 0.21612(8)
N2A N -0.19082(7) 0.31197(17) 0.11243(9)
N3A N -0.26558(7) 0.32610(17) 0.10644(9)
H1A H -0.3137(13) 0.322(3) 0.0394(17)
C1A C -0.25457(8) 0.33625(19) 0.20748(10)
C2A C -0.31264(9) 0.3464(2) 0.24308(12)
H2A H -0.37280 0.34820 0.19350
C3A C -0.27639(10) 0.3534(2) 0.35469(12)
H3A H -0.31270 0.35920 0.38320
C4A C -0.18656(10) 0.3524(2) 0.42834(12)
H4A H -0.16480 0.35950 0.50460
C5A C -0.12966(9) 0.3413(2) 0.39333(11)
H5A H -0.06960 0.34060 0.44320
C6A C -0.16567(8) 0.33122(19) 0.27951(10)
#END
