
#######################################################################
#
#                 Cambridge Crystallographic Data Centre
#                                CCDC
#
#######################################################################
#
# If this CIF has been generated from an entry in the Cambridge
# Structural Database, then it will include bibliographic, chemical,
# crystal, experimental, refinement or atomic coordinate data resulting
# from the CCDC's data processing and validation procedures.
#
#######################################################################

data_CSD_CIF_VILYOE
_audit_creation_date 1991-10-31
_audit_creation_method CSD-ConQuest-V1
_database_code_CSD VILYOE
_chemical_formula_sum 'C9 H28 Cl4 Cr1 P3'
_chemical_formula_moiety
;
C6 H18 Cl4 Cr1 P2 1-,C3 H10 P1 1+
;
_journal_coeditor_code "IUCr HH0425"
_journal_coden_Cambridge 591
_journal_volume 47
_journal_year 1991
_journal_page_first 1069
_journal_name_full 'Acta Crystallogr.,Sect.C:Cryst.Struct.Commun. '
loop_
_publ_author_name
"F.A.Cotton"
"R.L.Luck"
_chemical_name_systematic
;
Trimethylphosphonium trans-tetrachloro-bis(trimethylphosphine)-chromium(iii)
;
_cell_volume   2054.429
_exptl_crystal_colour 'green'
_exptl_crystal_density_diffrn 1.368
_diffrn_ambient_temperature ?
_diffrn_special_details
;
The study was carried out at room temperature,in the range 283-303K

;
_refine_special_details
;
One methyl group and the H-atom in the phosphonium ion are disordered.

;
#These two values have been output from a single CSD field.
_refine_ls_R_factor_gt 0.043
_refine_ls_wR_factor_gt 0.043
_symmetry_cell_setting monoclinic
_symmetry_space_group_name_H-M 'C 2/c'
_symmetry_Int_Tables_number 15
loop_
_symmetry_equiv_pos_site_id
_symmetry_equiv_pos_as_xyz
1 x,y,z
2 1/2+x,1/2+y,z
3 -x,y,1/2-z
4 1/2-x,1/2+y,1/2-z
5 -x,-y,-z
6 -1/2-x,-1/2-y,-z
7 x,-y,-1/2+z
8 -1/2+x,-1/2-y,-1/2+z
_cell_length_a 15.334(4)
_cell_length_b 10.202(2)
_cell_length_c 13.145(2)
_cell_angle_alpha 90
_cell_angle_beta 92.49(1)
_cell_angle_gamma 90
_cell_formula_units_Z 4
loop_
_atom_type_symbol
_atom_type_radius_bond
C 0.68
H 0.23
Cl 0.99
Cr 1.35
P 1.05
loop_
_atom_site_label
_atom_site_type_symbol
_atom_site_fract_x
_atom_site_fract_y
_atom_site_fract_z
Cr1 Cr 0.25000 0.25000 0.00000
Cl1 Cl 0.2670(1) 0.2245(1) 0.17567(9)
Cl2 Cl 0.10653(8) 0.3247(2) 0.0196(1)
P1 P 0.31182(9) 0.4720(1) 0.02244(9)
C1 C 0.2385(4) 0.5913(6) 0.0740(4)
C2 C 0.4076(4) 0.4808(6) 0.1066(4)
C3 C 0.3470(4) 0.5505(6) -0.0922(4)
P2 P 0.00000 0.5009(3) 0.25000
C4 C -0.0260(8) 0.640(1) 0.295(1)
C5 C 0.0833(4) 0.4082(7) 0.3069(5)
H1 H 0.221(4) 0.552(6) 0.137(4)
H2 H 0.174(4) 0.605(6) 0.021(5)
H3 H 0.272(4) 0.667(7) 0.081(5)
H4 H 0.393(3) 0.460(4) 0.163(3)
H5 H 0.428(5) 0.580(7) 0.111(5)
H6 H 0.457(5) 0.401(8) 0.076(5)
H7 H 0.386(3) 0.501(4) -0.113(3)
H8 H 0.384(5) 0.633(7) -0.073(6)
H9 H 0.299(4) 0.566(6) -0.138(4)
H10 H 0.066(4) 0.353(7) 0.351(5)
H11 H 0.124(5) 0.457(7) 0.329(6)
H12 H 0.111(4) 0.362(6) 0.253(5)
Cl1E Cl 0.2330(1) 0.2755(1) -0.17567(9)
Cl2E Cl 0.39347(8) 0.1753(2) -0.0196(1)
P1E P 0.18818(9) 0.0280(1) -0.02244(9)
C1E C 0.2615(4) -0.0913(6) -0.0740(4)
H1E H 0.279(4) -0.052(6) -0.137(4)
H2E H 0.326(4) -0.105(6) -0.021(5)
H3E H 0.228(4) -0.167(7) -0.081(5)
C2E C 0.0924(4) 0.0192(6) -0.1066(4)
H4E H 0.107(3) 0.040(4) -0.163(3)
H5E H 0.072(5) -0.080(7) -0.111(5)
H6E H 0.043(5) 0.099(8) -0.076(5)
C3E C 0.1530(4) -0.0505(6) 0.0922(4)
H7E H 0.114(3) -0.001(4) 0.113(3)
H8E H 0.116(5) -0.133(7) 0.073(6)
H9E H 0.201(4) -0.066(6) 0.138(4)
C4B C 0.0260(8) 0.640(1) 0.205(1)
C5B C -0.0833(4) 0.4082(7) 0.1931(5)
H10B H -0.066(4) 0.353(7) 0.149(5)
H11B H -0.124(5) 0.457(7) 0.171(6)
H12B H -0.111(4) 0.362(6) 0.247(5)
#END
