
#######################################################################
#
#                 Cambridge Crystallographic Data Centre
#                                CCDC
#
#######################################################################
#
# If this CIF has been generated from an entry in the Cambridge
# Structural Database, then it will include bibliographic, chemical,
# crystal, experimental, refinement or atomic coordinate data resulting
# from the CCDC's data processing and validation procedures.
#
#######################################################################

data_CSD_CIF_VINXUM
_audit_creation_date 2008-01-22
_audit_creation_method CSD-ConQuest-V1
_database_code_CSD VINXUM
_database_code_depnum_ccdc_archive 'CCDC 272862'
_chemical_formula_sum 'C8 H13 Mn1 N1 O11'
_chemical_formula_moiety
;
C8 H13 Mn1 N1 O11
;
_journal_coden_Cambridge 1289
_journal_volume 14
_journal_year 2006
_journal_page_first 257
_journal_name_full 'Hanneng Cailiao(Chin.)(Energet.Mater.) '
loop_
_publ_author_name
"Jin-yu Guo"
"Tong-lai Zhang"
"Jian-guo Zhang"
"Yan-hong Liu"
"Kai-bei Yu"
_chemical_name_systematic
;
Penta-aqua-(5-nitroisophthalato)-manganese(ii)
;
_chemical_melting_point 365
_cell_volume    657.792
_exptl_crystal_colour 'pink'
_exptl_crystal_density_diffrn 1.788
_exptl_crystal_description 'block'
_diffrn_ambient_temperature 294
#These two values have been output from a single CSD field.
_refine_ls_R_factor_gt 0.0327
_refine_ls_wR_factor_gt 0.0327
_symmetry_cell_setting triclinic
_symmetry_space_group_name_H-M 'P -1'
_symmetry_Int_Tables_number 2
loop_
_symmetry_equiv_pos_site_id
_symmetry_equiv_pos_as_xyz
1 x,y,z
2 -x,-y,-z
_cell_length_a 7.892(10)
_cell_length_b 9.422(2)
_cell_length_c 9.716(2)
_cell_angle_alpha 69.52(1)
_cell_angle_beta 87.96(2)
_cell_angle_gamma 76.68(1)
_cell_formula_units_Z 2
loop_
_atom_type_symbol
_atom_type_radius_bond
C 0.68
H 0.23
Mn 1.35
N 0.68
O 0.68
loop_
_atom_site_label
_atom_site_type_symbol
_atom_site_fract_x
_atom_site_fract_y
_atom_site_fract_z
Mn1 Mn 0.81834(5) -0.08035(5) 0.72565(4)
O1 O 0.7435(2) 0.1431(2) 0.54526(19)
O2 O 0.4535(2) 0.2052(2) 0.5484(2)
O3 O 0.2047(3) 0.5839(2) 0.0349(2)
O4 O 0.3086(2) 0.7956(2) -0.05717(19)
O5 O 0.8347(3) 0.8177(3) 0.1822(2)
O6 O 0.9961(3) 0.6055(3) 0.3283(3)
O7 O 1.0950(2) -0.0839(2) 0.6964(2)
O8 O 0.5481(3) -0.0745(3) 0.7600(3)
O9 O 0.8854(3) -0.3037(2) 0.8981(2)
O10 O 0.8490(3) -0.1925(3) 0.5573(3)
O11 O 0.8572(3) 0.0441(3) 0.8684(2)
N1 N 0.8604(3) 0.6795(3) 0.2558(2)
C1 C 0.5950(3) 0.2326(3) 0.4993(3)
C2 C 0.5933(3) 0.3846(3) 0.3756(3)
C3 C 0.4577(3) 0.4535(3) 0.2696(3)
H1 H 0.36560 0.40560 0.27540
C4 C 0.4560(3) 0.5925(3) 0.1550(3)
C5 C 0.5884(3) 0.6685(3) 0.1519(3)
H2 H 0.58660 0.76490 0.07980
C6 C 0.7218(3) 0.5979(3) 0.2578(3)
C7 C 0.7303(3) 0.4565(3) 0.3683(3)
H3 H 0.82490 0.41050 0.43600
C8 C 0.3121(3) 0.6609(3) 0.0357(3)
H4 H 1.142(4) -0.118(4) 0.635(3)
H5 H 1.162(4) -0.121(4) 0.769(2)
H6 H 0.497(4) 0.012(2) 0.705(3)
H7 H 0.482(4) -0.119(4) 0.816(3)
H8 H 0.839(5) -0.376(3) 0.912(4)
H9 H 0.986(2) -0.331(4) 0.932(4)
H10 H 0.876(7) -0.132(5) 0.481(3)
H11 H 0.756(3) -0.206(5) 0.535(4)
H12 H 0.929(4) 0.098(4) 0.844(4)
H13 H 0.798(5) 0.073(5) 0.929(4)
#END
