
#######################################################################
#
#                 Cambridge Crystallographic Data Centre
#                                CCDC
#
#######################################################################
#
# If this CIF has been generated from an entry in the Cambridge
# Structural Database, then it will include bibliographic, chemical,
# crystal, experimental, refinement or atomic coordinate data resulting
# from the CCDC's data processing and validation procedures.
#
#######################################################################

data_CSD_CIF_VIXXAB
_audit_creation_date 1992-01-27
_audit_creation_method CSD-ConQuest-V1
_database_code_CSD VIXXAB
_chemical_formula_sum 'C18 H18 Fe1 N2 O3'
_chemical_formula_moiety
;
C18 H18 Fe1 N1 1+,N1 O3 1-
;
_journal_coden_Cambridge 579
_journal_volume 10
_journal_year 1991
_journal_page_first 1896
_journal_name_full 'Organometallics '
loop_
_publ_author_name
"S.R.Marder"
"J.W.Perry"
"B.G.Tiemann"
"W.P.Schaefer"
_chemical_name_systematic
;
(E)-1-Ferrocenyl-2-(1-methylpyridinium-4-yl)ethene nitrate
;
_chemical_name_common
;
(eta$5!-Cyclopentadienyl)-(eta$5!-(2-(1-methylpyridinium-4-yl)ethenyl)-cyclope
ntadienyl) nitrate
;
_cell_volume   1735.035
_exptl_crystal_density_diffrn 1.4
_diffrn_ambient_temperature ?
_diffrn_special_details
;
The study was carried out at room temperature,in the range 283-303K

;
#These two values have been output from a single CSD field.
_refine_ls_R_factor_gt 0.0466
_refine_ls_wR_factor_gt 0.0466
_symmetry_cell_setting monoclinic
_symmetry_space_group_name_H-M 'C c'
_symmetry_Int_Tables_number 9
loop_
_symmetry_equiv_pos_site_id
_symmetry_equiv_pos_as_xyz
1 x,y,z
2 1/2+x,1/2+y,z
3 x,-y,1/2+z
4 1/2+x,1/2-y,1/2+z
_cell_length_a 17.618(4)
_cell_length_b 10.780(3)
_cell_length_c 12.528(3)
_cell_angle_alpha 90
_cell_angle_beta 133.18(2)
_cell_angle_gamma 90
_cell_formula_units_Z 4
loop_
_atom_type_symbol
_atom_type_radius_bond
C 0.68
H 0.23
Fe 1.34
N 0.68
O 0.68
loop_
_atom_site_label
_atom_site_type_symbol
_atom_site_fract_x
_atom_site_fract_y
_atom_site_fract_z
Fe1 Fe 0.00000 0.10720(7) 0.00000
C1 C -0.0826(21) 0.0438(22) -0.2004(13)
C2 C -0.0262(16) -0.0415(21) -0.1132(32)
C3 C -0.0453(10) -0.0685(8) -0.0384(17)
C4 C -0.1214(9) 0.0022(13) -0.0738(13)
C5 C -0.1470(8) 0.0795(11) -0.1796(17)
C6 C 0.1561(6) 0.1434(10) 0.1551(10)
C7 C 0.1151(7) 0.1391(11) 0.2217(9)
C8 C 0.0381(8) 0.2287(9) 0.1554(10)
C9 C 0.0257(8) 0.2908(7) 0.0427(11)
C10 C 0.0969(7) 0.2409(8) 0.0426(8)
C11 C 0.1018(8) 0.2799(8) -0.0669(11)
C12 C 0.1672(7) 0.2359(9) -0.0656(12)
C13 C 0.1693(7) 0.2758(8) -0.1849(9)
C14 C 0.1081(7) 0.3622(10) -0.2945(13)
C15 C 0.1179(6) 0.3855(7) -0.3908(10)
N1 N 0.1904(5) 0.3247(5) -0.3790(6)
C16 C 0.2526(7) 0.2382(7) -0.2702(10)
C17 C 0.2413(8) 0.2157(8) -0.1794(11)
C18 C 0.2051(8) 0.3504(9) -0.4796(9)
N2 N 0.3761(5) 0.0282(7) 0.6588(8)
O1 O 0.4001(9) -0.0424(16) 0.6195(14)
O2 O 0.2863(7) 0.0498(9) 0.5694(10)
O3 O 0.4363(7) 0.0834(11) 0.7696(9)
H1 H -0.08110 0.07750 -0.26900
H2 H 0.02600 -0.08200 -0.10410
H3 H -0.01100 -0.13100 0.03530
H4 H -0.15170 -0.00030 -0.03400
H5 H -0.19760 0.14390 -0.22890
H6 H 0.21030 0.09370 0.17860
H7 H 0.13670 0.08460 0.29780
H8 H -0.00060 0.24650 0.18070
H9 H -0.02300 0.35450 -0.01980
H10 H 0.05370 0.33980 -0.13890
H11 H 0.21650 0.17770 0.00770
H12 H 0.05770 0.40660 -0.30290
H13 H 0.07380 0.44460 -0.46670
H14 H 0.30380 0.19490 -0.26100
H15 H 0.28490 0.15480 -0.10540
H16 H 0.13990 0.34800 -0.57860
H17 H 0.25000 0.28750 -0.46680
H18 H 0.23690 0.42930 -0.45870
#END
