
#######################################################################
#
#                 Cambridge Crystallographic Data Centre
#                                CCDC
#
#######################################################################
#
# If this CIF has been generated from an entry in the Cambridge
# Structural Database, then it will include bibliographic, chemical,
# crystal, experimental, refinement or atomic coordinate data resulting
# from the CCDC's data processing and validation procedures.
#
#######################################################################

data_CSD_CIF_VIZYUY
_audit_creation_date 1992-04-28
_audit_creation_method CSD-ConQuest-V1
_database_code_CSD VIZYUY
_database_code_depnum_ccdc_archive 'CCDC 1285266'
_chemical_formula_sum 'C10 H24 Br3 Mn1 N4'
_chemical_formula_moiety
;
C10 H24 Br2 Mn1 N4 1+,Br1 1-
;
_journal_coden_Cambridge 3
_journal_volume 45
_journal_year 1991
_journal_page_first 244
_journal_name_full 'Acta Chem.Scand. '
loop_
_publ_author_name
"P.A.Daugherty"
"J.Glerup"
"P.A.Goodson"
"D.J.Hodgson"
"K.Michelsen"
_chemical_name_systematic
;
(1,4,8,11-Tetra-azacyclotetradecane-N,N,',N'',N''')-trans-dibromo-manganese(ii
i) bromide
;
_cell_volume    826.106
_exptl_crystal_colour 'emerald green'
_exptl_crystal_density_diffrn 1.99
_diffrn_ambient_temperature ?
_diffrn_special_details
;
The study was carried out at room temperature,in the range 283-303K

;
#These two values have been output from a single CSD field.
_refine_ls_R_factor_gt 0.0589
_refine_ls_wR_factor_gt 0.0589
_symmetry_cell_setting tetragonal
_symmetry_space_group_name_H-M 'P 42/m'
_symmetry_Int_Tables_number 84
loop_
_symmetry_equiv_pos_site_id
_symmetry_equiv_pos_as_xyz
1 x,y,z
2 -y,x,1/2+z
3 -x,-y,z
4 y,-x,1/2+z
5 -x,-y,-z
6 y,-x,-1/2-z
7 x,y,-z
8 -y,x,-1/2-z
_cell_length_a 7.971(2)
_cell_length_b 7.971(2)
_cell_length_c 13.002(4)
_cell_angle_alpha 90
_cell_angle_beta 90
_cell_angle_gamma 90
_cell_formula_units_Z 2
loop_
_atom_type_symbol
_atom_type_radius_bond
C 0.68
H 0.23
Br 1.21
Mn 1.35
N 0.68
loop_
_atom_site_label
_atom_site_type_symbol
_atom_site_fract_x
_atom_site_fract_y
_atom_site_fract_z
Br1 Br 0.7285(1) 0.2998(1) 0.00000
Mn1 Mn 1.00000 0.50000 0.00000
N1 N 1.0945(8) 0.3552(7) 0.1145(5)
C1 C 1.2702(15) 0.1808(15) 0.00000
C2 C 1.2625(9) 0.2816(11) 0.0995(9)
C3 C 1.0814(11) 0.4549(11) 0.2122(7)
H1 H 1.17880 0.10090 0.00000
H2 H 1.36850 0.10680 0.00000
H3 H 1.27990 0.18940 0.14520
H4 H 1.35520 0.36070 0.09800
H5 H 1.19380 0.49950 0.22270
H6 H 1.09700 0.37270 0.26590
H7 H 1.03160 0.26300 0.11710
Br2 Br 0.00000 0.00000 0.25000
Br1D Br 1.2715(1) 0.7002(1) 0.00000
N1D N 0.9055(8) 0.6448(7) -0.1145(5)
N1B N 0.9055(8) 0.6448(7) 0.1145(5)
N1F N 1.0945(8) 0.3552(7) -0.1145(5)
C2F C 1.2625(9) 0.2816(11) -0.0995(9)
C3B C 0.9186(11) 0.5451(11) 0.2122(7)
C2D C 0.7375(9) 0.7184(11) -0.0995(9)
C3D C 0.9186(11) 0.5451(11) -0.2122(7)
H7D H 0.96840 0.73700 -0.11710
C2B C 0.7375(9) 0.7184(11) 0.0995(9)
H7B H 0.96840 0.73700 0.11710
C3F C 1.0814(11) 0.4549(11) -0.2122(7)
H7F H 1.03160 0.26300 -0.11710
H3F H 1.27990 0.18940 -0.14520
H4F H 1.35520 0.36070 -0.09800
H5B H 0.80620 0.50050 0.22270
H6B H 0.90300 0.62730 0.26590
C1D C 0.7298(15) 0.8192(15) 0.00000
H3D H 0.72010 0.81060 -0.14520
H4D H 0.64480 0.63930 -0.09800
H5D H 0.80620 0.50050 -0.22270
H6D H 0.90300 0.62730 -0.26590
H3B H 0.72010 0.81060 0.14520
H4B H 0.64480 0.63930 0.09800
H5F H 1.19380 0.49950 -0.22270
H6F H 1.09700 0.37270 -0.26590
H1D H 0.82120 0.89910 0.00000
H2D H 0.63150 0.89320 0.00000
#END
