
#######################################################################
#
#                 Cambridge Crystallographic Data Centre
#                                CCDC
#
#######################################################################
#
# If this CIF has been generated from an entry in the Cambridge
# Structural Database, then it will include bibliographic, chemical,
# crystal, experimental, refinement or atomic coordinate data resulting
# from the CCDC's data processing and validation procedures.
#
#######################################################################

data_CSD_CIF_VUGQAR
_audit_creation_date 2015-06-13
_audit_creation_method CSD-ConQuest-V1
_database_code_CSD VUGQAR
_database_code_depnum_ccdc_archive 'CCDC 1404715'
_chemical_formula_sum 'C22 H28 Cl2 Fe1 N4 O10 S2'
_chemical_formula_moiety
;
C8 H14 Cl2 Fe1 N4 O4 2+,2(C7 H7 O3 S1 1-)
;
_journal_coeditor_code "wm5168"
_journal_coden_Cambridge 1828
_journal_volume 71
_journal_year 2015
_journal_page_first 776
_journal_name_full 'Acta Crystallogr.,Sect.E:Cryst.Commun. '
loop_
_publ_author_name
"B.O.Golub"
"S.I.Shylin"
"S.Dechert"
"M.L.Malysheva"
"I.A.Gural`skiy"
_chemical_name_systematic
;
tetraaqua-bis(2-chloropyrazine)-iron(ii) bis(4-methylbenzenesulfonate)
;
_cell_volume   1413.649
_exptl_crystal_colour 'colorless'
_exptl_crystal_density_diffrn 1.643
_exptl_crystal_description 'block'
_diffrn_ambient_temperature 133.2
#These two values have been output from a single CSD field.
_refine_ls_R_factor_gt 0.0279
_refine_ls_wR_factor_gt 0.0279
_symmetry_cell_setting monoclinic
_symmetry_space_group_name_H-M 'C 2/m'
_symmetry_Int_Tables_number 12
loop_
_symmetry_equiv_pos_site_id
_symmetry_equiv_pos_as_xyz
1 x,y,z
2 -x,y,-z
3 1/2+x,1/2+y,z
4 1/2-x,1/2+y,-z
5 -x,-y,-z
6 x,-y,z
7 -1/2-x,-1/2-y,-z
8 -1/2+x,-1/2-y,z
_cell_length_a 30.691(3)
_cell_length_b 6.7321(3)
_cell_length_c 6.9435(6)
_cell_angle_alpha 90
_cell_angle_beta 99.811(7)
_cell_angle_gamma 90
_cell_formula_units_Z 2
loop_
_atom_type_symbol
_atom_type_radius_bond
C 0.68
H 0.23
Cl 0.99
Fe 1.52
N 0.68
O 0.68
S 1.02
loop_
_atom_site_label
_atom_site_type_symbol
_atom_site_fract_x
_atom_site_fract_y
_atom_site_fract_z
Fe1 Fe 0.50000 0.00000 0.50000
Cl1 Cl 0.68495(2) 0.00000 0.84806(9)
O1 O 0.51119(5) 0.2190(3) 0.7183(2)
N1 N 0.57111(7) 0.00000 0.4870(3)
N2 N 0.66150(7) 0.00000 0.4683(3)
C1 C 0.60191(8) 0.00000 0.6491(3)
H1 H 0.59320 0.00000 0.77410
C2 C 0.64619(8) 0.00000 0.6350(3)
C3 C 0.58590(8) 0.00000 0.3161(3)
H2 H 0.56520 0.00000 0.19770
C4 C 0.63061(8) 0.00000 0.3081(3)
H3 H 0.63960 0.00000 0.18390
H4 H 0.4925(10) 0.299(5) 0.740(5)
H5 H 0.5338(8) 0.251(5) 0.791(4)
S1 S 0.41620(2) 0.50000 0.91435(8)
O2 O 0.45581(6) 0.50000 0.8231(2)
O3 O 0.41275(4) 0.32011(19) 1.02718(16)
C5 C 0.37118(8) 0.50000 0.7189(3)
C6 C 0.32788(8) 0.50000 0.7567(3)
H6 H 0.32260 0.50000 0.88760
C7 C 0.29303(8) 0.50000 0.6040(4)
H7 H 0.26370 0.50000 0.63080
C8 C 0.29970(8) 0.50000 0.4102(3)
C9 C 0.34283(8) 0.50000 0.3749(3)
H8 H 0.34800 0.50000 0.24380
C10 C 0.37849(8) 0.50000 0.5263(3)
H9 H 0.40780 0.50000 0.49930
C11 C 0.26090(9) 0.50000 0.2452(4)
H10? H 0.23510 0.44240 0.29040
H11? H 0.26810 0.42090 0.13640
H12? H 0.25420 0.63670 0.20130
Cl1A Cl 0.31505(2) 0.00000 0.15194(9)
O1A O 0.48881(5) 0.2190(3) 0.2817(2)
N1A N 0.42889(7) 0.00000 0.5130(3)
N2A N 0.33850(7) 0.00000 0.5317(3)
C1A C 0.39809(8) 0.00000 0.3509(3)
H1A H 0.40680 0.00000 0.22590
C2A C 0.35381(8) 0.00000 0.3650(3)
C3A C 0.41410(8) 0.00000 0.6839(3)
H2A H 0.43480 0.00000 0.80230
C4A C 0.36939(8) 0.00000 0.6919(3)
H3A H 0.36040 0.00000 0.81610
H4A H 0.5075(10) 0.299(5) 0.260(5)
H5A H 0.4662(8) 0.251(5) 0.209(4)
O1D O 0.48881(5) -0.2190(3) 0.2817(2)
H4D H 0.5075(10) -0.299(5) 0.260(5)
H5D H 0.4662(8) -0.251(5) 0.209(4)
O1E O 0.51119(5) -0.2190(3) 0.7183(2)
H4E H 0.4925(10) -0.299(5) 0.740(5)
H5E H 0.5338(8) -0.251(5) 0.791(4)
O3E O 0.41275(4) 0.67989(19) 1.02718(16)
#END
