
#######################################################################
#
#                 Cambridge Crystallographic Data Centre
#                                CCDC
#
#######################################################################
#
# If this CIF has been generated from an entry in the Cambridge
# Structural Database, then it will include bibliographic, chemical,
# crystal, experimental, refinement or atomic coordinate data resulting
# from the CCDC's data processing and validation procedures.
#
#######################################################################

data_CSD_CIF_VUJREY
_audit_creation_date 2010-05-26
_audit_creation_method CSD-ConQuest-V1
_database_code_CSD VUJREY
_database_code_depnum_ccdc_archive 'CCDC 713965'
_chemical_formula_sum 'C32 H42 Co1 N12'
_chemical_formula_moiety
;
C32 H42 Co1 N12
;
_journal_coden_Cambridge 1220
_journal_volume 15
_journal_year 2009
_journal_page_first 4350
_journal_name_full 'Chem.-Eur.J. '
loop_
_publ_author_name
"I.Kuzu"
"I.Krummenacher"
"I.J.Hewitt"
"Yanhua Lan"
"V.Mereacre"
"A.K.Powell"
"P.Hofer"
"J.Harmer"
"F.Breher"
_chemical_name_systematic
;
bis(tris(3,5-Dimethylpyrazolyl)methanide-N,N',N'')-cobalt(ii)
;
_cell_volume    811.222
_exptl_crystal_colour 'pale yellow'
_exptl_crystal_density_diffrn 1.338
_exptl_crystal_description 'irregular'
_exptl_crystal_preparation 'tetrahydrofuran'
_diffrn_ambient_temperature 150
#These two values have been output from a single CSD field.
_refine_ls_R_factor_gt 0.0528
_refine_ls_wR_factor_gt 0.0528
_symmetry_cell_setting triclinic
_symmetry_space_group_name_H-M 'P -1'
_symmetry_Int_Tables_number 2
loop_
_symmetry_equiv_pos_site_id
_symmetry_equiv_pos_as_xyz
1 x,y,z
2 -x,-y,-z
_cell_length_a 8.6584(17)
_cell_length_b 9.851(2)
_cell_length_c 10.464(2)
_cell_angle_alpha 66.79(3)
_cell_angle_beta 86.09(3)
_cell_angle_gamma 81.50(3)
_cell_formula_units_Z 1
loop_
_atom_type_symbol
_atom_type_radius_bond
C 0.68
H 0.23
Co 1.26
N 0.68
loop_
_atom_site_label
_atom_site_type_symbol
_atom_site_fract_x
_atom_site_fract_y
_atom_site_fract_z
Co1 Co 0.50000 0.50000 0.50000
N1 N 0.3131(3) 0.5388(3) 0.2534(2)
C1 C 0.3419(3) 0.6921(3) 0.2073(3)
N2 N 0.3569(3) 0.4317(3) 0.3823(3)
N3 N 0.2812(3) 0.7500(3) 0.3098(2)
N4 N 0.3332(3) 0.6935(3) 0.4451(2)
N5 N 0.5086(3) 0.6948(3) 0.1952(2)
N6 N 0.6076(3) 0.6181(3) 0.3063(2)
C2 C 0.1900(5) 0.5690(4) 0.0350(4)
H1 H 0.14880 0.67040 0.02620
H2 H 0.10770 0.52310 0.01350
H3 H 0.27780 0.57260 -0.03000
C3 C 0.2443(3) 0.4790(4) 0.1801(3)
C4 C 0.2398(4) 0.3315(4) 0.2635(4)
H4 H 0.19710 0.26040 0.24080
C5 C 0.3106(4) 0.3068(3) 0.3880(3)
C6 C 0.3342(4) 0.1658(4) 0.5138(4)
H5 H 0.41850 0.17010 0.56950
H6 H 0.36220 0.08150 0.48540
H7 H 0.23760 0.15290 0.56920
C7 C 0.0847(4) 0.9459(4) 0.1547(3)
H8 H 0.15950 0.95830 0.07760
H9 H 0.03540 1.04400 0.14980
H10 H 0.00430 0.88850 0.14830
C8 C 0.1677(3) 0.8652(3) 0.2890(3)
C9 C 0.1463(4) 0.8849(4) 0.4118(3)
H11 H 0.07410 0.95830 0.42950
C10 C 0.2518(4) 0.7756(3) 0.5060(3)
C11 C 0.2751(4) 0.7468(4) 0.6548(3)
H12 H 0.35300 0.65900 0.69540
H13 H 0.17600 0.72910 0.70580
H14 H 0.31170 0.83350 0.66110
C12 C 0.5146(4) 0.8499(4) -0.0588(3)
H15 H 0.50260 0.78330 -0.10550
H16 H 0.57980 0.92540 -0.11650
H17 H 0.41170 0.89900 -0.04470
C13 C 0.5898(4) 0.7623(3) 0.0777(3)
C14 C 0.7445(4) 0.7295(3) 0.1139(3)
H18 H 0.83090 0.76160 0.05390
C15 C 0.7508(3) 0.6402(3) 0.2557(3)
C16 C 0.8905(4) 0.5750(4) 0.3477(3)
H19 H 0.85610 0.52480 0.44410
H20 H 0.95000 0.65480 0.34120
H21 H 0.95670 0.50290 0.31790
N1A N 0.6869(3) 0.4612(3) 0.7466(2)
C1A C 0.6581(3) 0.3079(3) 0.7927(3)
N2A N 0.6431(3) 0.5683(3) 0.6177(3)
N3A N 0.7188(3) 0.2500(3) 0.6902(2)
N4A N 0.6668(3) 0.3065(3) 0.5549(2)
N5A N 0.4914(3) 0.3052(3) 0.8048(2)
N6A N 0.3924(3) 0.3819(3) 0.6937(2)
C2A C 0.8100(5) 0.4310(4) 0.9650(4)
H1A H 0.85120 0.32960 0.97380
H2A H 0.89230 0.47690 0.98650
H3A H 0.72220 0.42740 1.03000
C3A C 0.7557(3) 0.5210(4) 0.8199(3)
C4A C 0.7602(4) 0.6685(4) 0.7365(4)
H4A H 0.80290 0.73960 0.75920
C5A C 0.6894(4) 0.6932(3) 0.6120(3)
C6A C 0.6658(4) 0.8342(4) 0.4862(4)
H5A H 0.58150 0.82990 0.43050
H6A H 0.63780 0.91850 0.51460
H7A H 0.76240 0.84710 0.43080
C7A C 0.9153(4) 0.0541(4) 0.8453(3)
H8A H 0.84050 0.04170 0.92240
H9A H 0.96460 -0.04400 0.85020
H10A H 0.99570 0.11150 0.85170
C8A C 0.8323(3) 0.1348(3) 0.7110(3)
C9A C 0.8537(4) 0.1151(4) 0.5882(3)
H11A H 0.92590 0.04170 0.57050
C10A C 0.7482(4) 0.2244(3) 0.4940(3)
C11A C 0.7249(4) 0.2532(4) 0.3452(3)
H12A H 0.64700 0.34100 0.30460
H13A H 0.82400 0.27090 0.29420
H14A H 0.68830 0.16650 0.33890
C12A C 0.4854(4) 0.1501(4) 1.0588(3)
H15A H 0.49740 0.21670 1.10550
H16A H 0.42020 0.07460 1.11650
H17A H 0.58830 0.10100 1.04470
C13A C 0.4102(4) 0.2377(3) 0.9223(3)
C14A C 0.2555(4) 0.2705(3) 0.8861(3)
H18A H 0.16910 0.23840 0.94610
C15A C 0.2492(3) 0.3598(3) 0.7443(3)
C16A C 0.1095(4) 0.4250(4) 0.6523(3)
H19A H 0.14390 0.47520 0.55590
H20A H 0.05000 0.34520 0.65880
H21A H 0.04330 0.49710 0.68210
#END
