
#######################################################################
#
#                 Cambridge Crystallographic Data Centre
#                                CCDC
#
#######################################################################
#
# If this CIF has been generated from an entry in the Cambridge
# Structural Database, then it will include bibliographic, chemical,
# crystal, experimental, refinement or atomic coordinate data resulting
# from the CCDC's data processing and validation procedures.
#
#######################################################################

data_CSD_CIF_VUPTIL
_audit_creation_date 2015-10-26
_audit_creation_method CSD-ConQuest-V1
_database_code_CSD VUPTIL
_database_code_depnum_ccdc_archive 'CCDC 1410889'
_chemical_formula_sum 'C4 H13 Fe1 N5 O2'
_chemical_formula_moiety
;
C4 H13 Fe1 N5 O2
;
_journal_coden_Cambridge 179
_journal_volume 54
_journal_year 2015
_journal_page_first 14824
_journal_name_full 'Angew.Chem.,Int.Ed. '
loop_
_publ_author_name
"Tzung-Wen Chiou"
"Tsai-Te Lu"
"Ying-Hao Wu"
"Yi-Ju Yu"
"Li-Kang Chu"
"Wen-Feng Liaw"
_chemical_name_systematic
;
(N-(2-Aminoethyl)ethane-1,2-diamine-N,N')-dinitrosyl-iron
;
_cell_volume    880.313
_exptl_crystal_colour 'black'
_exptl_crystal_density_diffrn 1.653
_exptl_crystal_description 'Columnar'
_diffrn_ambient_temperature 100
#These two values have been output from a single CSD field.
_refine_ls_R_factor_gt 0.0271
_refine_ls_wR_factor_gt 0.0271
_symmetry_cell_setting monoclinic
_symmetry_space_group_name_H-M 'P 21/n'
_symmetry_Int_Tables_number 14
loop_
_symmetry_equiv_pos_site_id
_symmetry_equiv_pos_as_xyz
1 x,y,z
2 1/2-x,1/2+y,1/2-z
3 -x,-y,-z
4 -1/2+x,-1/2-y,-1/2+z
_cell_length_a 7.8383(4)
_cell_length_b 8.3171(3)
_cell_length_c 13.7034(7)
_cell_angle_alpha 90
_cell_angle_beta 99.801(2)
_cell_angle_gamma 90
_cell_formula_units_Z 4
loop_
_atom_type_symbol
_atom_type_radius_bond
C 0.68
H 0.23
Fe 1.52
N 0.68
O 0.68
loop_
_atom_site_label
_atom_site_type_symbol
_atom_site_fract_x
_atom_site_fract_y
_atom_site_fract_z
Fe1 Fe 1.12918(5) 0.76319(4) 0.20948(3)
O1 O 1.4205(3) 0.6858(3) 0.11777(16)
O2 O 0.9132(3) 0.9997(2) 0.10012(15)
N1 N 1.1889(3) 0.8158(3) 0.35917(16)
N2 N 0.9989(3) 0.5684(3) 0.26305(15)
N3 N 0.9295(3) 0.3638(3) 0.08010(17)
N4 N 1.3019(3) 0.7093(3) 0.16214(18)
N5 N 0.9940(3) 0.8980(3) 0.15041(16)
C1 C 1.1608(4) 0.6722(3) 0.4183(2)
H1 H 1.15320 0.70390 0.48710
H2 H 1.25830 0.59590 0.42020
C2 C 0.9931(4) 0.5942(3) 0.36962(18)
H3 H 0.97780 0.49000 0.40200
H4 H 0.89400 0.66440 0.37690
C3 C 0.8246(4) 0.5208(3) 0.2105(2)
H5 H 0.74060 0.60530 0.22080
H6 H 0.78970 0.42030 0.24050
C4 C 0.8145(4) 0.4948(3) 0.1007(2)
H7 H 0.69370 0.46850 0.07070
H8 H 0.84730 0.59530 0.06990
H9 H 0.91210 0.34240 0.01630
H10 H 0.89430 0.27360 0.10030
H11 H 1.06420 0.48670 0.26160
H12 H 1.12430 0.89750 0.37720
H13 H 1.30200 0.84570 0.37990
#END
