
#######################################################################
#
#                 Cambridge Crystallographic Data Centre
#                                CCDC
#
#######################################################################
#
# If this CIF has been generated from an entry in the Cambridge
# Structural Database, then it will include bibliographic, chemical,
# crystal, experimental, refinement or atomic coordinate data resulting
# from the CCDC's data processing and validation procedures.
#
#######################################################################

data_CSD_CIF_VUWZIW
_audit_creation_date 1989-10-10
_audit_creation_method CSD-ConQuest-V1
_database_code_CSD VUWZIW
_chemical_formula_sum 'C18 H14 Cl2 Co1 N2'
_chemical_formula_moiety
;
C18 H14 Cl2 Co1 N2
;
_journal_coeditor_code "IUCr AN0127"
_journal_coden_Cambridge 591
_journal_volume 44
_journal_year 1988
_journal_page_first 820
_journal_name_full 'Acta Crystallogr.,Sect.C:Cryst.Struct.Commun. '
loop_
_publ_author_name
"L.Golic"
"A.Mirceva"
_chemical_name_systematic
;
Dichloro-bis(quinoline-N)-cobalt(ii)
;
_cell_volume    834.737
_exptl_crystal_colour 'dark blue'
_exptl_crystal_density_diffrn 1.544
_exptl_special_details
;
triclinic polymorph
Isomorphous with the CoBr2,ZnCl2,Zn(Br)2 and Ni(Cl)2 analogues
;
_diffrn_ambient_temperature ?
_diffrn_special_details
;
The study was carried out at room temperature,in the range 283-303K

;
#These two values have been output from a single CSD field.
_refine_ls_R_factor_gt 0.059
_refine_ls_wR_factor_gt 0.059
_symmetry_cell_setting triclinic
_symmetry_space_group_name_H-M 'P -1'
_symmetry_Int_Tables_number 2
loop_
_symmetry_equiv_pos_site_id
_symmetry_equiv_pos_as_xyz
1 x,y,z
2 -x,-y,-z
_cell_length_a 8.789(1)
_cell_length_b 9.554(1)
_cell_length_c 11.026(1)
_cell_angle_alpha 80.26(1)
_cell_angle_beta 72.19(1)
_cell_angle_gamma 71.83(1)
_cell_formula_units_Z 2
loop_
_atom_type_symbol
_atom_type_radius_bond
C 0.68
H 0.23
Cl 0.99
Co 1.33
N 0.68
loop_
_atom_site_label
_atom_site_type_symbol
_atom_site_fract_x
_atom_site_fract_y
_atom_site_fract_z
Co1 Co 0.4042(1) 0.3021(1) 0.2056(1)
Cl1 Cl 0.2106(2) 0.4330(1) 0.1051(1)
Cl2 Cl 0.3117(2) 0.1596(1) 0.3787(1)
N1 N 0.5873(5) 0.1674(4) 0.0744(3)
C1 C 0.5672(6) 0.1797(5) -0.0412(4)
C2 C 0.6607(7) 0.0762(6) -0.1328(4)
C3 C 0.7802(6) -0.0439(5) -0.1013(5)
C4 C 0.8085(5) -0.0599(4) 0.0200(4)
C5 C 0.9315(6) -0.1802(5) 0.0587(5)
C6 C 0.9589(6) -0.1890(5) 0.1754(5)
C7 C 0.8635(6) -0.0797(5) 0.2605(5)
C8 C 0.7402(6) 0.0361(5) 0.2274(4)
C9 C 0.7107(5) 0.0495(4) 0.1073(4)
N2 N 0.4968(5) 0.4460(4) 0.2583(4)
C10 C 0.6579(6) 0.4372(6) 0.2112(6)
C11 C 0.7335(8) 0.5301(7) 0.2475(7)
C12 C 0.6393(9) 0.6320(7) 0.3306(7)
C13 C 0.4673(7) 0.6472(5) 0.3805(4)
C14 C 0.3606(11) 0.7549(6) 0.4646(6)
C15 C 0.1953(11) 0.7665(7) 0.5088(6)
C16 C 0.1276(8) 0.6708(7) 0.4725(6)
C17 C 0.2272(6) 0.5638(5) 0.3909(5)
C18 C 0.3990(6) 0.5507(4) 0.3452(4)
H1 H 0.47330 0.27550 -0.06750
H2 H 0.63800 0.09150 -0.22660
H3 H 0.85290 -0.12630 -0.16960
H4 H 1.00490 -0.26660 -0.00570
H5 H 1.05550 -0.28140 0.20280
H6 H 0.88730 -0.08690 0.35310
H7 H 0.66440 0.11830 0.29510
H8 H 0.73470 0.35620 0.14190
H9 H 0.86630 0.51850 0.20870
H10 H 0.69590 0.70310 0.35940
H11 H 0.41120 0.82960 0.49460
H12 H 0.11490 0.85140 0.57270
H13 H -0.00510 0.68110 0.50940
H14 H 0.17360 0.48930 0.36370
#END
