
#######################################################################
#
#                 Cambridge Crystallographic Data Centre
#                                CCDC
#
#######################################################################
#
# If this CIF has been generated from an entry in the Cambridge
# Structural Database, then it will include bibliographic, chemical,
# crystal, experimental, refinement or atomic coordinate data resulting
# from the CCDC's data processing and validation procedures.
#
#######################################################################

data_CSD_CIF_VUYDUO
_audit_creation_date 1989-10-10
_audit_creation_method CSD-ConQuest-V1
_database_code_CSD VUYDUO
_chemical_formula_sum 'C12 H30 Cr1 P3 S6'
_chemical_formula_moiety
;
C12 H30 Cr1 P3 S6
;
_journal_coeditor_code "IUCr AL0251"
_journal_coden_Cambridge 591
_journal_volume 44
_journal_year 1988
_journal_page_first 1386
_journal_name_full 'Acta Crystallogr.,Sect.C:Cryst.Struct.Commun. '
loop_
_publ_author_name
"G.Svensson"
"J.Albertsson"
_chemical_name_systematic
;
tris(Diethyldithiophosphinato-S,S')-chromium(iii)
;
_cell_volume   1199.779
_exptl_crystal_colour 'blue'
_exptl_crystal_density_diffrn 1.416
_diffrn_ambient_temperature ?
_diffrn_special_details
;
The study was carried out at room temperature,in the range 283-303K

;
#These two values have been output from a single CSD field.
_refine_ls_R_factor_gt 0.032
_refine_ls_wR_factor_gt 0.032
_symmetry_cell_setting triclinic
_symmetry_space_group_name_H-M 'P -1'
_symmetry_Int_Tables_number 2
loop_
_symmetry_equiv_pos_site_id
_symmetry_equiv_pos_as_xyz
1 x,y,z
2 -x,-y,-z
_cell_length_a 9.638(1)
_cell_length_b 10.017(3)
_cell_length_c 13.983(3)
_cell_angle_alpha 86.25(2)
_cell_angle_beta 75.15(1)
_cell_angle_gamma 66.95(1)
_cell_formula_units_Z 2
loop_
_atom_type_symbol
_atom_type_radius_bond
C 0.68
H 0.23
Cr 1.35
P 1.05
S 1.02
loop_
_atom_site_label
_atom_site_type_symbol
_atom_site_fract_x
_atom_site_fract_y
_atom_site_fract_z
Cr1 Cr 0.23271(6) 0.74259(5) 0.73039(4)
S1 S 0.44083(9) 0.75684(9) 0.59439(7)
S2 S 0.07196(9) 0.88451(9) 0.62151(7)
S3 S 0.27041(10) 0.50284(9) 0.67198(7)
S4 S 0.00763(11) 0.71840(9) 0.84761(7)
S5 S 0.42091(12) 0.63566(10) 0.83101(8)
S6 S 0.18074(12) 0.96516(10) 0.81993(10)
P1 P 0.27301(10) 0.87404(9) 0.52604(7)
P2 P 0.07759(11) 0.52312(9) 0.77900(7)
P3 P 0.32725(14) 0.83550(11) 0.89675(8)
C1 C 0.2726(5) 1.0536(4) 0.4968(3)
C2 C 0.2396(6) 1.1498(5) 0.5842(4)
C3 C 0.3049(5) 0.7936(4) 0.4056(3)
C4 C 0.2883(6) 0.6488(5) 0.4090(4)
C5 C -0.0753(5) 0.5102(4) 0.7301(4)
C6 C -0.1089(6) 0.6045(6) 0.6438(4)
C7 C 0.1146(6) 0.3755(4) 0.8643(4)
C8 C 0.2468(7) 0.3530(4) 0.9095(4)
C9 C 0.2151(8) 0.8375(7) 1.0247(4)
C10 C 0.3025(12) 0.7398(10) 1.0910(5)
C11 C 0.4758(8) 0.9030(6) 0.8996(5)
C12 C 0.5570(8) 0.9373(8) 0.8017(6)
H1 H 0.376(6) 1.037(5) 0.455(3)
H2 H 0.191(6) 1.095(5) 0.463(3)
H3 H 0.303(7) 1.113(6) 0.627(4)
H4 H 0.244(6) 1.245(6) 0.560(4)
H5 H 0.138(7) 1.171(6) 0.632(4)
H6 H 0.233(6) 0.856(5) 0.376(3)
H7 H 0.413(6) 0.783(5) 0.367(3)
H8 H 0.306(6) 0.613(6) 0.340(4)
H9 H 0.356(6) 0.573(6) 0.448(4)
H10 H 0.181(7) 0.666(6) 0.442(4)
H11 H -0.044(5) 0.415(5) 0.717(3)
H12 H -0.162(6) 0.530(5) 0.785(4)
H13 H -0.199(7) 0.603(6) 0.621(4)
H14 H -0.134(6) 0.700(6) 0.658(4)
H15 H -0.012(6) 0.563(6) 0.582(4)
H16 H 0.024(6) 0.395(5) 0.912(4)
H17 H 0.136(6) 0.295(5) 0.826(4)
H18 H 0.230(7) 0.426(6) 0.941(4)
H19 H 0.245(6) 0.271(6) 0.960(4)
H20 H 0.353(6) 0.320(6) 0.857(4)
H21 H 0.168(5) 0.947(5) 1.051(3)
H22 H 0.134(6) 0.791(5) 1.024(5)
H23 H 0.365(6) 0.817(6) 1.043(4)
H24 H 0.244(7) 0.750(6) 1.152(4)
H25 H 0.359(7) 0.650(6) 1.064(4)
H26 H 0.429(5) 0.985(5) 0.952(4)
H27 H 0.562(6) 0.818(5) 0.924(3)
H28 H 0.484(7) 1.023(6) 0.779(4)
H29 H 0.644(6) 0.968(6) 0.802(4)
H30 H 0.586(7) 0.865(6) 0.762(4)
#END
