
#######################################################################
#
#                 Cambridge Crystallographic Data Centre
#                                CCDC
#
#######################################################################
#
# If this CIF has been generated from an entry in the Cambridge
# Structural Database, then it will include bibliographic, chemical,
# crystal, experimental, refinement or atomic coordinate data resulting
# from the CCDC's data processing and validation procedures.
#
#######################################################################

data_CSD_CIF_WAGLIC
_audit_creation_date 2016-02-22
_audit_creation_method CSD-ConQuest-V1
_database_code_CSD WAGLIC
_database_code_depnum_ccdc_archive 'CCDC 1430614'
_chemical_formula_sum 'C12 H16 Cl2 Co1 N4'
_chemical_formula_moiety
;
C12 H16 Cl2 Co1 N4
;
_journal_coden_Cambridge 369
_journal_volume 41
_journal_year 2016
_journal_page_first 347
_journal_name_full 'Transition Met.Chem. '
loop_
_publ_author_name
"Abhimanyu Jana"
"M.Dolai"
"B.K.Shaw"
"S.K.Saha"
"M.Ali"
_chemical_name_systematic
;
dichloro-(N-((3,5-dimethyl-1H-pyrazol-1-yl)methyl)-N-methylpyridin-2-amine)-co
balt(ii)
;
_cell_volume    730.666
_exptl_crystal_colour 'blue'
_exptl_crystal_density_diffrn 1.573
_exptl_crystal_description 'Rod'
_diffrn_ambient_temperature 273
#These two values have been output from a single CSD field.
_refine_ls_R_factor_gt 0.0313
_refine_ls_wR_factor_gt 0.0313
_symmetry_cell_setting triclinic
_symmetry_space_group_name_H-M 'P -1'
_symmetry_Int_Tables_number 2
loop_
_symmetry_equiv_pos_site_id
_symmetry_equiv_pos_as_xyz
1 x,y,z
2 -x,-y,-z
_cell_length_a 8.0674(2)
_cell_length_b 9.0436(2)
_cell_length_c 11.1501(3)
_cell_angle_alpha 89.112(1)
_cell_angle_beta 78.708(1)
_cell_angle_gamma 66.650(1)
_cell_formula_units_Z 2
loop_
_atom_type_symbol
_atom_type_radius_bond
C 0.68
H 0.23
Cl 0.99
Co 1.26
N 0.68
loop_
_atom_site_label
_atom_site_type_symbol
_atom_site_fract_x
_atom_site_fract_y
_atom_site_fract_z
Co1 Co 0.54726(3) 0.75971(3) 0.71546(2)
C1 C 0.7396(4) 0.7014(3) 0.34203(18)
H1 H 0.72520 0.77880 0.28450
Cl1 Cl 0.66361(8) 0.94808(7) 0.70398(5)
N1 N 0.6824(2) 0.4439(2) 0.81853(13)
Cl2 Cl 0.24204(8) 0.85841(9) 0.74551(6)
C2 C 0.7100(3) 0.6112(3) 0.94098(17)
C3 C 0.6345(3) 0.7389(3) 0.45931(19)
H2 H 0.54650 0.84380 0.47960
C4 C 0.8005(4) 0.1790(3) 0.9147(2)
H3 H 0.92590 0.12050 0.87260
H4 H 0.71990 0.15010 0.87630
H5 H 0.78690 0.15270 0.99880
N2 N 0.7743(2) 0.36432(19) 0.60058(13)
C5 C 0.6340(3) 0.3959(2) 0.70976(16)
H6 H 0.61010 0.29960 0.72530
H7 H 0.52090 0.48100 0.69620
N3 N 0.6553(2) 0.6015(2) 0.83633(13)
C6 C 0.7678(2) 0.4762(2) 0.51577(15)
C7 C 0.8811(3) 0.4310(3) 0.39707(17)
H8 H 0.96460 0.32460 0.37620
C8 C 0.7522(3) 0.3547(3) 0.90891(17)
C9 C 0.7697(3) 0.4615(3) 0.98845(18)
H9 H 0.81350 0.43690 1.06060
C10 C 0.7035(4) 0.7670(3) 0.9894(2)
H10 H 0.80850 0.74630 1.02560
H11 H 0.59230 0.81870 1.05020
H12 H 0.70540 0.83620 0.92340
N4 N 0.6524(2) 0.6314(2) 0.54658(13)
C11 C 0.8669(3) 0.5449(3) 0.31338(18)
H13 H 0.94410 0.51640 0.23620
C12 C 0.9082(3) 0.1966(3) 0.5707(2)
H14 H 0.88630 0.15320 0.50020
H15 H 0.89500 0.13340 0.63900
H16 H 1.03100 0.19340 0.55320
#END
