
#######################################################################
#
#                 Cambridge Crystallographic Data Centre
#                                CCDC
#
#######################################################################
#
# If this CIF has been generated from an entry in the Cambridge
# Structural Database, then it will include bibliographic, chemical,
# crystal, experimental, refinement or atomic coordinate data resulting
# from the CCDC's data processing and validation procedures.
#
#######################################################################

data_CSD_CIF_WAHDAK
_audit_creation_date 1993-10-18
_audit_creation_method CSD-ConQuest-V1
_database_code_CSD WAHDAK
_database_code_depnum_ccdc_archive 'CCDC 1289504'
_database_code_depnum_ccdc_fiz 'CSD 56626'
_chemical_formula_sum 'C17 H19 Cr1 N1 O2'
_chemical_formula_moiety
;
C17 H19 Cr1 N1 O2
;
_journal_coden_Cambridge 48
_journal_volume 126
_journal_year 1993
_journal_page_first 657
_journal_name_full 'Chem.Ber. '
loop_
_publ_author_name
"J.Schubert"
"S.Mock"
"U.Schubert"
_chemical_name_systematic
;
Dicarbonyl-(\h^6^-1,3,5-trimethylbenzene)-(1-methyl-2-pyridylidene)-chromium
;
_chemical_melting_point 357.15
_cell_volume    773.334
_exptl_crystal_colour 'dark red'
_exptl_crystal_density_diffrn 1.38
_exptl_special_details
;
Melts with decomposition.

;
_diffrn_ambient_temperature ?
_diffrn_special_details
;
The study was carried out at room temperature,in the range 283-303K

;
#These two values have been output from a single CSD field.
_refine_ls_R_factor_gt 0.045
_refine_ls_wR_factor_gt 0.045
_symmetry_cell_setting monoclinic
_symmetry_space_group_name_H-M 'P 21'
_symmetry_Int_Tables_number 4
loop_
_symmetry_equiv_pos_site_id
_symmetry_equiv_pos_as_xyz
1 x,y,z
2 -x,1/2+y,-z
_cell_length_a 7.452(5)
_cell_length_b 12.894(4)
_cell_length_c 8.504(6)
_cell_angle_alpha 90
_cell_angle_beta 108.841(5)
_cell_angle_gamma 90
_cell_formula_units_Z 2
loop_
_atom_type_symbol
_atom_type_radius_bond
C 0.68
H 0.23
Cr 1.35
N 0.68
O 0.68
loop_
_atom_site_label
_atom_site_type_symbol
_atom_site_fract_x
_atom_site_fract_y
_atom_site_fract_z
Cr1 Cr 0.2260(1) 0.26400 0.66336(8)
O1 O 0.3514(8) 0.4743(4) 0.8001(6)
O2 O 0.5972(7) 0.1966(5) 0.9017(6)
N1 N 0.4249(6) 0.2337(4) 0.3989(5)
C1 C 0.3004(8) 0.3923(4) 0.7459(6)
C2 C 0.4544(8) 0.2220(5) 0.80497
C3 C 0.1028(8) 0.1251(5) 0.7380(7)
C4 C 0.0364(8) 0.2115(5) 0.8000(7)
C5 C -0.0494(7) 0.2936(4) 0.6979(7)
C6 C -0.0788(7) 0.2866(4) 0.5237(6)
C7 C -0.0187(7) 0.1995(5) 0.4578(6)
C8 C 0.0715(8) 0.1177(5) 0.5639(7)
C9 C 0.199(1) 0.0372(6) 0.8501(9)
C10 C -0.121(1) 0.3866(6) 0.7688(9)
C11 C -0.0511(9) 0.1925(6) 0.2731(7)
C12 C 0.3261(7) 0.2966(4) 0.4727(6)
C13 C 0.4643(7) 0.2540(8) 0.2568(6)
C14 C 0.4144(9) 0.3460(7) 0.1782(7)
C15 C 0.318(1) 0.4181(6) 0.2440(7)
C16 C 0.2778(8) 0.3930(5) 0.3850(7)
C17 C 0.497(1) 0.1333(6) 0.4735(9)
H1 H 0.11400 0.05700 0.51900
H2 H 0.05100 0.21400 0.91700
H3 H -0.14200 0.34200 0.45000
H4 H 0.20900 0.05300 0.96300
H5 H 0.12600 -0.02500 0.81800
H6 H 0.32200 0.02700 0.84300
H7 H -0.17800 0.43600 0.67900
H8 H -0.21800 0.36700 0.81300
H9 H -0.02200 0.42100 0.84900
H10 H -0.00200 0.13000 0.24500
H11 H -0.18300 0.19700 0.21100
H12 H 0.01200 0.25000 0.23800
H13 H 0.52600 0.20200 0.21200
H14 H 0.44800 0.36000 0.08000
H15 H 0.27800 0.48400 0.18900
H16 H 0.21200 0.44400 0.43100
H17 H 0.56200 0.09800 0.41000
H18 H 0.58300 0.14200 0.58400
H19 H 0.39400 0.09000 0.47900
#END
