
#######################################################################
#
#                 Cambridge Crystallographic Data Centre
#                                CCDC
#
#######################################################################
#
# If this CIF has been generated from an entry in the Cambridge
# Structural Database, then it will include bibliographic, chemical,
# crystal, experimental, refinement or atomic coordinate data resulting
# from the CCDC's data processing and validation procedures.
#
#######################################################################

data_CSD_CIF_WAHPEC
_audit_creation_date 2011-03-31
_audit_creation_method CSD-ConQuest-V1
_database_code_CSD WAHPEC
_database_code_depnum_ccdc_archive 'CCDC 752994'
_chemical_formula_sum 'C8 H34 Fe2 N6 O20 S2'
_chemical_formula_moiety
;
C8 H18 Fe1 N6 O4 2+,H12 Fe1 O6 2+,2(O4 S1 2-),2(H2 O1)
;
_journal_coden_Cambridge 222
_journal_volume 39
_journal_year 2010
_journal_page_first 8161
_journal_name_full 'Dalton Trans. '
loop_
_publ_author_name
"J.Boonmak"
"M.Nakano"
"N.Chaichit"
"C.Pakawatchai"
"S.Youngme"
_chemical_name_systematic
;
bis(2-Aminopyrazine)-tetra-aqua-ron(ii) hexa-aqua-iron(ii)disulfate dihydrate
;
_cell_volume    683.515
_exptl_crystal_colour 'yellow'
_exptl_crystal_density_diffrn 1.725
_exptl_special_details
;
isomorphous with the Co,Fe and Co,Co analogues

;
_exptl_crystal_description 'rectangular'
_diffrn_ambient_temperature 293
#These two values have been output from a single CSD field.
_refine_ls_R_factor_gt 0.0269
_refine_ls_wR_factor_gt 0.0269
_symmetry_cell_setting triclinic
_symmetry_space_group_name_H-M 'P -1'
_symmetry_Int_Tables_number 2
loop_
_symmetry_equiv_pos_site_id
_symmetry_equiv_pos_as_xyz
1 x,y,z
2 -x,-y,-z
_cell_length_a 6.5698(13)
_cell_length_b 8.3974(17)
_cell_length_c 13.212(3)
_cell_angle_alpha 75.65(3)
_cell_angle_beta 78.33(3)
_cell_angle_gamma 78.79(3)
_cell_formula_units_Z 1
loop_
_atom_type_symbol
_atom_type_radius_bond
C 0.68
H 0.23
Fe 1.52
N 0.68
O 0.68
S 1.02
loop_
_atom_site_label
_atom_site_type_symbol
_atom_site_fract_x
_atom_site_fract_y
_atom_site_fract_z
Fe1 Fe 0.00000 0.50000 0.50000
Fe2 Fe 0.00000 1.00000 0.00000
O1 O 0.02180(19) 0.46181(16) 0.66073(9)
O2 O 0.0387(2) 0.73950(16) 0.05801(12)
O3 O 0.2863(2) 0.97260(17) -0.10465(12)
O4 O 0.1465(2) 1.02535(17) 0.12570(11)
O5 O 0.5365(2) 0.21049(15) 0.79919(12)
O6 O 0.40793(18) 0.48125(15) 0.70270(9)
O7 O 0.66742(17) 0.44977(15) 0.81413(9)
O8 O 0.3109(2) 0.41180(19) 0.8908(1)
O9 O 0.28691(18) 0.58919(15) 0.46563(10)
O10 O 0.3829(2) 0.28038(16) 0.09091(11)
C1 C 0.1536(3) 0.1240(2) 0.59376(14)
H1 H 0.10370 0.15870 0.65710
C2 C 0.2207(3) -0.0470(2) 0.59689(14)
C3 C 0.2363(3) 0.1817(2) 0.41391(14)
H2 H 0.24830 0.25750 0.34920
C4 C 0.2971(3) 0.0152(2) 0.41694(14)
H3 H 0.34700 -0.01870 0.35340
N1 N 0.1595(2) 0.23660(16) 0.50366(11)
N2 N 0.2881(2) -0.10097(17) 0.50711(12)
N3 N 0.2147(3) -0.15748(19) 0.68990(13)
H4 H 0.25390 -0.26170 0.69120
H5 H 0.17150 -0.12400 0.74820
S1 S 0.47956(6) 0.38734(5) 0.80200(3)
H6 H 0.139(3) 0.475(3) 0.6795(17)
H7 H -0.086(3) 0.454(3) 0.7130(17)
H8 H -0.070(3) 0.678(3) 0.077(2)
H9 H 0.146(3) 0.671(3) 0.0912(19)
H10 H 0.383(3) 0.879(2) -0.0966(18)
H11 H 0.359(3) 1.060(2) -0.1302(19)
H12 H 0.202(4) 1.121(2) 0.121(2)
H13 H 0.240(3) 0.936(2) 0.1499(18)
H14 H 0.301(3) 0.687(2) 0.4813(17)
H15 H 0.392(3) 0.555(3) 0.4197(16)
H16 H 0.368(4) 0.362(3) 0.1295(17)
H17 H 0.369(4) 0.338(3) 0.0221(13)
O1A O -0.02180(19) 0.53819(16) 0.33927(9)
O2A O -0.0387(2) 1.26050(16) -0.05801(12)
O3A O -0.2863(2) 1.02740(17) 0.10465(12)
O4A O -0.1465(2) 0.97465(17) -0.12570(11)
O9A O -0.28691(18) 0.41081(15) 0.53437(10)
C1A C -0.1536(3) 0.8760(2) 0.40624(14)
H1A H -0.10370 0.84130 0.34290
C2A C -0.2207(3) 1.0470(2) 0.40311(14)
C3A C -0.2363(3) 0.8183(2) 0.58609(14)
H2A H -0.24830 0.74250 0.65080
C4A C -0.2971(3) 0.9848(2) 0.58306(14)
H3A H -0.34700 1.01870 0.64660
N1A N -0.1595(2) 0.76340(16) 0.49634(11)
N2A N -0.2881(2) 1.10097(17) 0.49289(12)
N3A N -0.2147(3) 1.15748(19) 0.31010(13)
H4A H -0.25390 1.26170 0.30880
H5A H -0.17150 1.12400 0.25180
H6A H -0.139(3) 0.525(3) 0.3205(17)
H7A H 0.086(3) 0.546(3) 0.2870(17)
H8A H 0.070(3) 1.322(3) -0.077(2)
H9A H -0.146(3) 1.329(3) -0.0912(19)
H10A H -0.383(3) 1.121(2) 0.0966(18)
H11A H -0.359(3) 0.940(2) 0.1302(19)
H12A H -0.202(4) 0.879(2) -0.121(2)
H13A H -0.240(3) 1.064(2) -0.1499(18)
H14A H -0.301(3) 0.313(2) 0.5187(17)
H15A H -0.392(3) 0.445(3) 0.5803(16)
#END
