
#######################################################################
#
#                 Cambridge Crystallographic Data Centre
#                                CCDC
#
#######################################################################
#
# If this CIF has been generated from an entry in the Cambridge
# Structural Database, then it will include bibliographic, chemical,
# crystal, experimental, refinement or atomic coordinate data resulting
# from the CCDC's data processing and validation procedures.
#
#######################################################################

data_CSD_CIF_WAKNOL
_audit_creation_date 1993-12-13
_audit_creation_method CSD-ConQuest-V1
_database_code_CSD WAKNOL
_chemical_formula_sum 'C18 H26 Cr1 O1'
_chemical_formula_moiety
;
C18 H26 Cr1 O1
;
_journal_coden_Cambridge 155
_journal_volume 203
_journal_year 1993
_journal_page_first 179
_journal_name_full 'Inorg.Chim.Acta '
loop_
_publ_author_name
"S.C.Bovino"
"G.W.Coates"
"J.P.Banovetz"
"R.M.Waymouth"
"D.A.Straus"
"J.W.Ziller"
_chemical_name_systematic
;
(\h^5^-Pentamethyl-cyclopentadienyl)-(\h^5^-2,4-dimethylpentadienyl)-carbonyl-
chromium
;
_cell_volume    781.670
_exptl_crystal_colour 'orange'
_exptl_crystal_density_diffrn 1.319
_diffrn_ambient_temperature 173
#These two values have been output from a single CSD field.
_refine_ls_R_factor_gt 0.042
_refine_ls_wR_factor_gt 0.042
_symmetry_cell_setting triclinic
_symmetry_space_group_name_H-M 'P -1'
_symmetry_Int_Tables_number 2
loop_
_symmetry_equiv_pos_site_id
_symmetry_equiv_pos_as_xyz
1 x,y,z
2 -x,-y,-z
_cell_length_a 8.2810(14)
_cell_length_b 8.8096(17)
_cell_length_c 12.0825(24)
_cell_angle_alpha 97.147(15)
_cell_angle_beta 91.712(15)
_cell_angle_gamma 116.128(14)
_cell_formula_units_Z 2
loop_
_atom_type_symbol
_atom_type_radius_bond
C 0.68
H 0.23
Cr 1.35
O 0.68
loop_
_atom_site_label
_atom_site_type_symbol
_atom_site_fract_x
_atom_site_fract_y
_atom_site_fract_z
Cr1 Cr 1.08372(5) 0.30908(4) 0.26088(3)
O1 O 1.3083(3) 0.1378(3) 0.1816(2)
C1 C 0.9001(3) 0.3141(3) 0.1219(2)
C2 C 0.9278(3) 0.4516(3) 0.2082(2)
C3 C 1.1152(3) 0.5642(3) 0.2246(2)
C4 C 1.2044(3) 0.4963(3) 0.1492(2)
C5 C 1.0696(3) 0.3424(3) 0.0841(2)
C6 C 0.7234(4) 0.1734(4) 0.0668(2)
C7 C 0.7847(4) 0.4858(4) 0.2642(2)
C8 C 1.1985(4) 0.7370(3) 0.2950(2)
C9 C 1.4023(4) 0.5812(4) 0.1328(3)
C10 C 1.0991(5) 0.2441(4) -0.0170(2)
C11 C 0.9134(3) 0.0334(3) 0.2705(2)
C12 C 0.8619(3) 0.1350(3) 0.3481(2)
C13 C 0.9944(3) 0.2709(3) 0.4217(2)
C14 C 1.1811(3) 0.3009(3) 0.4222(2)
C15 C 1.2948(4) 0.4648(3) 0.3983(2)
C16 C 1.2491(4) 0.1791(4) 0.4567(2)
C17 C 0.6687(4) 0.1049(4) 0.3475(3)
C18 C 1.2225(3) 0.2044(3) 0.2144(2)
H1 H 0.7179(55) 0.0625(55) 0.0660(35)
H2 H 0.7135(43) 0.1902(41) -0.0094(30)
H3 H 0.6142(53) 0.1751(47) 0.1023(32)
H4 H 0.8075(42) 0.5008(40) 0.3405(28)
H5 H 0.6615(51) 0.3899(47) 0.2392(30)
H6 H 0.7824(49) 0.5761(48) 0.2420(32)
H7 H 1.1958(46) 0.8169(44) 0.2492(30)
H8 H 1.1404(42) 0.7442(38) 0.3554(27)
H9 H 1.3207(48) 0.7682(43) 0.3217(29)
H10 H 1.4492(49) 0.5018(46) 0.1128(31)
H11 H 1.4736(51) 0.6471(48) 0.1954(35)
H12 H 1.4189(48) 0.6447(46) 0.0785(32)
H13 H 1.2076(50) 0.2393(44) -0.0122(29)
H14 H 1.0120(41) 0.1256(39) -0.0290(24)
H15 H 1.0782(49) 0.2868(47) -0.0790(32)
H16 H 0.8217(38) -0.0422(35) 0.2079(24)
H17 H 0.9865(35) -0.0116(32) 0.2937(22)
H18 H 0.9679(35) 0.3538(34) 0.4543(22)
H19 H 1.2920(43) 0.5626(41) 0.4296(27)
H20 H 1.4175(45) 0.4999(39) 0.3921(26)
H21 H 0.6071(41) 0.0673(37) 0.2764(27)
H22 H 0.6546(44) 0.2014(45) 0.3749(28)
H23 H 0.6048(42) 0.0187(39) 0.3930(26)
H24 H 1.1673(42) 0.0680(41) 0.4467(26)
H25 H 1.3517(47) 0.1879(41) 0.4222(28)
H26 H 1.2873(44) 0.2093(40) 0.5372(29)
#END
