
#######################################################################
#
#                 Cambridge Crystallographic Data Centre
#                                CCDC
#
#######################################################################
#
# If this CIF has been generated from an entry in the Cambridge
# Structural Database, then it will include bibliographic, chemical,
# crystal, experimental, refinement or atomic coordinate data resulting
# from the CCDC's data processing and validation procedures.
#
#######################################################################

data_CSD_CIF_WALYEP
_audit_creation_date 2011-03-25
_audit_creation_method CSD-ConQuest-V1
_database_code_CSD WALYEP
_database_code_depnum_ccdc_archive 'CCDC 766533'
_chemical_formula_sum 'C9 H9 Cr1 N1 O7'
_chemical_formula_moiety
;
C9 H9 Cr1 N1 O7
;
_journal_coden_Cambridge 9
_journal_volume 49
_journal_year 2010
_journal_page_first 8941
_journal_name_full 'Inorg.Chem. '
loop_
_publ_author_name
"Wei-Qiang Zhang"
"A.C.Whitwood"
"I.J.S.Fairlamb"
"J.M.Lynam"
_chemical_name_systematic
;
pentacarbonyl-(ethyl glycinate)-chromium
;
_cell_volume   1219.294
_exptl_crystal_colour 'yellow'
_exptl_crystal_density_diffrn 1.608
_exptl_crystal_description 'block'
_diffrn_ambient_temperature 110
#These two values have been output from a single CSD field.
_refine_ls_R_factor_gt 0.0193
_refine_ls_wR_factor_gt 0.0193
_symmetry_cell_setting monoclinic
_symmetry_space_group_name_H-M 'C c'
_symmetry_Int_Tables_number 9
loop_
_symmetry_equiv_pos_site_id
_symmetry_equiv_pos_as_xyz
1 x,y,z
2 x,-y,1/2+z
3 1/2+x,1/2+y,z
4 1/2+x,1/2-y,1/2+z
_cell_length_a 12.8978(12)
_cell_length_b 15.4219(14)
_cell_length_c 6.8108(6)
_cell_angle_alpha 90
_cell_angle_beta 115.838(2)
_cell_angle_gamma 90
_cell_formula_units_Z 4
loop_
_atom_type_symbol
_atom_type_radius_bond
C 0.68
H 0.23
Cr 1.39
N 0.68
O 0.68
loop_
_atom_site_label
_atom_site_type_symbol
_atom_site_fract_x
_atom_site_fract_y
_atom_site_fract_z
C1 C -0.05416(11) 0.22922(8) 0.6894(2)
C2 C 0.14338(11) 0.27047(8) 0.7095(2)
C3 C 0.12477(11) 0.14085(9) 0.9638(2)
C4 C -0.03399(12) 0.06424(9) 0.6201(2)
C5 C -0.01641(11) 0.18267(9) 0.3504(2)
C6 C 0.30066(10) 0.13146(8) 0.6600(2)
H1 H 0.34050 0.14830 0.81560
H2 H 0.28400 0.18510 0.57150
C7 C 0.37952(10) 0.07442(8) 0.60503(19)
C8 C 0.56463(11) 0.06536(10) 0.6141(2)
H3 H 0.53540 0.07000 0.45390
H4 H 0.57290 0.00320 0.65420
C9 C 0.67810(13) 0.11035(13) 0.7258(3)
H5 H 0.66910 0.17160 0.68330
H6 H 0.73390 0.08310 0.68320
H7 H 0.70580 0.10580 0.88420
Cr1 Cr 0.059161(15) 0.164103(11) 0.660493(18)
N1 N 0.19157(9) 0.08855(7) 0.61967(18)
H8 H 0.1613(15) 0.0687(12) 0.488(3)
H9 H 0.2096(15) 0.0447(13) 0.703(3)
O1 O -0.12347(9) 0.27106(7) 0.70659(17)
O2 O 0.18705(11) 0.33693(6) 0.74389(19)
O3 O 0.15623(9) 0.12616(7) 1.14533(16)
O4 O -0.09352(10) 0.00653(8) 0.6012(2)
O5 O -0.06658(9) 0.19264(7) 0.16720(16)
O6 O 0.34945(8) 0.00848(6) 0.49844(16)
O7 O 0.48540(8) 0.10710(6) 0.68410(16)
#END
