
#######################################################################
#
#                 Cambridge Crystallographic Data Centre
#                                CCDC
#
#######################################################################
#
# If this CIF has been generated from an entry in the Cambridge
# Structural Database, then it will include bibliographic, chemical,
# crystal, experimental, refinement or atomic coordinate data resulting
# from the CCDC's data processing and validation procedures.
#
#######################################################################

data_CSD_CIF_WANZAN
_audit_creation_date 2005-09-01
_audit_creation_method CSD-ConQuest-V1
_database_code_CSD WANZAN
_database_code_depnum_ccdc_archive 'CCDC 241633'
_chemical_formula_sum 'C20 H27 Fe1 N1 O1'
_chemical_formula_moiety
;
C20 H27 Fe1 N1 O1
;
_journal_coden_Cambridge 1291
_journal_year 2005
_journal_page_first 1909
_journal_name_full 'Eur.J.Org.Chem. '
loop_
_publ_author_name
"P.Liptau"
"L.Tebben"
"G.Kehr"
"R.Frohlich"
"G.Erker"
"F.Hollmann"
"B.Rieger"
_chemical_name_systematic
;
(S,S,S)-1,1'-(1-(2-Methoxymethylpyrrolidinyl)butan-1,3-diyl)ferrocene
;
_cell_volume    846.209
_exptl_crystal_colour 'yellow'
_exptl_crystal_density_diffrn 1.386
_exptl_crystal_description 'plate'
_exptl_crystal_preparation 'ether'
_diffrn_ambient_temperature 198
#These two values have been output from a single CSD field.
_refine_ls_R_factor_gt 0.0315
_refine_ls_wR_factor_gt 0.0315
_symmetry_cell_setting monoclinic
_symmetry_space_group_name_H-M 'P 21'
_symmetry_Int_Tables_number 4
loop_
_symmetry_equiv_pos_site_id
_symmetry_equiv_pos_as_xyz
1 x,y,z
2 -x,1/2+y,-z
_cell_length_a 8.936(1)
_cell_length_b 9.802(1)
_cell_length_c 9.977(1)
_cell_angle_alpha 90
_cell_angle_beta 104.46(1)
_cell_angle_gamma 90
_cell_formula_units_Z 2
loop_
_atom_type_symbol
_atom_type_radius_bond
C 0.68
H 0.23
Fe 1.34
N 0.68
O 0.68
loop_
_atom_site_label
_atom_site_type_symbol
_atom_site_fract_x
_atom_site_fract_y
_atom_site_fract_z
Fe1 Fe 0.76888(3) 0.67880(3) 0.57943(3)
C1 C 0.5855(3) 0.5607(2) 0.4906(2)
C2 C 0.5447(3) 0.6516(3) 0.5879(3)
H1 H 0.46390 0.71720 0.56770
C3 C 0.6467(3) 0.6268(3) 0.7206(3)
H2 H 0.64650 0.67440 0.80350
C4 C 0.7473(3) 0.5203(3) 0.7078(3)
H3 H 0.82620 0.48280 0.78050
C5 C 0.7099(3) 0.4781(3) 0.5661(3)
H4 H 0.75940 0.40720 0.52850
C6 C 0.5162(3) 0.5549(2) 0.3357(3)
H5 H 0.48280 0.45840 0.31360
C7 C 0.3711(3) 0.6429(3) 0.2901(3)
H6 H 0.29280 0.61140 0.33640
H7 H 0.33050 0.63560 0.18960
H8 H 0.39710 0.73830 0.31500
C8 C 0.6362(3) 0.5873(3) 0.2524(3)
H9 H 0.72500 0.52440 0.28290
H10 H 0.58890 0.56850 0.15340
C9 C 0.6975(3) 0.7349(2) 0.2661(2)
H11 H 0.60540 0.79490 0.25940
C10 C 0.8065(3) 0.7639(2) 0.4069(2)
C11 C 0.7827(3) 0.8683(2) 0.4991(2)
H12 H 0.70370 0.93560 0.47890
C12 C 0.8969(3) 0.8548(3) 0.6265(3)
H13 H 0.90650 0.91060 0.70610
C13 C 0.9939(3) 0.7438(3) 0.6139(3)
H14 H 1.08000 0.71220 0.68350
C14 C 0.9395(2) 0.6877(4) 0.4787(2)
H15 H 0.98390 0.61260 0.44230
N1 N 0.7584(2) 0.76834(19) 0.14520(19)
C15 C 0.8859(3) 0.6815(4) 0.1245(2)
H16 H 0.84650 0.59200 0.08510
H17 H 0.96390 0.66660 0.21300
C16 C 0.9555(3) 0.7624(3) 0.0224(3)
H18 H 1.06890 0.77060 0.05750
H19 H 0.93230 0.71720 -0.06920
C17 C 0.8786(3) 0.9023(3) 0.0124(3)
H20 H 0.95510 0.97590 0.01470
H21 H 0.79560 0.91050 -0.07400
C18 C 0.8124(3) 0.9092(2) 0.1391(2)
H22 H 0.89700 0.92930 0.22340
C19 C 0.6842(3) 1.0134(2) 0.1257(3)
H23 H 0.59240 0.98530 0.05280
H24 H 0.65400 1.02200 0.21430
O1 O 0.74220(19) 1.13922(15) 0.09021(18)
C20 C 0.6424(3) 1.2505(3) 0.0912(3)
H25 H 0.54090 1.23120 0.02920
H26 H 0.68560 1.33280 0.05960
H27 H 0.63130 1.26490 0.18540
#END
