
#######################################################################
#
#                 Cambridge Crystallographic Data Centre
#                                CCDC
#
#######################################################################
#
# If this CIF has been generated from an entry in the Cambridge
# Structural Database, then it will include bibliographic, chemical,
# crystal, experimental, refinement or atomic coordinate data resulting
# from the CCDC's data processing and validation procedures.
#
#######################################################################

data_CSD_CIF_WEBREA
_audit_creation_date 1994-06-13
_audit_creation_method CSD-ConQuest-V1
_database_code_CSD WEBREA
_chemical_formula_sum 'C13 H13 Mn1 O7'
_chemical_formula_moiety
;
C13 H13 Mn1 O7
;
_journal_coden_Cambridge 579
_journal_volume 12
_journal_year 1993
_journal_page_first 3431
_journal_name_full 'Organometallics '
loop_
_publ_author_name
"R.D.Adams"
"Gong Chen"
"Linfeng Chen"
"Wengan Wu"
"Jianguo Yin"
_chemical_name_systematic
;
(\s^2^-1,5-Diethoxy-3-oxo-penta-1,4-dienyl-O)-tetracarbonyl-manganese
;
_cell_volume    774.383
_exptl_crystal_colour 'yellow'
_exptl_crystal_density_diffrn 1.44
_diffrn_ambient_temperature ?
_diffrn_special_details
;
The study was carried out at room temperature,in the range 283-303K

;
#These two values have been output from a single CSD field.
_refine_ls_R_factor_gt 0.032
_refine_ls_wR_factor_gt 0.032
_symmetry_cell_setting triclinic
_symmetry_space_group_name_H-M 'P -1'
_symmetry_Int_Tables_number 2
loop_
_symmetry_equiv_pos_site_id
_symmetry_equiv_pos_as_xyz
1 x,y,z
2 -x,-y,-z
_cell_length_a 9.207(1)
_cell_length_b 10.428(2)
_cell_length_c 8.911(1)
_cell_angle_alpha 105.89(1)
_cell_angle_beta 93.40(1)
_cell_angle_gamma 70.34(1)
_cell_formula_units_Z 2
loop_
_atom_type_symbol
_atom_type_radius_bond
C 0.68
H 0.23
Mn 1.35
O 0.68
loop_
_atom_site_label
_atom_site_type_symbol
_atom_site_fract_x
_atom_site_fract_y
_atom_site_fract_z
Mn1 Mn 0.80380(5) 0.40150(4) 0.58808(5)
O1 O 0.9993(2) 0.28009(20) 0.4534(2)
O2 O 0.8326(2) 0.26236(20) 0.8378(2)
O3 O 1.3911(3) 0.0140(2) 0.1932(2)
O4 O 0.7070(3) 0.6059(2) 0.3929(3)
O5 O 0.5318(3) 0.5436(3) 0.8014(3)
O6 O 0.9641(3) 0.5655(3) 0.8245(3)
O7 O 0.6353(3) 0.2133(3) 0.4079(3)
C1 C 0.8982(3) 0.2555(3) 0.7041(3)
C2 C 1.0343(3) 0.1564(3) 0.6401(3)
C3 C 1.0817(3) 0.1750(3) 0.5019(3)
C4 C 1.2214(3) 0.0761(3) 0.4145(3)
C5 C 1.2685(4) 0.0949(4) 0.2881(4)
C6 C 0.9146(4) 0.1676(4) 0.9299(4)
C7 C 0.8203(5) 0.2074(5) 1.0758(4)
C8 C 1.4900(4) -0.1127(4) 0.2298(4)
C9 C 1.6168(5) -0.1828(5) 0.1082(5)
C10 C 0.7462(4) 0.5272(3) 0.4647(4)
C11 C 0.6375(4) 0.4902(3) 0.7172(4)
C12 C 0.9082(4) 0.5041(3) 0.7288(4)
C13 C 0.7006(3) 0.2850(3) 0.4723(3)
H1 H 1.019(4) 0.174(3) 0.951(3)
H2 H 0.933(3) 0.067(3) 0.866(3)
H3 H 0.796(3) 0.304(3) 1.123(4)
H4 H 0.864(4) 0.151(3) 1.137(4)
H5 H 0.731(4) 0.185(3) 1.057(4)
H6 H 1.525(3) -0.084(3) 0.330(4)
H7 H 1.428(4) -0.173(3) 0.231(3)
H8 H 1.578(3) -0.204(3) 0.008(3)
H9 H 1.674(4) -0.121(3) 0.120(4)
H10 H 1.689(4) -0.271(3) 0.130(3)
H11 H 1.090(3) 0.084(3) 0.678(3)
H12 H 1.278(3) 0.001(3) 0.454(3)
H13 H 1.219(3) 0.175(3) 0.255(3)
#END
