
#######################################################################
#
#                 Cambridge Crystallographic Data Centre
#                                CCDC
#
#######################################################################
#
# If this CIF has been generated from an entry in the Cambridge
# Structural Database, then it will include bibliographic, chemical,
# crystal, experimental, refinement or atomic coordinate data resulting
# from the CCDC's data processing and validation procedures.
#
#######################################################################

data_CSD_CIF_WECNIB
_audit_creation_date 1994-06-12
_audit_creation_method CSD-ConQuest-V1
_database_code_CSD WECNIB
_database_code_depnum_ccdc_archive 'CCDC 1291131'
_database_code_depnum_ccdc_fiz 'CSD 57666'
_chemical_formula_sum 'C13 H13 Cr1 N1 O6'
_chemical_formula_moiety
;
C13 H13 Cr1 N1 O6
;
_journal_coden_Cambridge 48
_journal_volume 126
_journal_year 1993
_journal_page_first 2535
_journal_name_full 'Chem.Ber. '
loop_
_publ_author_name
"M.Deutsch"
"F.Stein"
"F.Funke"
"E.Pohl"
"R.Herbst-Irmer"
"A.de Meijere"
_chemical_name_systematic
;
((1E,3Z)-2-Cyclopropyl-4-ethoxy-1-azabuta-1,3-diene-N)-pentacarbonyl-chromium
;
_chemical_melting_point 343.15
_cell_volume    760.391
_exptl_crystal_colour 'yellow'
_exptl_crystal_density_diffrn 1.447
_exptl_special_details
;
Melting point range 343.15-346.15K

;
_diffrn_ambient_temperature ?
_diffrn_special_details
;
The study was carried out at room temperature,in the range 283-303K

;
#These two values have been output from a single CSD field.
_refine_ls_R_factor_gt 0.0243
_refine_ls_wR_factor_gt 0.0243
_symmetry_cell_setting triclinic
_symmetry_space_group_name_H-M 'P -1'
_symmetry_Int_Tables_number 2
loop_
_symmetry_equiv_pos_site_id
_symmetry_equiv_pos_as_xyz
1 x,y,z
2 -x,-y,-z
_cell_length_a 8.484(1)
_cell_length_b 9.844(1)
_cell_length_c 10.648(2)
_cell_angle_alpha 117.50(1)
_cell_angle_beta 101.25(1)
_cell_angle_gamma 94.03(1)
_cell_formula_units_Z 2
loop_
_atom_type_symbol
_atom_type_radius_bond
C 0.68
H 0.23
Cr 1.35
N 0.68
O 0.68
loop_
_atom_site_label
_atom_site_type_symbol
_atom_site_fract_x
_atom_site_fract_y
_atom_site_fract_z
Cr1 Cr 0.2564(1) 0.7882(1) 0.0466(1)
C1 C 0.3566(2) 0.9989(2) 0.1201(2)
O1 O 0.4145(2) 1.1231(2) 0.1565(2)
C2 C 0.1535(2) 0.5757(2) -0.0480(2)
O2 O 0.0913(2) 0.4480(1) -0.1181(1)
C3 C 0.2248(2) 0.7643(2) -0.1390(2)
O3 O 0.2049(2) 0.7469(2) -0.2560(1)
C4 C 0.4619(2) 0.7253(2) 0.0381(2)
O4 O 0.5846(2) 0.6862(2) 0.0293(2)
C5 C 0.0491(2) 0.8502(2) 0.0601(2)
O5 O -0.0739(2) 0.8880(2) 0.0668(2)
N1 N 0.2884(2) 0.8317(2) 0.2643(2)
C6 C 0.3105(2) 0.7606(2) 0.3405(2)
C7 C 0.3118(2) 0.8357(2) 0.4952(2)
C8 C 0.2740(2) 0.9737(2) 0.5723(2)
O6 O 0.2315(2) 1.0661(1) 0.5147(1)
C9 C 0.1849(3) 1.2095(2) 0.6094(2)
C10 C 0.1313(3) 1.2866(2) 0.5205(2)
C11 C 0.3327(2) 0.5977(2) 0.2684(2)
C12 C 0.2569(3) 0.4816(2) 0.3050(2)
C13 C 0.4356(2) 0.5318(2) 0.3514(2)
H1 H 0.2773(23) 0.9183(24) 0.3129(21)
H2 H 0.3418(6) 0.7815(10) 0.5444(9)
H3 H 0.2771(2) 1.0078(6) 0.6695(17)
H4 H 0.2764(14) 1.2762(10) 0.6913(13)
H5 H 0.0969(13) 1.1879(4) 0.6466(6)
H6 H 0.1061(17) 1.3848(15) 0.5814(8)
H7 H 0.0369(16) 1.2226(11) 0.4438(13)
H8 H 0.2168(12) 1.3015(15) 0.4796(14)
H9 H 0.3355(2) 0.5582(5) 0.1725(12)
H10 H 0.2007(7) 0.5174(4) 0.3759(8)
H11 H 0.2148(5) 0.3823(11) 0.2298(9)
H12 H 0.4969(7) 0.4616(8) 0.3032(5)
H13 H 0.4829(6) 0.5965(7) 0.4492(11)
#END
