
#######################################################################
#
#                 Cambridge Crystallographic Data Centre
#                                CCDC
#
#######################################################################
#
# If this CIF has been generated from an entry in the Cambridge
# Structural Database, then it will include bibliographic, chemical,
# crystal, experimental, refinement or atomic coordinate data resulting
# from the CCDC's data processing and validation procedures.
#
#######################################################################

data_CSD_CIF_WEKNUY
_audit_creation_date 2017-12-22
_audit_creation_method CSD-ConQuest-V1
_database_code_CSD WEKNUY
_database_code_depnum_ccdc_archive 'CCDC 1582546'
_chemical_formula_sum 'C18 H20 Br2 Co1 N4 O4'
_chemical_formula_moiety
;
C18 H20 Br2 Co1 N4 O4
;
_journal_coden_Cambridge 1350
_journal_volume 20
_journal_year 2018
_journal_page_first 539
_journal_name_full 'CrystEngComm '
loop_
_publ_author_name
"M.Borovina"
"I.Kodrin"
"M.akovic"
_chemical_name_systematic
;
bis(2-bromopyrazine)-bis(acetylacetonato)-cobalt(ii)
;
_cell_volume    548.087
_exptl_crystal_colour 'dark orange'
_exptl_crystal_density_diffrn 1.742
_exptl_crystal_description 'block'
_diffrn_ambient_temperature 296.1
#These two values have been output from a single CSD field.
_refine_ls_R_factor_gt 0.0354
_refine_ls_wR_factor_gt 0.0354
_symmetry_cell_setting triclinic
_symmetry_space_group_name_H-M 'P -1'
_symmetry_Int_Tables_number 2
loop_
_symmetry_equiv_pos_site_id
_symmetry_equiv_pos_as_xyz
1 x,y,z
2 -x,-y,-z
_cell_length_a 6.3290(5)
_cell_length_b 8.9473(6)
_cell_length_c 10.2742(7)
_cell_angle_alpha 100.396(6)
_cell_angle_beta 101.149(7)
_cell_angle_gamma 100.044(6)
_cell_formula_units_Z 1
loop_
_atom_type_symbol
_atom_type_radius_bond
C 0.68
H 0.23
Br 1.21
Co 1.26
N 0.68
O 0.68
loop_
_atom_site_label
_atom_site_type_symbol
_atom_site_fract_x
_atom_site_fract_y
_atom_site_fract_z
Co1 Co 0.50000 0.50000 0.50000
Br1 Br 0.50568(7) 0.21222(4) 0.97161(4)
O1 O 0.6687(3) 0.3299(2) 0.5134(2)
O2 O 0.2561(3) 0.3494(2) 0.3528(2)
N1 N 0.3431(4) 0.4374(3) 0.6666(2)
N2 N 0.1848(4) 0.3702(3) 0.8890(3)
C1 C 0.4407(5) 0.3572(3) 0.7488(3)
H1 H 0.56530 0.32260 0.73230
C2 C 0.6257(5) 0.2000(3) 0.4309(3)
C3 C 0.1658(5) 0.4831(4) 0.6957(3)
H2 H 0.09260 0.53890 0.64060
C4 C 0.3589(5) 0.3254(3) 0.8573(3)
C5 C 0.2690(5) 0.2174(3) 0.2909(3)
C6 C 0.4430(6) 0.1446(3) 0.3226(3)
H3 H 0.43630 0.04960 0.26580
C7 C 0.7928(6) 0.1002(4) 0.4575(4)
H4 H 0.93770 0.15900 0.46330
H5 H 0.75800 0.00970 0.38450
H6 H 0.78840 0.06860 0.54160
C8 C 0.0879(5) 0.4497(4) 0.8056(4)
H7 H -0.03680 0.48380 0.82250
C9 C 0.0762(6) 0.1350(5) 0.1737(4)
H8 H -0.05920 0.14460 0.20000
H9 H 0.08010 0.02690 0.14950
H10 H 0.08510 0.18120 0.09700
Br1A Br 0.49432(7) 0.78778(4) 0.02839(4)
O1A O 0.3313(3) 0.6701(2) 0.4866(2)
O2A O 0.7439(3) 0.6506(2) 0.6472(2)
N1A N 0.6569(4) 0.5626(3) 0.3334(2)
N2A N 0.8152(4) 0.6298(3) 0.1110(3)
C1A C 0.5593(5) 0.6428(3) 0.2512(3)
H1A H 0.43470 0.67740 0.26770
C2A C 0.3743(5) 0.8000(3) 0.5691(3)
C3A C 0.8342(5) 0.5169(4) 0.3043(3)
H2A H 0.90740 0.46110 0.35940
C4A C 0.6411(5) 0.6746(3) 0.1427(3)
C5A C 0.7310(5) 0.7826(3) 0.7091(3)
C6A C 0.5570(6) 0.8554(3) 0.6774(3)
H3A H 0.56370 0.95040 0.73420
C7A C 0.2072(6) 0.8998(4) 0.5425(4)
H4A H 0.06230 0.84100 0.53670
H5A H 0.24200 0.99030 0.61550
H6A H 0.21160 0.93140 0.45840
C8A C 0.9121(5) 0.5503(4) 0.1944(4)
H7A H 1.03680 0.51620 0.17750
C9A C 0.9238(6) 0.8650(5) 0.8263(4)
H8A H 1.05920 0.85540 0.80000
H9A H 0.91990 0.97310 0.85050
H10A H 0.91490 0.81880 0.90300
#END
