
#######################################################################
#
#                 Cambridge Crystallographic Data Centre
#                                CCDC
#
#######################################################################
#
# If this CIF has been generated from an entry in the Cambridge
# Structural Database, then it will include bibliographic, chemical,
# crystal, experimental, refinement or atomic coordinate data resulting
# from the CCDC's data processing and validation procedures.
#
#######################################################################

data_CSD_CIF_WEKPEK
_audit_creation_date 2017-12-22
_audit_creation_method CSD-ConQuest-V1
_database_code_CSD WEKPEK
_database_code_depnum_ccdc_archive 'CCDC 1582548'
_chemical_formula_sum 'C18 H20 Cl2 Co1 N4 O4'
_chemical_formula_moiety
;
C18 H20 Cl2 Co1 N4 O4
;
_journal_coden_Cambridge 1350
_journal_volume 20
_journal_year 2018
_journal_page_first 539
_journal_name_full 'CrystEngComm '
loop_
_publ_author_name
"M.Borovina"
"I.Kodrin"
"M.akovic"
_chemical_name_systematic
;
bis(2-chloropyrazine)-bis(acetylacetonato)-cobalt(ii)
;
_cell_volume    536.875
_exptl_crystal_colour 'orange'
_exptl_crystal_density_diffrn 1.504
_exptl_crystal_description 'block'
_diffrn_ambient_temperature 296.1
#These two values have been output from a single CSD field.
_refine_ls_R_factor_gt 0.0364
_refine_ls_wR_factor_gt 0.0364
_symmetry_cell_setting triclinic
_symmetry_space_group_name_H-M 'P -1'
_symmetry_Int_Tables_number 2
loop_
_symmetry_equiv_pos_site_id
_symmetry_equiv_pos_as_xyz
1 x,y,z
2 -x,-y,-z
_cell_length_a 6.3162(4)
_cell_length_b 8.8584(8)
_cell_length_c 10.1891(5)
_cell_angle_alpha 99.706(6)
_cell_angle_beta 101.645(5)
_cell_angle_gamma 100.278(7)
_cell_formula_units_Z 1
loop_
_atom_type_symbol
_atom_type_radius_bond
C 0.68
H 0.23
Cl 0.99
Co 1.26
N 0.68
O 0.68
loop_
_atom_site_label
_atom_site_type_symbol
_atom_site_fract_x
_atom_site_fract_y
_atom_site_fract_z
Co1 Co 0.50000 0.50000 0.50000
Cl1 Cl 0.49869(13) 0.21582(9) 0.96726(7)
O1 O 0.3321(2) 0.67167(17) 0.48575(14)
O2 O 0.7464(2) 0.65105(17) 0.64800(13)
N1 N 0.3459(2) 0.4357(2) 0.66890(15)
N2 N 0.1922(3) 0.3699(3) 0.8954(2)
C1 C 0.4445(3) 0.3549(3) 0.7520(2)
H1 H 0.56860 0.31970 0.73510
C2 C 0.3734(4) 0.8019(2) 0.5704(2)
C3 C 0.7326(3) 0.7828(3) 0.71213(19)
C4 C 0.3653(4) 0.3228(3) 0.8625(2)
C5 C 0.1695(3) 0.4828(3) 0.6985(2)
H2 H 0.09440 0.53820 0.64210
C6 C 0.5562(4) 0.8549(3) 0.6808(2)
H3 H 0.56120 0.94840 0.74000
C7 C 0.2052(5) 0.9008(3) 0.5434(3)
H4 H 0.19990 0.92670 0.45520
H5 H 0.24660 0.99560 0.61300
H6 H 0.06200 0.84330 0.54480
C8 C 0.0958(4) 0.4508(3) 0.8113(3)
H7 H -0.02660 0.48740 0.82950
C9 C 0.9272(4) 0.8640(4) 0.8310(2)
H8 H 0.91970 0.81460 0.90730
H9 H 0.92280 0.97250 0.85700
H10 H 1.06280 0.85660 0.80410
Cl1A Cl 0.50131(13) 0.78418(9) 0.03274(7)
O1A O 0.6679(2) 0.32833(17) 0.51425(14)
O2A O 0.2536(2) 0.34895(17) 0.35200(13)
N1A N 0.6541(2) 0.5643(2) 0.33110(15)
N2A N 0.8078(3) 0.6301(3) 0.1046(2)
C1A C 0.5555(3) 0.6451(3) 0.2480(2)
H1A H 0.43140 0.68030 0.26490
C2A C 0.6266(4) 0.1981(2) 0.4296(2)
C3A C 0.2674(3) 0.2172(3) 0.28787(19)
C4A C 0.6347(4) 0.6772(3) 0.1375(2)
C5A C 0.8305(3) 0.5172(3) 0.3015(2)
H2A H 0.90560 0.46180 0.35790
C6A C 0.4438(4) 0.1451(3) 0.3192(2)
H3A H 0.43880 0.05160 0.26000
C7A C 0.7948(5) 0.0992(3) 0.4566(3)
H4A H 0.80010 0.07330 0.54480
H5A H 0.75340 0.00440 0.38700
H6A H 0.93800 0.15670 0.45520
C8A C 0.9042(4) 0.5492(3) 0.1887(3)
H7A H 1.02660 0.51260 0.17050
C9A C 0.0728(4) 0.1360(4) 0.1690(2)
H8A H 0.08030 0.18540 0.09270
H9A H 0.07720 0.02750 0.14300
H10A H -0.06280 0.14340 0.19590
#END
