
#######################################################################
#
#                 Cambridge Crystallographic Data Centre
#                                CCDC
#
#######################################################################
#
# If this CIF has been generated from an entry in the Cambridge
# Structural Database, then it will include bibliographic, chemical,
# crystal, experimental, refinement or atomic coordinate data resulting
# from the CCDC's data processing and validation procedures.
#
#######################################################################

data_CSD_CIF_WEKPOU
_audit_creation_date 2017-12-22
_audit_creation_method CSD-ConQuest-V1
_database_code_CSD WEKPOU
_database_code_depnum_ccdc_archive 'CCDC 1582550'
_chemical_formula_sum 'C20 H22 Br2 Co1 N2 O4'
_chemical_formula_moiety
;
C20 H22 Br2 Co1 N2 O4
;
_journal_coden_Cambridge 1350
_journal_volume 20
_journal_year 2018
_journal_page_first 539
_journal_name_full 'CrystEngComm '
loop_
_publ_author_name
"M.Borovina"
"I.Kodrin"
"M.akovic"
_chemical_name_systematic
;
bis(3-bromopyridine)-bis(acetylacetonato)-cobalt(ii)
;
_cell_volume    562.468
_exptl_crystal_colour 'dark orange'
_exptl_crystal_density_diffrn 1.692
_exptl_crystal_description 'block'
_diffrn_ambient_temperature 296.1
#These two values have been output from a single CSD field.
_refine_ls_R_factor_gt 0.0357
_refine_ls_wR_factor_gt 0.0357
_symmetry_cell_setting triclinic
_symmetry_space_group_name_H-M 'P -1'
_symmetry_Int_Tables_number 2
loop_
_symmetry_equiv_pos_site_id
_symmetry_equiv_pos_as_xyz
1 x,y,z
2 -x,-y,-z
_cell_length_a 6.4978(5)
_cell_length_b 8.8500(7)
_cell_length_c 10.3960(5)
_cell_angle_alpha 100.254(5)
_cell_angle_beta 101.706(5)
_cell_angle_gamma 99.895(7)
_cell_formula_units_Z 1
loop_
_atom_type_symbol
_atom_type_radius_bond
C 0.68
H 0.23
Br 1.21
Co 1.26
N 0.68
O 0.68
loop_
_atom_site_label
_atom_site_type_symbol
_atom_site_fract_x
_atom_site_fract_y
_atom_site_fract_z
Br1 Br 0.50726(7) 0.21192(5) 0.96900(4)
Co1 Co 0.50000 0.50000 0.50000
O1 O 0.6665(3) 0.3292(3) 0.5150(2)
O2 O 0.2605(3) 0.3445(3) 0.3544(2)
N1 N 0.3477(4) 0.4368(3) 0.6629(2)
C1 C 0.3623(6) 0.3220(4) 0.8527(3)
C2 C 0.4422(5) 0.3579(4) 0.7475(3)
H1 H 0.56700 0.32620 0.73420
C3 C 0.1691(5) 0.4794(4) 0.6837(3)
H2 H 0.10180 0.53440 0.62550
C4 C 0.0788(6) 0.4466(5) 0.7861(4)
H3 H -0.04710 0.47850 0.79650
C5 C 0.1760(6) 0.3663(4) 0.8732(4)
H4 H 0.11820 0.34240 0.94390
C6 C 0.7946(7) 0.0998(5) 0.4599(4)
H5 H 0.93460 0.16090 0.46560
H6 H 0.76150 0.00870 0.38750
H7 H 0.79310 0.06720 0.54310
C7 C 0.6278(5) 0.1985(4) 0.4340(3)
C8 C 0.4484(6) 0.1396(4) 0.3276(4)
H8 H 0.44280 0.04340 0.27220
C9 C 0.2751(5) 0.2115(4) 0.2959(3)
C10 C 0.0854(7) 0.1211(5) 0.1821(4)
H9 H 0.03080 0.02140 0.20060
H10 H 0.13080 0.10440 0.09930
H11 H -0.02560 0.18030 0.17420
Br1A Br 0.49274(7) 0.78808(5) 0.03100(4)
O1A O 0.3335(3) 0.6708(3) 0.4850(2)
O2A O 0.7395(3) 0.6555(3) 0.6456(2)
N1A N 0.6523(4) 0.5632(3) 0.3371(2)
C1A C 0.6377(6) 0.6780(4) 0.1473(3)
C2A C 0.5578(5) 0.6421(4) 0.2525(3)
H1A H 0.43300 0.67380 0.26580
C3A C 0.8309(5) 0.5206(4) 0.3163(3)
H2A H 0.89820 0.46560 0.37450
C4A C 0.9212(6) 0.5534(5) 0.2139(4)
H3A H 1.04710 0.52150 0.20350
C5A C 0.8240(6) 0.6337(4) 0.1268(4)
H4A H 0.88180 0.65760 0.05610
C6A C 0.2054(7) 0.9002(5) 0.5401(4)
H5A H 0.06540 0.83910 0.53440
H6A H 0.23850 0.99130 0.61250
H7A H 0.20690 0.93280 0.45690
C7A C 0.3722(5) 0.8015(4) 0.5660(3)
C8A C 0.5516(6) 0.8604(4) 0.6724(4)
H8A H 0.55720 0.95660 0.72780
C9A C 0.7249(5) 0.7885(4) 0.7041(3)
C10A C 0.9146(7) 0.8789(5) 0.8179(4)
H9A H 0.96920 0.97860 0.79940
H10A H 0.86920 0.89560 0.90070
H11A H 1.02560 0.81970 0.82580
#END
