
#######################################################################
#
#                 Cambridge Crystallographic Data Centre
#                                CCDC
#
#######################################################################
#
# If this CIF has been generated from an entry in the Cambridge
# Structural Database, then it will include bibliographic, chemical,
# crystal, experimental, refinement or atomic coordinate data resulting
# from the CCDC's data processing and validation procedures.
#
#######################################################################

data_CSD_CIF_WELLII
_audit_creation_date 1994-09-21
_audit_creation_method CSD-ConQuest-V1
_database_code_CSD WELLII
_chemical_formula_sum 'C16 H21 Mn1 N2 O2'
_chemical_formula_moiety
;
C16 H21 Mn1 N2 O2
;
_journal_coden_Cambridge 579
_journal_volume 13
_journal_year 1994
_journal_page_first 843
_journal_name_full 'Organometallics '
loop_
_publ_author_name
"M.R.Terry"
"L.A.Mercando"
"C.Kelley"
"G.L.Geoffroy"
"P.Nombel"
"N.Lugan"
"R.Mathieu"
"R.L.Ostrander"
"B.E.Owens-Waltermire"
"A.L.Rheingold"
_chemical_name_systematic
;
(3-(\h^5^-Cyclopentadienyl)-1-isopropylamino-2-isopropyl-2-azabut-3-enylidene)
-dicarbonyl-manganese
;
_cell_volume    829.669
_exptl_crystal_colour 'yellow'
_exptl_crystal_density_diffrn 1.314
_diffrn_ambient_temperature ?
_diffrn_special_details
;
The study was carried out at room temperature,in the range 283-303K

;
_refine_special_details
;
The structure is disordered with two different, equally- populated 
orientations of the CH2=C unit on either side of the mirror plane.
;
#These two values have been output from a single CSD field.
_refine_ls_R_factor_gt 0.04
_refine_ls_wR_factor_gt 0.04
_symmetry_cell_setting monoclinic
_symmetry_space_group_name_H-M 'P 21/m'
_symmetry_Int_Tables_number 11
loop_
_symmetry_equiv_pos_site_id
_symmetry_equiv_pos_as_xyz
1 x,y,z
2 -x,1/2+y,-z
3 -x,-y,-z
4 x,-1/2-y,z
_cell_length_a 8.539(2)
_cell_length_b 10.928(1)
_cell_length_c 9.562(1)
_cell_angle_alpha 90
_cell_angle_beta 111.59(1)
_cell_angle_gamma 90
_cell_formula_units_Z 2
loop_
_atom_type_symbol
_atom_type_radius_bond
C 0.68
H 0.23
Mn 1.35
N 0.68
O 0.68
loop_
_atom_site_label
_atom_site_type_symbol
_atom_site_fract_x
_atom_site_fract_y
_atom_site_fract_z
Mn1 Mn 0.72486(9) 0.75000 0.36951(8)
O1 O 0.8663(4) 0.5502(4) 0.2511(4)
N1 N 0.4594(5) 0.75000 0.0598(4)
N2 N 0.3607(4) 0.75000 0.2487(4)
C1 C 0.5723(7) 0.75000 0.4944(6)
C2 C 0.6759(5) 0.6469(5) 0.5347(4)
C3 C 0.8435(5) 0.6879(4) 0.5967(4)
C4 C 0.8090(5) 0.6317(5) 0.2946(4)
C5 C 0.5010(6) 0.75000 0.2084(5)
C6 C 0.3903(7) 0.720(1) 0.4023(7)
C7 C 0.278(1) 0.693(1) 0.4634(9)
C8 C 0.1828(5) 0.75000 0.1449(5)
C9 C 0.1269(5) 0.6353(5) 0.0554(5)
C10 C 0.5713(7) 0.75000 -0.0251(6)
C11 C 0.5465(7) 0.6372(5) -0.1176(5)
H1 H 0.63900 0.56200 0.52200
H2 H 0.94200 0.63600 0.63300
H3 H 0.12200 0.75000 0.21300
H4 H 0.16800 0.56500 0.12000
H5 H 0.17100 0.63300 -0.02500
H6 H 0.00500 0.63300 0.01200
H7 H 0.68700 0.75000 0.04600
H8 H 0.62200 0.64000 -0.17300
H9 H 0.43100 0.63200 -0.18800
H10 H 0.57200 0.56600 -0.05200
C2C C 0.6759(5) 0.8531(5) 0.5347(4)
C3C C 0.8435(5) 0.8121(4) 0.5967(4)
C4C C 0.8090(5) 0.8683(5) 0.2946(4)
O1C O 0.8663(4) 0.9498(4) 0.2511(4)
H1C H 0.63900 0.93800 0.52200
H2C H 0.94200 0.86400 0.63300
C11C C 0.5465(7) 0.8628(5) -0.1176(5)
H8C H 0.62200 0.86000 -0.17300
H9C H 0.43100 0.86800 -0.18800
H10C H 0.57200 0.93400 -0.05200
C6C C 0.3903(7) 0.780(1) 0.4023(7)
C7C C 0.278(1) 0.807(1) 0.4634(9)
C9C C 0.1269(5) 0.8647(5) 0.0554(5)
H4C H 0.16800 0.93500 0.12000
H5C H 0.17100 0.86700 -0.02500
H6C H 0.00500 0.86700 0.01200
#END
