
#######################################################################
#
#                 Cambridge Crystallographic Data Centre
#                                CCDC
#
#######################################################################
#
# If this CIF has been generated from an entry in the Cambridge
# Structural Database, then it will include bibliographic, chemical,
# crystal, experimental, refinement or atomic coordinate data resulting
# from the CCDC's data processing and validation procedures.
#
#######################################################################

data_CSD_CIF_WELNEH
_audit_creation_date 2006-11-14
_audit_creation_method CSD-ConQuest-V1
_database_code_CSD WELNEH
_database_code_depnum_ccdc_archive 'CCDC 284104'
_chemical_formula_sum 'C8 H12 Mn1 N6 O2'
_chemical_formula_moiety
;
(C8 H12 Mn1 N6 O2)n
;
_journal_coden_Cambridge 580
_journal_volume 25
_journal_year 2006
_journal_page_first 2236
_journal_name_full 'Polyhedron '
loop_
_publ_author_name
"G.A.van Albada"
"S.Tanase"
"A.Mohamadou"
"I.Mutikainen"
"U.Turpeinen"
"J.Reedijk"
_chemical_name_systematic
;
catena-(bis((\m~2~-Hydrogen dicyanamide)-(ethoxy))-manganese(ii))
;
_cell_volume    619.016
_exptl_crystal_colour 'white'
_exptl_crystal_density_diffrn 1.498
_exptl_special_details
;
air-sensitive

;
_exptl_crystal_description 'needle'
_diffrn_ambient_temperature 173
#These two values have been output from a single CSD field.
_refine_ls_R_factor_gt 0.0513
_refine_ls_wR_factor_gt 0.0513
_symmetry_cell_setting monoclinic
_symmetry_space_group_name_H-M 'C 2/m'
_symmetry_Int_Tables_number 12
loop_
_symmetry_equiv_pos_site_id
_symmetry_equiv_pos_as_xyz
1 x,y,z
2 1/2+x,1/2+y,z
3 -x,y,-z
4 1/2-x,1/2+y,-z
5 -x,-y,-z
6 -1/2-x,-1/2-y,-z
7 x,-y,z
8 -1/2+x,-1/2-y,z
_cell_length_a 12.500(3)
_cell_length_b 7.5059(15)
_cell_length_c 7.1511(14)
_cell_angle_alpha 90
_cell_angle_beta 112.69(3)
_cell_angle_gamma 90
_cell_formula_units_Z 2
loop_
_atom_type_symbol
_atom_type_radius_bond
C 0.68
H 0.23
Mn 1.35
N 0.68
O 0.68
loop_
_atom_site_label
_atom_site_type_symbol
_atom_site_fract_x
_atom_site_fract_y
_atom_site_fract_z
Mn1 Mn 0.50000 0.50000 0.50000
N1 N 0.4246(2) 0.7116(3) 0.6281(4)
C1 C 0.4009(2) 0.8497(4) 0.6710(4)
N2 N 0.3698(3) 1.00000 0.7266(6)
H1 H 0.32800 1.00000 0.80120
O1 O 0.6565(3) 0.50000 0.7853(4)
C2 C 0.6576(4) 0.50000 0.9862(7)
H2 H 0.61490 0.39360 1.00190
C3 C 0.7751(5) 0.50000 1.1529(7)
H3 H 0.76730 0.50000 1.28430
H4 H 0.81770 0.60660 1.14230
Mn1* Mn 0.50000 1.50000 0.50000
Mn1** Mn 0.50000 -0.50000 0.50000
N1F N 0.4246(2) 1.2884(3) 0.6281(4)
N1F* N 0.4246(2) 0.2884(3) 0.6281(4)
N1* N 0.4246(2) -0.2884(3) 0.6281(4)
N1D N 0.5754(2) 0.2884(3) 0.3719(4)
N1B N 0.5754(2) 0.7116(3) 0.3719(4)
C1F C 0.4009(2) 1.1503(4) 0.6710(4)
C1F* C 0.4009(2) 0.1503(4) 0.6710(4)
C1* C 0.4009(2) -0.1503(4) 0.6710(4)
N2* N 0.3698(3) 0.00000 0.7266(6)
H1* H 0.32800 0.00000 0.80120
O1D O 0.3435(3) 0.50000 0.2147(4)
C2D C 0.3424(4) 0.50000 0.0138(7)
H2F H 0.61490 0.60640 1.00190
H2D H 0.38510 0.60640 -0.00190
H2B H 0.38510 0.39360 -0.00190
C3D C 0.2249(5) 0.50000 -0.1529(7)
H3D H 0.23270 0.50000 -0.28430
H4F H 0.81770 0.39340 1.14230
H4D H 0.18230 0.39340 -0.14230
H4B H 0.18230 0.60660 -0.14230
#END
