
#######################################################################
#
#                 Cambridge Crystallographic Data Centre
#                                CCDC
#
#######################################################################
#
# If this CIF has been generated from an entry in the Cambridge
# Structural Database, then it will include bibliographic, chemical,
# crystal, experimental, refinement or atomic coordinate data resulting
# from the CCDC's data processing and validation procedures.
#
#######################################################################

data_CSD_CIF_WERHUZ
_audit_creation_date 2018-01-02
_audit_creation_method CSD-ConQuest-V1
_database_code_CSD WERHUZ
_database_code_depnum_ccdc_archive 'CCDC 1559506'
_chemical_formula_sum 'C14 H12 Br2 Mn1 N4 O1'
_chemical_formula_moiety
;
C14 H12 Br2 Mn1 N4 O1
;
_journal_coden_Cambridge 1078
_journal_year 2018
_journal_name_full 'CSD Communication(Private Communication) '
loop_
_publ_author_name
"D.Marcinkowski"
"M.A.Fik"
"T.Luczak"
"M.Kubicki"
"V.Patroniak"
_chemical_name_systematic
;
dibromo-(2-{1-methyl-2-[(pyridin-2-yl)methylidene]hydrazinyl}-1,3-benzoxazole)
-manganese(ii)
;
_cell_volume    775.050
_exptl_crystal_colour 'pale yellow'
_exptl_crystal_density_diffrn 2.001
_exptl_crystal_description 'needle'
_diffrn_ambient_temperature 100
#These two values have been output from a single CSD field.
_refine_ls_R_factor_gt 0.038
_refine_ls_wR_factor_gt 0.038
_symmetry_cell_setting triclinic
_symmetry_space_group_name_H-M 'P -1'
_symmetry_Int_Tables_number 2
loop_
_symmetry_equiv_pos_site_id
_symmetry_equiv_pos_as_xyz
1 x,y,z
2 -x,-y,-z
_cell_length_a 7.2989(7)
_cell_length_b 7.6467(7)
_cell_length_c 14.9724(14)
_cell_angle_alpha 75.544(8)
_cell_angle_beta 76.896(8)
_cell_angle_gamma 76.842(8)
_cell_formula_units_Z 2
loop_
_atom_type_symbol
_atom_type_radius_bond
C 0.68
H 0.23
Br 1.21
Mn 1.61
N 0.68
O 0.68
loop_
_atom_site_label
_atom_site_type_symbol
_atom_site_fract_x
_atom_site_fract_y
_atom_site_fract_z
Mn1 Mn 0.49592(10) 0.44017(9) 0.26663(5)
O1 O 0.8343(4) 0.2696(4) 0.0175(2)
C1 C 0.7256(6) 0.2756(6) 0.1032(3)
N1 N 0.6339(5) 0.4365(5) 0.1177(2)
C2 C 0.6834(6) 0.5568(6) 0.0315(3)
C3 C 0.6296(7) 0.7436(6) 0.0019(3)
H1 H 0.54280 0.81640 0.04190
C4 C 0.7086(7) 0.8210(6) -0.0894(3)
H2 H 0.67610 0.94980 -0.11160
C5 C 0.8333(7) 0.7151(6) -0.1487(3)
H3 H 0.88370 0.77350 -0.21040
C6 C 0.8868(6) 0.5245(6) -0.1201(3)
H4 H 0.97100 0.45000 -0.16000
C7 C 0.8071(7) 0.4545(6) -0.0294(3)
N2 N 0.7167(5) 0.1156(5) 0.1669(2)
C8 C 0.8106(7) -0.0656(6) 0.1524(3)
H5 H 0.88380 -0.05640 0.08840
H6 H 0.71430 -0.14240 0.16170
H7 H 0.89730 -0.12100 0.19730
N3 N 0.5886(5) 0.1447(5) 0.2468(2)
C9 C 0.5333(6) 0.0136(6) 0.3116(3)
H8 H 0.58090 -0.11170 0.30870
C10 C 0.3921(6) 0.0686(6) 0.3905(3)
N4 N 0.3436(5) 0.2522(5) 0.3867(2)
C11 C 0.2197(7) 0.3079(6) 0.4587(3)
H9 H 0.18480 0.43610 0.45680
C12 C 0.1388(7) 0.1902(6) 0.5360(3)
H10 H 0.05260 0.23610 0.58630
C13 C 0.1871(7) 0.0040(6) 0.5381(3)
H11 H 0.13180 -0.08060 0.58950
C14 C 0.3169(6) -0.0586(6) 0.4645(3)
H12 H 0.35320 -0.18630 0.46500
Br1 Br 0.75489(7) 0.48446(6) 0.33951(3)
Br2 Br 0.26318(7) 0.73602(6) 0.25529(3)
#END
