
#######################################################################
#
#                 Cambridge Crystallographic Data Centre
#                                CCDC
#
#######################################################################
#
# If this CIF has been generated from an entry in the Cambridge
# Structural Database, then it will include bibliographic, chemical,
# crystal, experimental, refinement or atomic coordinate data resulting
# from the CCDC's data processing and validation procedures.
#
#######################################################################

data_CSD_CIF_WEYFAI
_audit_creation_date 2007-05-17
_audit_creation_method CSD-ConQuest-V1
_database_code_CSD WEYFAI
_database_code_depnum_ccdc_archive 'CCDC 638181'
_chemical_formula_sum 'C34 H48 Cl4 Cr1 N2 O4'
_chemical_formula_moiety
;
C20 H30 Cr1,C12 H14 N2 O4,2(C1 H2 Cl2)
;
_journal_coden_Cambridge 580
_journal_volume 24
_journal_year 2005
_journal_page_first 2133
_journal_name_full 'Polyhedron '
loop_
_publ_author_name
"W.S.Tyree"
"C.Slebodnick"
"M.C.Spencer"
"Guangbin Wang"
"J.S.Merola"
"G.T.Yee"
_chemical_name_systematic
;
Decamethylchromocene di-isopropyl dicyanofumarate dichloromethane solvate
;
_cell_volume    934.324
_exptl_crystal_colour 'red'
_exptl_crystal_density_diffrn 1.32
_exptl_special_details
;
magnetic properties
isomorphous with the diethyl and di-n-propyl analogues

;
_exptl_crystal_description 'plate'
_exptl_crystal_preparation 'dichloromethane/pentane'
_diffrn_ambient_temperature 100
#These two values have been output from a single CSD field.
_refine_ls_R_factor_gt 0.0452
_refine_ls_wR_factor_gt 0.0452
_symmetry_cell_setting triclinic
_symmetry_space_group_name_H-M 'P -1'
_symmetry_Int_Tables_number 2
loop_
_symmetry_equiv_pos_site_id
_symmetry_equiv_pos_as_xyz
1 x,y,z
2 -x,-y,-z
_cell_length_a 9.7212(19)
_cell_length_b 9.7292(14)
_cell_length_c 11.5723(16)
_cell_angle_alpha 80.760(12)
_cell_angle_beta 68.779(15)
_cell_angle_gamma 66.333(16)
_cell_formula_units_Z 1
loop_
_atom_type_symbol
_atom_type_radius_bond
C 0.68
H 0.23
Cl 0.99
Cr 1.35
N 0.68
O 0.68
loop_
_atom_site_label
_atom_site_type_symbol
_atom_site_fract_x
_atom_site_fract_y
_atom_site_fract_z
Cr1 Cr 0.50000 0.50000 0.50000
Cl1 Cl 0.17035(14) 0.38043(12) 0.04447(10)
Cl2 Cl 0.48151(16) 0.2183(2) 0.06902(13)
O1 O 1.0800(3) 1.0530(3) 0.2662(2)
O2 O 0.9373(3) 0.9081(2) 0.29552(19)
N1 N 0.8148(3) 0.7949(3) 0.5766(3)
C1 C 0.3732(4) 0.7408(4) 0.5350(3)
C2 C 0.2911(4) 0.6614(3) 0.6288(3)
C3 C 0.2386(3) 0.5818(3) 0.5712(3)
C4 C 0.2880(4) 0.6121(3) 0.4416(3)
C5 C 0.3705(4) 0.7116(4) 0.4191(3)
C6 C 0.4492(4) 0.8404(4) 0.5525(4)
H1 H 0.37280 0.94440 0.56240
H2 H 0.54310 0.83430 0.47980
H3 H 0.48120 0.80740 0.62670
C7 C 0.2606(4) 0.6614(4) 0.7661(3)
H4 H 0.15000 0.72590 0.80730
H5 H 0.33210 0.69960 0.78060
H6 H 0.27980 0.55890 0.79980
C8 C 0.1433(4) 0.4861(4) 0.6360(3)
H7 H 0.03000 0.54620 0.65170
H8 H 0.16180 0.44840 0.71490
H9 H 0.17580 0.40130 0.58370
C9 C 0.2538(4) 0.5528(4) 0.3472(3)
H10 H 0.14890 0.61850 0.34200
H11 H 0.25500 0.45120 0.37200
H12 H 0.33520 0.54990 0.26610
C10 C 0.4405(4) 0.7761(4) 0.2954(3)
H13 H 0.36120 0.87200 0.28070
H14 H 0.47200 0.70600 0.23000
H15 H 0.53410 0.79220 0.29470
C11 C 0.9733(4) 0.9639(3) 0.4692(3)
C12 C 0.8857(4) 0.8717(4) 0.5323(3)
C13 C 1.0046(4) 0.9819(4) 0.3355(3)
C14 C 0.9669(4) 0.9131(4) 0.1627(3)
H16 H 0.97230 1.01240 0.12790
C15 C 1.1214(5) 0.7907(4) 0.1014(3)
H17 H 1.20730 0.80170 0.11980
H18 H 1.14320 0.79720 0.01160
H19 H 1.11490 0.69290 0.13280
C16 C 0.8245(5) 0.8987(4) 0.1486(3)
H20 H 0.72710 0.97850 0.19460
H21 H 0.81990 0.80080 0.18150
H22 H 0.83420 0.90760 0.06070
C17 C 0.2862(5) 0.2293(5) 0.1169(4)
H23 H 0.23910 0.24140 0.20790
H24 H 0.28500 0.13450 0.09710
O1A O 0.9200(3) 0.9470(3) 0.7338(2)
O2A O 1.0627(3) 1.0919(2) 0.70448(19)
N1A N 1.1852(3) 1.2051(3) 0.4234(3)
C1A C 0.6268(4) 0.2592(4) 0.4650(3)
C2A C 0.7089(4) 0.3386(3) 0.3712(3)
C3A C 0.7614(3) 0.4182(3) 0.4288(3)
C4A C 0.7120(4) 0.3879(3) 0.5584(3)
C5A C 0.6295(4) 0.2884(4) 0.5809(3)
C6A C 0.5508(4) 0.1596(4) 0.4475(4)
H1A H 0.62720 0.05560 0.43760
H2A H 0.45690 0.16570 0.52020
H3A H 0.51880 0.19260 0.37330
C7A C 0.7394(4) 0.3386(4) 0.2339(3)
H4A H 0.85000 0.27410 0.19270
H5A H 0.66790 0.30040 0.21940
H6A H 0.72020 0.44110 0.20020
C8A C 0.8567(4) 0.5139(4) 0.3640(3)
H7A H 0.97000 0.45380 0.34830
H8A H 0.83820 0.55160 0.28510
H9A H 0.82420 0.59870 0.41630
C9A C 0.7462(4) 0.4472(4) 0.6528(3)
H10A H 0.85110 0.38150 0.65800
H11A H 0.74500 0.54880 0.62800
H12A H 0.66480 0.45010 0.73390
C10A C 0.5595(4) 0.2239(4) 0.7046(3)
H13A H 0.63880 0.12800 0.71930
H14A H 0.52800 0.29400 0.77000
H15A H 0.46590 0.20780 0.70530
C11A C 1.0267(4) 1.0361(3) 0.5308(3)
C12A C 1.1143(4) 1.1283(4) 0.4677(3)
C13A C 0.9954(4) 1.0181(4) 0.6645(3)
C14A C 1.0331(4) 1.0869(4) 0.8373(3)
H16A H 1.02770 0.98760 0.87210
C15A C 0.8786(5) 1.2093(4) 0.8986(3)
H17A H 0.79270 1.19830 0.88020
H18A H 0.85680 1.20280 0.98840
H19A H 0.88510 1.30710 0.86720
C16A C 1.1755(5) 1.1013(4) 0.8514(3)
H20A H 1.27290 1.02150 0.80540
H21A H 1.18010 1.19920 0.81850
H22A H 1.16580 1.09240 0.93930
#END
