
#######################################################################
#
#                 Cambridge Crystallographic Data Centre
#                                CCDC
#
#######################################################################
#
# If this CIF has been generated from an entry in the Cambridge
# Structural Database, then it will include bibliographic, chemical,
# crystal, experimental, refinement or atomic coordinate data resulting
# from the CCDC's data processing and validation procedures.
#
#######################################################################

data_CSD_CIF_WEZMET
_audit_creation_date 1995-02-08
_audit_creation_method CSD-ConQuest-V1
_database_code_CSD WEZMET
_database_code_depnum_ccdc_fiz 'CSD 58067'
_chemical_formula_sum 'C44 H64 Fe1 N2'
_chemical_formula_moiety
;
C44 H64 Fe1 N2
;
_journal_coden_Cambridge 644
_journal_volume 49
_journal_year 1994
_journal_page_first 683
_journal_name_full 'Z.Naturforsch.,B:Chem.Sci. '
loop_
_publ_author_name
"U.Siemeling"
"B.Neumann"
"H.-G.Stammler"
_chemical_name_systematic
;
1,1'-bis(2-Methyl-2-(4-t-butylpyrid-2-yl)propyl)-2,2',3,3',4,4',5,5'-octamethy
lferrocene
;
_cell_volume    985.402
_exptl_crystal_colour 'yellow'
_exptl_crystal_density_diffrn 1.141
_diffrn_ambient_temperature ?
_diffrn_special_details
;
The study was carried out at room temperature,in the range 283-303K

;
#These two values have been output from a single CSD field.
_refine_ls_R_factor_gt 0.034
_refine_ls_wR_factor_gt 0.034
_symmetry_cell_setting triclinic
_symmetry_space_group_name_H-M 'P -1'
_symmetry_Int_Tables_number 2
loop_
_symmetry_equiv_pos_site_id
_symmetry_equiv_pos_as_xyz
1 x,y,z
2 -x,-y,-z
_cell_length_a 8.368(1)
_cell_length_b 8.468(1)
_cell_length_c 14.313(1)
_cell_angle_alpha 80.64(1)
_cell_angle_beta 86.67(1)
_cell_angle_gamma 80.12(1)
_cell_formula_units_Z 1
loop_
_atom_type_symbol
_atom_type_radius_bond
C 0.68
H 0.23
Fe 1.34
N 0.68
loop_
_atom_site_label
_atom_site_type_symbol
_atom_site_fract_x
_atom_site_fract_y
_atom_site_fract_z
Fe1 Fe 0.00000 0.00000 0.00000
N1 N -0.0999(2) -0.0137(2) 0.3883(1)
C1 C -0.1335(2) 0.0986(2) 0.1074(1)
C2 C -0.2150(2) 0.1521(2) 0.0204(1)
C3 C -0.2455(2) 0.0129(2) -0.0154(1)
C4 C -0.1829(2) -0.1273(2) 0.0499(1)
C5 C -0.1145(2) -0.0747(2) 0.1264(1)
C6 C -0.0825(2) 0.2087(2) 0.1679(1)
C7 C -0.2691(2) 0.3252(2) -0.0234(1)
C8 C -0.3353(2) 0.0141(2) -0.1036(1)
C9 C -0.1954(2) -0.2977(2) 0.0387(1)
C10 C -0.0377(2) -0.1833(2) 0.2115(1)
C11 C -0.1530(2) -0.2187(2) 0.2987(1)
C12 C -0.0534(2) -0.3433(2) 0.3735(1)
C13 C -0.2954(2) -0.2923(2) 0.2719(1)
C14 C -0.2104(2) -0.0620(2) 0.3395(1)
C15 C -0.3645(2) 0.0286(2) 0.3255(1)
C16 C -0.4111(2) 0.1720(2) 0.3632(1)
C17 C -0.2957(2) 0.2185(2) 0.4141(1)
C18 C -0.1439(2) 0.1223(2) 0.4242(1)
C19 C -0.5792(2) 0.2733(2) 0.3458(1)
C20 C -0.7092(2) 0.1650(2) 0.3667(2)
C21 C -0.5852(2) 0.3529(2) 0.2420(1)
C22 C -0.6147(2) 0.4056(3) 0.4089(2)
H1 H 0.0078(9) 0.1496(4) 0.2069(6)
H2 H -0.1741(4) 0.2460(11) 0.2092(6)
H3 H -0.0479(13) 0.3024(7) 0.1274(1)
H4 H -0.1882(7) 0.3909(3) -0.0126(8)
H5 H -0.3737(7) 0.3669(5) 0.0054(6)
H6 H -0.2807(14) 0.3309(3) -0.0917(2)
H7 H -0.3275(13) 0.1143(8) -0.1476(4)
H8 H -0.4497(4) 0.0084(16) -0.0870(2)
H9 H -0.2873(10) -0.0796(9) -0.1339(5)
H10 H -0.3007(7) -0.3230(6) 0.0644(8)
H11 H -0.1082(10) -0.3731(2) 0.0730(8)
H12 H -0.1852(16) -0.3083(5) -0.0287(2)
H13 H 0.0507(2) -0.1332(2) 0.2315(1)
H14 H 0.0126(2) -0.2881(2) 0.1921(1)
H15 H -0.0201(15) -0.4458(6) 0.3489(4)
H16 H -0.1200(6) -0.3618(14) 0.4316(4)
H17 H 0.0432(9) -0.3012(8) 0.3875(8)
H18 H -0.2545(3) -0.3977(7) 0.2521(9)
H19 H -0.3529(10) -0.2194(8) 0.2197(6)
H20 H -0.3700(8) -0.3070(15) 0.3268(3)
H21 H -0.4392(2) -0.0078(2) 0.2898(1)
H22 H -0.3202(2) 0.3150(2) 0.4416(1)
H23 H -0.0665(2) 0.1563(2) 0.4593(1)
H24 H -0.8166(2) 0.2311(3) 0.3558(10)
H25 H -0.7036(11) 0.1119(13) 0.4329(3)
H26 H -0.691(1) 0.0824(11) 0.3248(7)
H27 H -0.6936(6) 0.4155(14) 0.2290(3)
H28 H -0.5616(17) 0.2688(3) 0.2012(1)
H29 H -0.5043(12) 0.4254(14) 0.2291(3)
H30 H -0.7243(7) 0.4663(12) 0.3975(8)
H31 H -0.5356(12) 0.4796(11) 0.3940(8)
H32 H -0.6071(18) 0.3555(3) 0.4755(2)
C1A C 0.1335(2) -0.0986(2) -0.1074(1)
C2A C 0.2150(2) -0.1521(2) -0.0204(1)
C3A C 0.2455(2) -0.0129(2) 0.0154(1)
C4A C 0.1829(2) 0.1273(2) -0.0499(1)
C5A C 0.1145(2) 0.0747(2) -0.1264(1)
C6A C 0.0825(2) -0.2087(2) -0.1679(1)
C7A C 0.2691(2) -0.3252(2) 0.0234(1)
C8A C 0.3353(2) -0.0141(2) 0.1036(1)
C9A C 0.1954(2) 0.2977(2) -0.0387(1)
C10A C 0.0377(2) 0.1833(2) -0.2115(1)
H1A H -0.0078(9) -0.1496(4) -0.2069(6)
H2A H 0.1741(4) -0.2460(11) -0.2092(6)
H3A H 0.0479(13) -0.3024(7) -0.1274(1)
H4A H 0.1882(7) -0.3909(3) 0.0126(8)
H5A H 0.3737(7) -0.3669(5) -0.0054(6)
H6A H 0.2807(14) -0.3309(3) 0.0917(2)
H7A H 0.3275(13) -0.1143(8) 0.1476(4)
H8A H 0.4497(4) -0.0084(16) 0.0870(2)
H9A H 0.2873(10) 0.0796(9) 0.1339(5)
H10A H 0.3007(7) 0.3230(6) -0.0644(8)
H11A H 0.1082(10) 0.3731(2) -0.0730(8)
H12A H 0.1852(16) 0.3083(5) 0.0287(2)
C11A C 0.1530(2) 0.2187(2) -0.2987(1)
H13A H -0.0507(2) 0.1332(2) -0.2315(1)
H14A H -0.0126(2) 0.2881(2) -0.1921(1)
C12A C 0.0534(2) 0.3433(2) -0.3735(1)
C13A C 0.2954(2) 0.2923(2) -0.2719(1)
C14A C 0.2104(2) 0.0620(2) -0.3395(1)
H15A H 0.0201(15) 0.4458(6) -0.3489(4)
H16A H 0.1200(6) 0.3618(14) -0.4316(4)
H17A H -0.0432(9) 0.3012(8) -0.3875(8)
H18A H 0.2545(3) 0.3977(7) -0.2521(9)
H19A H 0.3529(10) 0.2194(8) -0.2197(6)
H20A H 0.3700(8) 0.3070(15) -0.3268(3)
N1A N 0.0999(2) 0.0137(2) -0.3883(1)
C15A C 0.3645(2) -0.0286(2) -0.3255(1)
C18A C 0.1439(2) -0.1223(2) -0.4242(1)
C16A C 0.4111(2) -0.1720(2) -0.3632(1)
H21A H 0.4392(2) 0.0078(2) -0.2898(1)
C17A C 0.2957(2) -0.2185(2) -0.4141(1)
H23A H 0.0665(2) -0.1563(2) -0.4593(1)
C19A C 0.5792(2) -0.2733(2) -0.3458(1)
H22A H 0.3202(2) -0.3150(2) -0.4416(1)
C20A C 0.7092(2) -0.1650(2) -0.3667(2)
C21A C 0.5852(2) -0.3529(2) -0.2420(1)
C22A C 0.6147(2) -0.4056(3) -0.4089(2)
H24A H 0.8166(2) -0.2311(3) -0.3558(10)
H25A H 0.7036(11) -0.1119(13) -0.4329(3)
H26A H 0.691(1) -0.0824(11) -0.3248(7)
H27A H 0.6936(6) -0.4155(14) -0.2290(3)
H28A H 0.5616(17) -0.2688(3) -0.2012(1)
H29A H 0.5043(12) -0.4254(14) -0.2291(3)
H30A H 0.7243(7) -0.4663(12) -0.3975(8)
H31A H 0.5356(12) -0.4796(11) -0.3940(8)
H32A H 0.6071(18) -0.3555(3) -0.4755(2)
#END
