
#######################################################################
#
#                 Cambridge Crystallographic Data Centre
#                                CCDC
#
#######################################################################
#
# If this CIF has been generated from an entry in the Cambridge
# Structural Database, then it will include bibliographic, chemical,
# crystal, experimental, refinement or atomic coordinate data resulting
# from the CCDC's data processing and validation procedures.
#
#######################################################################

data_CSD_CIF_WEZPIA
_audit_creation_date 1995-02-08
_audit_creation_method CSD-ConQuest-V1
_database_code_CSD WEZPIA
_chemical_formula_sum 'C10 H6 Cr1 F3 N1 O4'
_chemical_formula_moiety
;
C10 H6 Cr1 F3 N1 O4
;
_journal_coden_Cambridge 36
_journal_volume 470
_journal_year 1994
_journal_page_first 131
_journal_name_full 'J.Organomet.Chem. '
loop_
_publ_author_name
"F.Rose-Munch"
"R.Khourzom"
"J.-P.Djukic"
"E.Rose"
"B.Langlois"
"J.Vaisserman"
_chemical_name_systematic
;
(\h^6^-4-Trifluoromethoxyaniline)-tricarbonyl-chromium
;
_cell_volume    583.555
_exptl_crystal_colour 'yellow'
_exptl_crystal_density_diffrn 1.78
_diffrn_ambient_temperature ?
_diffrn_special_details
;
The study was carried out at room temperature,in the range 283-303K

;
#These two values have been output from a single CSD field.
_refine_ls_R_factor_gt 0.022
_refine_ls_wR_factor_gt 0.022
_symmetry_cell_setting triclinic
_symmetry_space_group_name_H-M 'P -1'
_symmetry_Int_Tables_number 2
loop_
_symmetry_equiv_pos_site_id
_symmetry_equiv_pos_as_xyz
1 x,y,z
2 -x,-y,-z
_cell_length_a 6.682(4)
_cell_length_b 7.951(3)
_cell_length_c 11.983(1)
_cell_angle_alpha 88.70(2)
_cell_angle_beta 78.42(3)
_cell_angle_gamma 69.54(4)
_cell_formula_units_Z 2
loop_
_atom_type_symbol
_atom_type_radius_bond
C 0.68
H 0.23
Cr 1.35
F 0.64
N 0.68
O 0.68
loop_
_atom_site_label
_atom_site_type_symbol
_atom_site_fract_x
_atom_site_fract_y
_atom_site_fract_z
Cr1 Cr 0.41548(5) 0.05742(4) 0.22521(3)
C1 C 0.5762(3) 0.0758(3) 0.3299(2)
O1 O 0.6706(3) 0.0892(3) 0.3978(1)
C2 C 0.5218(4) 0.2121(3) 0.1389(2)
O2 O 0.5919(3) 0.3106(2) 0.0859(2)
C3 C 0.6480(4) -0.1353(3) 0.1488(2)
O3 O 0.7913(3) -0.2557(2) 0.1001(2)
C4 C 0.0807(3) 0.2365(3) 0.2978(2)
C5 C 0.1456(3) 0.1009(3) 0.3729(2)
C6 C 0.2123(3) -0.0805(3) 0.3353(2)
C7 C 0.2068(3) -0.1268(3) 0.2230(2)
C8 C 0.1585(4) 0.0130(3) 0.1461(2)
C9 C 0.0924(3) 0.1938(3) 0.1832(2)
O4 O 0.0218(2) 0.4187(2) 0.3333(1)
F1 F -0.3252(2) 0.4933(2) 0.3208(1)
F2 F -0.2415(3) 0.4360(2) 0.4832(1)
F3 F -0.2176(3) 0.6727(2) 0.4024(1)
N1 N 0.2559(4) -0.3004(3) 0.1882(2)
C10 C -0.1881(4) 0.5024(3) 0.3837(2)
H1 H 0.144(3) 0.131(3) 0.448(2)
H2 H 0.261(3) -0.174(3) 0.385(2)
H3 H 0.172(3) -0.016(3) 0.072(2)
H4 H 0.059(3) 0.287(3) 0.134(2)
H5 H 0.306(4) -0.375(3) 0.228(2)
H6 H 0.283(4) -0.323(3) 0.121(2)
#END
