
#######################################################################
#
#                 Cambridge Crystallographic Data Centre
#                                CCDC
#
#######################################################################
#
# If this CIF has been generated from an entry in the Cambridge
# Structural Database, then it will include bibliographic, chemical,
# crystal, experimental, refinement or atomic coordinate data resulting
# from the CCDC's data processing and validation procedures.
#
#######################################################################

data_CSD_CIF_WIFSEJ
_audit_creation_date 1995-04-20
_audit_creation_method CSD-ConQuest-V1
_database_code_CSD WIFSEJ
_chemical_formula_sum 'C4 H8 Mn1 N2 O6 S2'
_chemical_formula_moiety
;
C4 H8 Mn1 N2 O6 S2
;
_journal_coden_Cambridge 580
_journal_volume 13
_journal_year 1994
_journal_page_first 1095
_journal_name_full 'Polyhedron '
loop_
_publ_author_name
"M.L.B.F.Hereygers"
"H.O.Desseyn"
"J.C.Plakatouras"
"S.P.Perlepes"
"K.A.F.Verhulst"
"A.T.H.Lenstra"
_chemical_name_systematic
;
trans-bis((2-Oxathioamidato-S,O)-aqua)-manganese(ii)
;
_cell_volume    508.391
_exptl_crystal_density_diffrn 1.954
_exptl_special_details
;
Isomorphous with the Cd(ii) and Fe(ii) analogues

;
_diffrn_ambient_temperature ?
_diffrn_special_details
;
The study was carried out at room temperature,in the range 283-303K

;
#These two values have been output from a single CSD field.
_refine_ls_R_factor_gt 0.032
_refine_ls_wR_factor_gt 0.032
_symmetry_cell_setting monoclinic
_symmetry_space_group_name_H-M 'P 21/a'
_symmetry_Int_Tables_number 14
loop_
_symmetry_equiv_pos_site_id
_symmetry_equiv_pos_as_xyz
1 x,y,z
2 1/2-x,1/2+y,-z
3 -x,-y,-z
4 -1/2+x,-1/2-y,z
_cell_length_a 6.605(1)
_cell_length_b 8.680(1)
_cell_length_c 9.008(2)
_cell_angle_alpha 90
_cell_angle_beta 100.13(2)
_cell_angle_gamma 90
_cell_formula_units_Z 2
loop_
_atom_type_symbol
_atom_type_radius_bond
C 0.68
H 0.23
Mn 1.35
N 0.68
O 0.68
S 1.02
loop_
_atom_site_label
_atom_site_type_symbol
_atom_site_fract_x
_atom_site_fract_y
_atom_site_fract_z
Mn1 Mn 0.00000 0.00000 0.00000
S1 S 0.1981(1) 0.08405(6) 0.26385(6)
O1 O -0.2843(3) 0.0668(2) 0.0784(2)
O2 O 0.1664(3) -0.3612(2) 0.3098(2)
O3 O 0.0247(2) -0.2153(2) 0.1151(2)
C1 C 0.1203(3) -0.2342(4) 0.2477(2)
C2 C 0.1887(3) -0.0894(2) 0.3423(2)
N1 N 0.2411(4) -0.1146(2) 0.4865(2)
H1 H 0.251(7) -0.235(3) 0.530(4)
H2 H -0.324(8) 0.020(4) 0.146(6)
H3 H -0.359(6) 0.112(5) 0.019(5)
H4 H 0.267(7) -0.057(4) 0.531(5)
S1B S -0.1981(1) -0.08405(6) -0.26385(6)
O1B O 0.2843(3) -0.0668(2) -0.0784(2)
O3B O -0.0247(2) 0.2153(2) -0.1151(2)
C2B C -0.1887(3) 0.0894(2) -0.3423(2)
H2B H 0.324(8) -0.020(4) -0.146(6)
H3B H 0.359(6) -0.112(5) -0.019(5)
C1B C -0.1203(3) 0.2342(4) -0.2477(2)
N1B N -0.2411(4) 0.1146(2) -0.4865(2)
O2B O -0.1664(3) 0.3612(2) -0.3098(2)
H1B H -0.251(7) 0.235(3) -0.530(4)
H4B H -0.267(7) 0.057(4) -0.531(5)
#END
