
#######################################################################
#
#                 Cambridge Crystallographic Data Centre
#                                CCDC
#
#######################################################################
#
# If this CIF has been generated from an entry in the Cambridge
# Structural Database, then it will include bibliographic, chemical,
# crystal, experimental, refinement or atomic coordinate data resulting
# from the CCDC's data processing and validation procedures.
#
#######################################################################

data_CSD_CIF_WIFSOT
_audit_creation_date 1995-04-20
_audit_creation_method CSD-ConQuest-V1
_database_code_CSD WIFSOT
_chemical_formula_sum 'C6 H14 Mn1 N2 O7 S2'
_chemical_formula_moiety
;
C6 H12 Mn1 N2 O6 S2,H2 O1
;
_journal_coden_Cambridge 580
_journal_volume 13
_journal_year 1994
_journal_page_first 1095
_journal_name_full 'Polyhedron '
loop_
_publ_author_name
"M.L.B.F.Hereygers"
"H.O.Desseyn"
"J.C.Plakatouras"
"S.P.Perlepes"
"K.A.F.Verhulst"
"A.T.H.Lenstra"
_chemical_name_systematic
;
cis-bis((N-Methyl-2-thio-oxamidato-S,O)-aqua)-manganese(ii) monohydrate
;
_cell_volume   1448.626
_exptl_special_details
;
Dx given as 1.335, we find 1.58

;
_diffrn_ambient_temperature ?
_diffrn_special_details
;
The study was carried out at room temperature,in the range 283-303K

;
#These two values have been output from a single CSD field.
_refine_ls_R_factor_gt 0.028
_refine_ls_wR_factor_gt 0.028
_symmetry_cell_setting monoclinic
_symmetry_space_group_name_H-M 'C 2/c'
_symmetry_Int_Tables_number 15
loop_
_symmetry_equiv_pos_site_id
_symmetry_equiv_pos_as_xyz
1 x,y,z
2 1/2+x,1/2+y,z
3 -x,y,1/2-z
4 1/2-x,1/2+y,1/2-z
5 -x,-y,-z
6 -1/2-x,-1/2-y,-z
7 x,-y,-1/2+z
8 -1/2+x,-1/2-y,-1/2+z
_cell_length_a 11.812(1)
_cell_length_b 8.617(1)
_cell_length_c 14.325(1)
_cell_angle_alpha 90
_cell_angle_beta 96.52(2)
_cell_angle_gamma 90
_cell_formula_units_Z 4
loop_
_atom_type_symbol
_atom_type_radius_bond
C 0.68
H 0.23
Mn 1.35
N 0.68
O 0.68
S 1.02
loop_
_atom_site_label
_atom_site_type_symbol
_atom_site_fract_x
_atom_site_fract_y
_atom_site_fract_z
Mn1 Mn 1.00000 0.30957(5) 0.75000
S1 S 0.99642(5) 0.29838(7) 0.56509(3)
N1 N 0.8622(2) 0.0990(2) 0.4645(1)
O1 O 0.7730(1) -0.0197(2) 0.6088(1)
C1 C 0.8437(2) 0.0846(2) 0.6290(1)
C2 C 0.8991(2) 0.1576(2) 0.5467(1)
O2 O 0.8726(1) 0.1374(2) 0.7094(1)
C3 C 0.8993(2) 0.1470(3) 0.3760(1)
O3 O 0.1911(1) 0.3499(2) 0.4042(1)
O4 O 1.1259(1) 0.4857(2) 0.7432(1)
H1 H 0.815(2) 0.031(3) 0.468(1)
H2 H 1.177(3) 0.476(4) 0.708(2)
H3 H 1.144(2) 0.547(3) 0.781(2)
H4 H 0.211(3) 0.263(4) 0.397(2)
H5 H 0.133(3) 0.349(4) 0.442(2)
H6 H 0.870(3) 0.068(4) 0.330(2)
H7 H 0.986(3) 0.149(4) 0.372(2)
H8 H 0.895(3) 0.245(4) 0.367(2)
S1B S 1.00358(5) 0.29838(7) 0.93491(3)
O2B O 1.1274(1) 0.1374(2) 0.7906(1)
O4B O 0.8741(1) 0.4857(2) 0.7568(1)
C2B C 1.1009(2) 0.1576(2) 0.9533(1)
C1B C 1.1563(2) 0.0846(2) 0.8710(1)
H2B H 0.823(3) 0.476(4) 0.792(2)
H3B H 0.856(2) 0.547(3) 0.719(2)
N1B N 1.1378(2) 0.0990(2) 1.0355(1)
O1B O 1.2270(1) -0.0197(2) 0.8912(1)
C3B C 1.1007(2) 0.1470(3) 1.1240(1)
H1B H 1.185(2) 0.031(3) 1.032(1)
H6B H 1.130(3) 0.068(4) 1.170(2)
H7B H 1.014(3) 0.149(4) 1.128(2)
H8B H 1.105(3) 0.245(4) 1.133(2)
#END
