
#######################################################################
#
#                 Cambridge Crystallographic Data Centre
#                                CCDC
#
#######################################################################
#
# If this CIF has been generated from an entry in the Cambridge
# Structural Database, then it will include bibliographic, chemical,
# crystal, experimental, refinement or atomic coordinate data resulting
# from the CCDC's data processing and validation procedures.
#
#######################################################################

data_CSD_CIF_WILYIC
_audit_creation_date 2018-10-24
_audit_creation_method CSD-ConQuest-V1
_database_code_CSD WILYIC
_database_code_depnum_ccdc_archive 'CCDC 1873927'
_chemical_formula_sum 'C15 H19 Co1 N2 O6'
_chemical_formula_moiety
;
C15 H19 Co1 N2 O6
;
_journal_coeditor_code "hb7778"
_journal_coden_Cambridge 1828
_journal_volume 74
_journal_year 2018
_journal_page_first 1637
_journal_name_full 'Acta Crystallogr.,Sect.E:Cryst.Commun. '
loop_
_publ_author_name
"S.Ohba"
"M.Tsuchimoto"
"H.Miyazaki"
_chemical_name_systematic
;
trans-bis(acetylacetonato-O,O')-(pyridine-N)-nitro-cobalt(iii)
;
_cell_volume    847.067
_exptl_crystal_colour 'dark red'
_exptl_crystal_density_diffrn 1.499
_exptl_crystal_description 'plate'
_diffrn_ambient_temperature 301
_diffrn_special_details
;
twin

;
#These two values have been output from a single CSD field.
_refine_ls_R_factor_gt 0.0396
_refine_ls_wR_factor_gt 0.0396
_symmetry_cell_setting monoclinic
_symmetry_space_group_name_H-M 'C m'
_symmetry_Int_Tables_number 8
loop_
_symmetry_equiv_pos_site_id
_symmetry_equiv_pos_as_xyz
1 x,y,z
2 x,-y,z
3 1/2+x,1/2+y,z
4 1/2+x,1/2-y,z
_cell_length_a 8.1971(14)
_cell_length_b 13.942(2)
_cell_length_c 7.4148(11)
_cell_angle_alpha 90
_cell_angle_beta 91.588(6)
_cell_angle_gamma 90
_cell_formula_units_Z 2
loop_
_atom_type_symbol
_atom_type_radius_bond
C 0.68
H 0.23
Co 1.26
N 0.68
O 0.68
loop_
_atom_site_label
_atom_site_type_symbol
_atom_site_fract_x
_atom_site_fract_y
_atom_site_fract_z
Co1 Co 0.42186(18) 0.50000 0.42933(17)
O1 O 0.3213(6) 0.5899(5) 0.5783(6)
O2 O 0.5237(6) 0.5919(5) 0.2843(6)
O3 O 0.103(1) 0.50000 0.3107(12)
O4 O 0.2595(11) 0.50000 0.1013(12)
N1 N 0.2370(11) 0.50000 0.2638(11)
N2 N 0.6127(10) 0.50000 0.6056(11)
C1 C 0.2472(10) 0.7342(6) 0.7050(8)
H1 H 0.13470 0.71530 0.70850
H2 H 0.25370 0.80180 0.68130
H3 H 0.30030 0.72030 0.81910
C2 C 0.3290(9) 0.6804(7) 0.5596(9)
C3 C 0.4051(12) 0.7261(3) 0.4179(11)
H4 H 0.39460 0.79240 0.40900
C4 C 0.4946(9) 0.6800(7) 0.2902(9)
C5 C 0.5655(11) 0.7380(7) 0.1361(9)
H5 H 0.61200 0.69520 0.05020
H6 H 0.64850 0.78030 0.18340
H7 H 0.48030 0.77500 0.07800
C6 C 0.7701(12) 0.50000 0.5474(12)
H8 H 0.78840 0.50000 0.42420
C7 C 0.8993(9) 0.50000 0.6648(10)
H9 H 1.00500 0.50000 0.62240
C8 C 0.8733(10) 0.50000 0.8481(10)
H10 H 0.96070 0.50000 0.93080
C9 C 0.7142(10) 0.50000 0.9055(9)
H11 H 0.69310 0.50000 1.02810
C10 C 0.5893(11) 0.50000 0.7818(11)
H12 H 0.48290 0.50000 0.82220
O1A O 0.3213(6) 0.4101(5) 0.5783(6)
O2A O 0.5237(6) 0.4081(5) 0.2843(6)
C1A C 0.2472(10) 0.2658(6) 0.7050(8)
H1A H 0.13470 0.28470 0.70850
H2A H 0.25370 0.19820 0.68130
H3A H 0.30030 0.27970 0.81910
C2A C 0.3290(9) 0.3196(7) 0.5596(9)
C3A C 0.4051(12) 0.2739(3) 0.4179(11)
H4A H 0.39460 0.20760 0.40900
C4A C 0.4946(9) 0.3200(7) 0.2902(9)
C5A C 0.5655(11) 0.2620(7) 0.1361(9)
H5A H 0.61200 0.30480 0.05020
H6A H 0.64850 0.21970 0.18340
H7A H 0.48030 0.22500 0.07800
#END
