
#######################################################################
#
#                 Cambridge Crystallographic Data Centre
#                                CCDC
#
#######################################################################
#
# If this CIF has been generated from an entry in the Cambridge
# Structural Database, then it will include bibliographic, chemical,
# crystal, experimental, refinement or atomic coordinate data resulting
# from the CCDC's data processing and validation procedures.
#
#######################################################################

data_CSD_CIF_WIRGEJ
_audit_creation_date 1996-09-23
_audit_creation_method CSD-ConQuest-V1
_database_code_CSD WIRGEJ
_database_code_depnum_ccdc_archive 'CCDC 126990'
_chemical_formula_sum 'C12 H44 Co1 N8 O16 P3'
_chemical_formula_moiety
;
C12 H30 Co1 N8 3+,H2 O10 P3 3-,6(H2 O1)
;
_journal_coeditor_code "IUCr PT1022"
_journal_coden_Cambridge 591
_journal_volume 52
_journal_year 1996
_journal_page_first 1624
_journal_name_full 'Acta Crystallogr.,Sect.C:Cryst.Struct.Commun. '
loop_
_publ_author_name
"A.Bacchi"
"F.Ferranti"
"G.Pelizzi"
_chemical_name_systematic
;
(1,3,6,8,10,13,16,19-Octa-azabicyclo(6.6.6)icosane)-cobalt(iii) 
dihydrogentriphosphate hexahydrate
;
_chemical_name_common
;
Cobalt(iii) sepulchrate dihydrogentriphosphate hexahydrate
;
_cell_volume    714.651
_exptl_crystal_colour 'orange'
_exptl_crystal_density_diffrn 1.646
_exptl_special_details
;
Absolute configuration

;
_diffrn_ambient_temperature ?
_diffrn_special_details
;
The study was carried out at room temperature,in the range 283-303K

;
#These two values have been output from a single CSD field.
_refine_ls_R_factor_gt 0.0278
_refine_ls_wR_factor_gt 0.0278
_symmetry_cell_setting triclinic
_symmetry_space_group_name_H-M 'P 1'
_symmetry_Int_Tables_number 1
loop_
_symmetry_equiv_pos_site_id
_symmetry_equiv_pos_as_xyz
1 x,y,z
_cell_length_a 10.788(6)
_cell_length_b 8.748(4)
_cell_length_c 8.966(4)
_cell_angle_alpha 103.91(4)
_cell_angle_beta 111.14(3)
_cell_angle_gamma 103.85(5)
_cell_formula_units_Z 1
loop_
_atom_type_symbol
_atom_type_radius_bond
C 0.68
H 0.23
Co 1.33
N 0.68
O 0.64
P 1.05
loop_
_atom_site_label
_atom_site_type_symbol
_atom_site_fract_x
_atom_site_fract_y
_atom_site_fract_z
Co1 Co 0.00000 0.00000 0.00000
N1 N -0.0414(5) 0.0923(5) -0.1839(5)
N2 N -0.1604(4) 0.0408(5) 0.0390(5)
N3 N 0.1342(4) 0.2270(5) 0.1736(5)
N4 N -0.1252(4) -0.2218(5) -0.1810(5)
N5 N 0.0187(5) -0.1064(5) 0.1757(6)
N6 N 0.1723(5) -0.0330(5) -0.0120(6)
N7 N -0.0584(5) 0.3161(5) 0.0236(6)
N8 N 0.0615(5) -0.3153(5) -0.0193(6)
C1 C -0.0615(7) 0.2597(7) -0.1405(7)
C2 C -0.1724(6) 0.2102(7) 0.0418(9)
C3 C 0.0785(6) 0.3675(6) 0.1651(8)
C4 C -0.1660(6) -0.0407(7) -0.3403(6)
C5 C -0.1582(6) 0.0061(7) 0.1933(7)
C6 C 0.2718(5) 0.2607(6) 0.1641(7)
C7 C -0.1479(6) -0.2054(7) -0.3484(6)
C8 C 0.2998(5) 0.0976(6) 0.1400(7)
C9 C -0.1162(6) -0.1443(6) 0.1925(7)
C10 C 0.1742(6) -0.2080(6) -0.0347(8)
C11 C -0.0776(6) -0.3668(7) -0.1581(7)
C12 C 0.0639(7) -0.2559(7) 0.1469(8)
P1 P 0.4634(1) 0.6353(1) 0.7025(1)
P2 P 0.5330(1) 0.3364(1) 0.7198(2)
P3 P 0.2364(1) 0.1906(1) 0.6592(1)
O1 O 0.6066(3) 0.7675(4) 0.7838(5)
O2 O 0.3864(3) 0.6216(4) 0.8122(4)
O3 O 0.3638(3) 0.6514(4) 0.5358(4)
O4 O 0.4717(3) 0.4551(4) 0.6246(4)
O5 O 0.5579(4) 0.2167(5) 0.5973(6)
O6 O 0.6502(4) 0.4384(5) 0.8914(5)
O7 O 0.4041(3) 0.2386(5) 0.7504(5)
O8 O 0.1706(4) 0.0445(4) 0.6985(4)
O9 O 0.1889(4) 0.1649(6) 0.4772(5)
O10 O 0.2129(4) 0.3461(5) 0.7555(6)
O11 O 0.4442(5) -0.1259(6) 0.4208(6)
O12 O -0.0275(5) 0.4069(6) 0.5106(6)
O13 O 0.1154(4) 0.7166(5) 0.5184(5)
O14 O 0.6718(6) 0.2793(9) 0.3729(7)
O15 O 0.6482(10) 0.5142(10) 0.2092(9)
O16 O 0.5291(8) 0.7492(8) 0.1814(7)
H1 H 0.0218(87) 0.351(11) -0.135(10)
H2 H -0.1472(87) 0.254(10) -0.215(10)
H3 H -0.2576(91) 0.194(10) -0.042(11)
H4 H -0.1792(85) 0.267(11) 0.153(11)
H5 H 0.0852(83) 0.411(10) 0.278(10)
H6 H 0.1382(84) 0.426(11) 0.1434(98)
H7 H -0.1571(84) 0.012(10) -0.424(11)
H8 H -0.2450(89) -0.032(10) -0.3185(97)
H9 H -0.2438(87) 0.005(10) 0.1800(98)
H10 H -0.0859(87) 0.101(11) 0.286(11)
H11 H 0.2497(82) 0.298(10) 0.065(10)
H12 H 0.3426(84) 0.352(11) 0.283(10)
H13 H -0.2389(83) -0.295(10) -0.448(10)
H14 H -0.0685(87) -0.207(10) -0.362(10)
H15 H 0.3905(83) 0.112(10) 0.1336(97)
H16 H 0.3114(81) 0.07(1) 0.242(10)
H17 H -0.188(8) -0.233(11) 0.1031(98)
H18 H -0.0973(81) -0.159(10) 0.285(10)
H19 H 0.1528(82) -0.266(10) -0.155(10)
H20 H 0.2418(91) -0.201(10) 0.064(11)
H21 H -0.1388(86) -0.457(11) -0.147(10)
H22 H -0.0545(84) -0.418(10) -0.255(10)
H23 H -0.0093(85) -0.352(11) 0.1405(98)
H24 H 0.1536(84) -0.228(10) 0.2387(98)
H25 H 0.0392(87) 0.113(11) -0.208(10)
H26 H -0.2414(89) -0.033(10) -0.050(11)
H27 H 0.1403(80) 0.237(10) 0.264(11)
H28 H -0.2029(91) -0.242(10) -0.185(10)
H29 H 0.0825(91) -0.040(11) 0.256(11)
H30 H 0.1728(84) -0.017(10) -0.113(10)
H31 H 0.402(7) 0.7374(89) 0.5030(82)
H32 H 0.2972(70) 0.4902(89) 0.8031(82)
H33 H 0.4962(78) -0.041(10) 0.4783(98)
H34 H 0.4951(77) -0.1363(90) 0.3727(90)
H35 H 0.0212(71) 0.5174(90) 0.5177(85)
H36 H 0.0408(77) 0.3798(91) 0.5617(90)
H37 H 0.2059(78) 0.7173(87) 0.5449(86)
H38 H 0.1475(71) 0.8175(95) 0.5843(88)
H39 H 0.7447(81) 0.2730(88) 0.4113(89)
H40 H 0.6589(73) 0.2763(90) 0.4557(88)
H41 H 0.6500(72) 0.4741(91) 0.1110(97)
H42 H 0.6764(74) 0.4646(92) 0.2696(96)
H43 H 0.4849(67) 0.6951(85) 0.0234(81)
H44 H 0.4475(81) 0.6673(94) 0.1530(88)
#END
