
#######################################################################
#
#                 Cambridge Crystallographic Data Centre
#                                CCDC
#
#######################################################################
#
# If this CIF has been generated from an entry in the Cambridge
# Structural Database, then it will include bibliographic, chemical,
# crystal, experimental, refinement or atomic coordinate data resulting
# from the CCDC's data processing and validation procedures.
#
#######################################################################

data_CSD_CIF_WITBAF
_audit_creation_date 2018-10-29
_audit_creation_method CSD-ConQuest-V1
_database_code_CSD WITBAF
_database_code_depnum_ccdc_archive 'CCDC 1840811'
_chemical_formula_sum 'C15 H19 Cl2 Co1 N3 S1'
_chemical_formula_moiety
;
C15 H19 Cl2 Co1 N3 S1
;
_journal_coden_Cambridge 155
_journal_volume 486
_journal_year 2019
_journal_page_first 135
_journal_name_full 'Inorg.Chim.Acta '
loop_
_publ_author_name
"Feng Jiang"
"M.A.Siegler"
"E.Bouwman"
_chemical_name_systematic
;
dichloro-{2-(methylsulfanyl)-N,N-bis[(pyridin-2-yl)methyl]ethan-1-amine}-cobal
t(ii)
;
_cell_volume   1748.579
_exptl_crystal_colour 'blue purple'
_exptl_crystal_density_diffrn 1.532
_exptl_crystal_description 'small block'
_diffrn_ambient_temperature 110
#These two values have been output from a single CSD field.
_refine_ls_R_factor_gt 0.0201
_refine_ls_wR_factor_gt 0.0201
_symmetry_cell_setting monoclinic
_symmetry_space_group_name_H-M 'C c'
_symmetry_Int_Tables_number 9
loop_
_symmetry_equiv_pos_site_id
_symmetry_equiv_pos_as_xyz
1 x,y,z
2 x,-y,1/2+z
3 1/2+x,1/2+y,z
4 1/2+x,1/2-y,1/2+z
_cell_length_a 11.2309(3)
_cell_length_b 11.5965(3)
_cell_length_c 13.6869(3)
_cell_angle_alpha 90
_cell_angle_beta 101.207(3)
_cell_angle_gamma 90
_cell_formula_units_Z 4
loop_
_atom_type_symbol
_atom_type_radius_bond
C 0.68
H 0.23
Cl 0.99
Co 1.26
N 0.68
S 1.02
loop_
_atom_site_label
_atom_site_type_symbol
_atom_site_fract_x
_atom_site_fract_y
_atom_site_fract_z
Co1 Co 0.81103(2) 0.76421(2) 0.80628(2)
Cl1 Cl 0.83497(5) 0.57140(5) 0.77404(5)
Cl2 Cl 0.66612(6) 0.75989(5) 0.90455(5)
S1 S 1.30095(6) 0.68748(6) 0.72510(6)
C1 C 1.0622(2) 0.7347(2) 0.73124(19)
H1 H 1.03160 0.65810 0.70630
H2 H 1.09620 0.72670 0.80330
C2 C 1.1650(2) 0.7693(2) 0.6784(2)
H3 H 1.18230 0.85260 0.68880
H4 H 1.13930 0.75580 0.60600
C3 C 1.3470(3) 0.7548(3) 0.8450(2)
H5 H 1.35830 0.83760 0.83620
H6 H 1.42350 0.72060 0.87950
H7 H 1.28420 0.74270 0.88470
C4 C 1.0222(2) 0.91369(19) 0.87582(18)
C5 C 1.1214(2) 0.9632(2) 0.93793(19)
H8 H 1.17630 1.01100 0.91170
C6 C 1.1383(2) 0.9412(2) 1.0394(2)
H9 H 1.20630 0.97260 1.08370
C7 C 1.0553(2) 0.8732(2) 1.07549(18)
H10 H 1.06520 0.85780 1.14480
C8 C 0.9580(2) 0.82809(19) 1.00952(19)
H11 H 0.90050 0.78240 1.03460
C9 C 0.9955(2) 0.92895(19) 0.76478(18)
H12 H 0.92980 0.98620 0.74530
H13 H 1.06870 0.95710 0.74200
C10 C 0.7707(2) 0.8776(2) 0.60732(19)
C11 C 0.7129(2) 0.9369(2) 0.5234(2)
H14 H 0.75380 0.95200 0.47020
C12 C 0.5941(2) 0.9739(2) 0.5184(2)
H15 H 0.55170 1.01280 0.46100
C13 C 0.5389(2) 0.9531(2) 0.5982(2)
H16 H 0.45780 0.97770 0.59660
C14 C 0.6030(2) 0.8961(2) 0.6809(2)
H17 H 0.56510 0.88370 0.73630
C15 C 0.8964(2) 0.8273(2) 0.61416(18)
H18 H 0.89020 0.75070 0.58180
H19 H 0.94470 0.87800 0.57850
N1 N 0.95797(17) 0.81594(16) 0.71880(14)
N2 N 0.94172(17) 0.84657(17) 0.91094(15)
N3 N 0.71687(18) 0.85760(18) 0.68564(16)
#END
