
#######################################################################
#
#                 Cambridge Crystallographic Data Centre
#                                CCDC
#
#######################################################################
#
# If this CIF has been generated from an entry in the Cambridge
# Structural Database, then it will include bibliographic, chemical,
# crystal, experimental, refinement or atomic coordinate data resulting
# from the CCDC's data processing and validation procedures.
#
#######################################################################

data_CSD_CIF_WITDOS
_audit_creation_date 2000-11-09
_audit_creation_method CSD-ConQuest-V1
_database_code_CSD WITDOS
_database_code_depnum_ccdc_archive 'CCDC 132876'
_chemical_formula_sum 'C16 H13 Cr1 O4'
_chemical_formula_moiety
;
C12 H12 Cr1 1+,C4 H1 O4 1-
;
_journal_coden_Cambridge 1220
_journal_volume 6
_journal_year 2000
_journal_page_first 1310
_journal_name_full 'Chem.-Eur.J. '
loop_
_publ_author_name
"D.Braga"
"L.Maini"
"L.Prodi"
"A.Caneschi"
"R.Sessoli"
"F.Grepioni"
_chemical_name_systematic
;
bis(\h^6^-Benzene)-chromium monohydrogen squarate
;
_cell_volume   1271.038
_exptl_crystal_colour 'orange'
_exptl_crystal_density_diffrn 1.676
_exptl_crystal_preparation 'nitromethane'
_diffrn_ambient_temperature 150
_refine_special_details
;
The protons, H30 and H40, appear to be disordered over two sites, and are 
sited on special positions.
;
#These two values have been output from a single CSD field.
_refine_ls_R_factor_gt 0.0884
_refine_ls_wR_factor_gt 0.0884
_symmetry_cell_setting monoclinic
_symmetry_space_group_name_H-M 'C 2/m'
_symmetry_Int_Tables_number 12
loop_
_symmetry_equiv_pos_site_id
_symmetry_equiv_pos_as_xyz
1 x,y,z
2 1/2+x,1/2+y,z
3 x,-y,z
4 1/2+x,1/2-y,z
5 -x,-y,-z
6 -1/2-x,-1/2-y,-z
7 -x,y,-z
8 -1/2-x,-1/2+y,-z
_cell_length_a 11.47(1)
_cell_length_b 9.95(1)
_cell_length_c 11.139(5)
_cell_angle_alpha 90
_cell_angle_beta 91.06(6)
_cell_angle_gamma 90
_cell_formula_units_Z 4
loop_
_atom_type_symbol
_atom_type_radius_bond
C 0.68
H 0.23
Cr 1.35
O 0.68
loop_
_atom_site_label
_atom_site_type_symbol
_atom_site_fract_x
_atom_site_fract_y
_atom_site_fract_z
Cr1 Cr 0.13113(10) 0.00000 -0.24754(14)
C1 C 0.2437(3) 0.1605(4) -0.2900(5)
H1 H 0.31920 0.16040 -0.31930
C2 C 0.2260(3) 0.1596(5) -0.1669(4)
H2 H 0.28960 0.15880 -0.11390
C3 C 0.1133(4) 0.1599(5) -0.1232(3)
H3 H 0.10140 0.15930 -0.04080
C4 C 0.0183(3) 0.1610(5) -0.2025(5)
H4 H -0.05710 0.16120 -0.17320
C5 C 0.0361(3) 0.1620(5) -0.3256(4)
H5 H -0.02750 0.16280 -0.37870
C6 C 0.1488(4) 0.1617(5) -0.3694(3)
H6 H 0.16060 0.16230 -0.45170
C7 C -0.3092(7) 0.00000 -0.1760(9)
O1 O -0.2369(5) 0.00000 -0.0975(6)
C8 C -0.3103(7) 0.00000 -0.3131(9)
O2 O -0.2341(5) 0.00000 -0.3865(7)
C9 C -0.4398(6) 0.00000 -0.3112(9)
O3 O -0.5220(5) 0.00000 -0.3920(6)
H7? H -0.50000 0.00000 -0.50000
C10 C -0.4412(7) 0.00000 -0.1860(8)
O4 O -0.5227(5) 0.00000 -0.1090(6)
H8? H -0.50000 0.00000 0.00000
C1B C 0.2437(3) -0.1605(4) -0.2900(5)
H1B H 0.31920 -0.16040 -0.31930
C2B C 0.2260(3) -0.1596(5) -0.1669(4)
C3B C 0.1133(4) -0.1599(5) -0.1232(3)
H2B H 0.28960 -0.15880 -0.11390
H3B H 0.10140 -0.15930 -0.04080
C4B C 0.0183(3) -0.1610(5) -0.2025(5)
C5B C 0.0361(3) -0.1620(5) -0.3256(4)
H4B H -0.05710 -0.16120 -0.17320
H5B H -0.02750 -0.16280 -0.37870
C6B C 0.1488(4) -0.1617(5) -0.3694(3)
H6B H 0.16060 -0.16230 -0.45170
#END
