
#######################################################################
#
#                 Cambridge Crystallographic Data Centre
#                                CCDC
#
#######################################################################
#
# If this CIF has been generated from an entry in the Cambridge
# Structural Database, then it will include bibliographic, chemical,
# crystal, experimental, refinement or atomic coordinate data resulting
# from the CCDC's data processing and validation procedures.
#
#######################################################################

data_CSD_CIF_WITHIT
_audit_creation_date 2019-02-20
_audit_creation_method CSD-ConQuest-V1
_database_code_CSD WITHIT
_database_code_depnum_ccdc_archive 'CCDC 1575035'
_chemical_formula_sum 'C24 H34 Co1 N14 O6'
_chemical_formula_moiety
;
C24 H30 Co1 N14 O4,2(H2 O1)
;
_journal_coden_Cambridge 82
_journal_volume 59
_journal_year 2018
_journal_page_first 1412
_journal_name_full 'Zh.Strukt.Khim.(Russ.)(J.Struct.Chem.) '
loop_
_publ_author_name
"G.V.Romanenko"
"E.Yu.Fursova"
"G.A.Letyagin"
"A.S.Bogomyakov"
"M.V.Petrova"
"V.A.Morozov"
"V.I.Ovcharenko"
_chemical_name_systematic
;
bis(2-(imidazol-4-yl)-4,4,5,5-tetramethyl-4,5-dihydro-1H-imidazole 3-oxide 
1-oxyl radical)-bis(dicyanamido)-cobalt dihydrate
;
_cell_volume    775.032
_exptl_crystal_colour 'green blue'
_exptl_crystal_density_diffrn 1.443
_exptl_crystal_description 'plate'
_diffrn_ambient_temperature 210
#These two values have been output from a single CSD field.
_refine_ls_R_factor_gt 0.048
_refine_ls_wR_factor_gt 0.048
_symmetry_cell_setting triclinic
_symmetry_space_group_name_H-M 'P -1'
_symmetry_Int_Tables_number 2
loop_
_symmetry_equiv_pos_site_id
_symmetry_equiv_pos_as_xyz
1 x,y,z
2 -x,-y,-z
_cell_length_a 8.0459(7)
_cell_length_b 8.6721(7)
_cell_length_c 11.6778(10)
_cell_angle_alpha 92.754(5)
_cell_angle_beta 103.315(4)
_cell_angle_gamma 100.897(5)
_cell_formula_units_Z 1
loop_
_atom_type_symbol
_atom_type_radius_bond
C 0.68
H 0.23
Co 1.26
N 0.68
O 0.68
loop_
_atom_site_label
_atom_site_type_symbol
_atom_site_fract_x
_atom_site_fract_y
_atom_site_fract_z
Co1 Co 0.00000 0.00000 0.00000
N1 N 0.1673(3) 0.3821(3) -0.1558(2)
C1 C 0.1898(3) 0.3052(3) -0.0784(2)
N2 N 0.2010(3) 0.2063(2) 0.00439(17)
C2 C 0.3377(4) 0.2366(3) 0.0962(3)
N3 N 0.4491(4) 0.2524(3) 0.1804(3)
O1 O 0.1943(2) -0.1143(2) 0.07741(14)
N4 N 0.2382(2) -0.1419(2) 0.18804(16)
C3 C 0.3812(3) -0.2304(3) 0.2280(2)
C4 C 0.5518(4) -0.1123(4) 0.2361(3)
H1 H 0.548(4) -0.078(4) 0.156(3)
H2 H 0.648(4) -0.169(4) 0.258(3)
H3 H 0.568(4) -0.018(4) 0.302(3)
C5 C 0.3598(4) -0.3689(3) 0.1377(3)
H4 H 0.383(4) -0.328(4) 0.070(3)
H5 H 0.455(4) -0.431(4) 0.174(3)
H6 H 0.240(4) -0.432(4) 0.127(3)
C6 C 0.3509(3) -0.2744(3) 0.3509(2)
C7 C 0.2279(4) -0.4328(3) 0.3460(3)
H7 H 0.117(4) -0.442(3) 0.282(2)
H8 H 0.197(4) -0.444(3) 0.418(3)
H9 H 0.289(4) -0.523(4) 0.337(3)
C8 C 0.5154(4) -0.2630(4) 0.4487(2)
H10 H 0.590(4) -0.157(4) 0.461(3)
H11 H 0.581(4) -0.334(4) 0.426(3)
H12 H 0.482(4) -0.287(4) 0.521(3)
N5 N 0.2550(3) -0.1490(2) 0.37681(17)
O2 O 0.2276(3) -0.1206(2) 0.47884(14)
C9 C 0.1838(3) -0.0852(3) 0.27808(19)
C10 C 0.0719(3) 0.0267(3) 0.27432(19)
N6 N -0.0110(3) 0.0750(2) 0.16873(16)
C11 C -0.0969(3) 0.1795(3) 0.1976(2)
H13 H -0.167(4) 0.236(3) 0.144(2)
N7 N -0.0725(3) 0.2015(3) 0.31552(17)
H14 H -0.123(4) 0.266(3) 0.352(3)
C12 C 0.0329(3) 0.1054(3) 0.3660(2)
H15 H 0.071(3) 0.103(3) 0.451(3)
O3 O -0.2558(3) 0.4391(3) 0.34505(17)
H16 H -0.347(5) 0.378(5) 0.305(3)
H17 H -0.221(4) 0.497(4) 0.303(3)
N1A N -0.1673(3) -0.3821(3) 0.1558(2)
C1A C -0.1898(3) -0.3052(3) 0.0784(2)
N2A N -0.2010(3) -0.2063(2) -0.00439(17)
C2A C -0.3377(4) -0.2366(3) -0.0962(3)
N3A N -0.4491(4) -0.2524(3) -0.1804(3)
O1A O -0.1943(2) 0.1143(2) -0.07741(14)
N4A N -0.2382(2) 0.1419(2) -0.18804(16)
C3A C -0.3812(3) 0.2304(3) -0.2280(2)
C4A C -0.5518(4) 0.1123(4) -0.2361(3)
H1A H -0.548(4) 0.078(4) -0.156(3)
H2A H -0.648(4) 0.169(4) -0.258(3)
H3A H -0.568(4) 0.018(4) -0.302(3)
C5A C -0.3598(4) 0.3689(3) -0.1377(3)
H4A H -0.383(4) 0.328(4) -0.070(3)
H5A H -0.455(4) 0.431(4) -0.174(3)
H6A H -0.240(4) 0.432(4) -0.127(3)
C6A C -0.3509(3) 0.2744(3) -0.3509(2)
C7A C -0.2279(4) 0.4328(3) -0.3460(3)
H7A H -0.117(4) 0.442(3) -0.282(2)
H8A H -0.197(4) 0.444(3) -0.418(3)
H9A H -0.289(4) 0.523(4) -0.337(3)
C8A C -0.5154(4) 0.2630(4) -0.4487(2)
H10A H -0.590(4) 0.157(4) -0.461(3)
H11A H -0.581(4) 0.334(4) -0.426(3)
H12A H -0.482(4) 0.287(4) -0.521(3)
N5A N -0.2550(3) 0.1490(2) -0.37681(17)
O2A O -0.2276(3) 0.1206(2) -0.47884(14)
C9A C -0.1838(3) 0.0852(3) -0.27808(19)
C10A C -0.0719(3) -0.0267(3) -0.27432(19)
N6A N 0.0110(3) -0.0750(2) -0.16873(16)
C11A C 0.0969(3) -0.1795(3) -0.1976(2)
H13A H 0.167(4) -0.236(3) -0.144(2)
N7A N 0.0725(3) -0.2015(3) -0.31552(17)
H14A H 0.123(4) -0.266(3) -0.352(3)
C12A C -0.0329(3) -0.1054(3) -0.3660(2)
H15A H -0.071(3) -0.103(3) -0.451(3)
#END
