
#######################################################################
#
#                 Cambridge Crystallographic Data Centre
#                                CCDC
#
#######################################################################
#
# If this CIF has been generated from an entry in the Cambridge
# Structural Database, then it will include bibliographic, chemical,
# crystal, experimental, refinement or atomic coordinate data resulting
# from the CCDC's data processing and validation procedures.
#
#######################################################################

data_CSD_CIF_WIWBIO
_audit_creation_date 2008-07-15
_audit_creation_method CSD-ConQuest-V1
_database_code_CSD WIWBIO
_database_code_depnum_ccdc_archive 'CCDC 644859'
_chemical_formula_sum 'C20 H20 Co1 N2 O8'
_chemical_formula_moiety
;
C20 H20 Co1 N2 O8
;
_journal_coden_Cambridge 155
_journal_volume 361
_journal_year 2008
_journal_page_first 1555
_journal_name_full 'Inorg.Chim.Acta '
loop_
_publ_author_name
"Miao Du"
"Ru-Qiang Zou"
"Rui-Qin Zhong"
"Qiang Xu"
_chemical_name_systematic
;
Tetra-aqua-bis(quinoline-6-carboxylate-N)-cobalt(ii)
;
_cell_volume    466.477
_exptl_crystal_colour 'purple'
_exptl_crystal_density_diffrn 1.692
_exptl_special_details
;
isomorphous with the iron(ii) and nickel(ii) analogues

;
_exptl_crystal_description 'Strip'
_diffrn_ambient_temperature 293
#These two values have been output from a single CSD field.
_refine_ls_R_factor_gt 0.0289
_refine_ls_wR_factor_gt 0.0289
_symmetry_cell_setting triclinic
_symmetry_space_group_name_H-M 'P -1'
_symmetry_Int_Tables_number 2
loop_
_symmetry_equiv_pos_site_id
_symmetry_equiv_pos_as_xyz
1 x,y,z
2 -x,-y,-z
_cell_length_a 7.076(1)
_cell_length_b 7.893(2)
_cell_length_c 9.764(2)
_cell_angle_alpha 75.27(3)
_cell_angle_beta 73.77(3)
_cell_angle_gamma 64.38(3)
_cell_formula_units_Z 1
loop_
_atom_type_symbol
_atom_type_radius_bond
C 0.68
H 0.23
Co 1.33
N 0.68
O 0.68
loop_
_atom_site_label
_atom_site_type_symbol
_atom_site_fract_x
_atom_site_fract_y
_atom_site_fract_z
Co1 Co 0.00000 1.00000 1.00000
C1 C 0.1572(3) 0.6949(2) 0.81441(16)
H1 H 0.13020 0.63180 0.90740
C2 C 0.2315(3) 0.5909(2) 0.69963(18)
H2 H 0.25150 0.46350 0.71700
C3 C 0.2740(2) 0.6797(2) 0.56262(17)
H3 H 0.32000 0.61420 0.48490
C4 C 0.2476(2) 0.8723(2) 0.53941(15)
C5 C 0.1677(2) 0.9683(2) 0.66123(15)
C6 C 0.1361(2) 1.1625(2) 0.63872(15)
H4 H 0.07890 1.22940 0.71640
C7 C 0.1894(2) 1.2512(2) 0.50374(16)
H5 H 0.17100 1.37780 0.49120
C8 C 0.2724(2) 1.1562(2) 0.38141(15)
C9 C 0.2974(2) 0.9702(2) 0.40023(15)
H6 H 0.34770 0.90750 0.32060
C10 C 0.3232(2) 1.2654(2) 0.23485(16)
N1 N 0.1227(2) 0.87732(18) 0.79890(13)
O1 O 0.2758(3) 1.43719(19) 0.22839(15)
O2 O 0.41095(18) 1.17486(17) 0.12825(11)
O3 O 0.22151(17) 1.13852(16) 0.93446(11)
H7 H 0.31780 1.06940 0.89740
H8 H 0.25260 1.16400 0.99750
O4 O 0.25649(17) 0.77130(16) 1.08033(12)
H9 H 0.25430 0.67510 1.13100
H10 H 0.36670 0.76990 1.02550
C1A C -0.1572(3) 1.3051(2) 1.18559(16)
H1A H -0.13020 1.36820 1.09260
C2A C -0.2315(3) 1.4091(2) 1.30037(18)
H2A H -0.25150 1.53650 1.28300
C3A C -0.2740(2) 1.3203(2) 1.43738(17)
H3A H -0.32000 1.38580 1.51510
C4A C -0.2476(2) 1.1277(2) 1.46059(15)
C5A C -0.1677(2) 1.0317(2) 1.33877(15)
C6A C -0.1361(2) 0.8375(2) 1.36128(15)
H4A H -0.07890 0.77060 1.28360
C7A C -0.1894(2) 0.7488(2) 1.49626(16)
H5A H -0.17100 0.62220 1.50880
C8A C -0.2724(2) 0.8438(2) 1.61859(15)
C9A C -0.2974(2) 1.0298(2) 1.59977(15)
H6A H -0.34770 1.09250 1.67940
C10A C -0.3232(2) 0.7346(2) 1.76515(16)
N1A N -0.1227(2) 1.12268(18) 1.20110(13)
O1A O -0.2758(3) 0.56281(19) 1.77161(15)
O2A O -0.41095(18) 0.82514(17) 1.87175(11)
O3A O -0.22151(17) 0.86148(16) 1.06554(11)
H7A H -0.31780 0.93060 1.10260
H8A H -0.25260 0.83600 1.00250
O4A O -0.25649(17) 1.22870(16) 0.91967(12)
H9A H -0.25430 1.32490 0.86900
H10A H -0.36670 1.23010 0.97450
#END
