
#######################################################################
#
#                 Cambridge Crystallographic Data Centre
#                                CCDC
#
#######################################################################
#
# If this CIF has been generated from an entry in the Cambridge
# Structural Database, then it will include bibliographic, chemical,
# crystal, experimental, refinement or atomic coordinate data resulting
# from the CCDC's data processing and validation procedures.
#
#######################################################################

data_CSD_CIF_WIWBEK
_audit_creation_date 2008-07-15
_audit_creation_method CSD-ConQuest-V1
_database_code_CSD WIWBEK
_database_code_depnum_ccdc_archive 'CCDC 644858'
_chemical_formula_sum 'C20 H20 Fe1 N2 O8'
_chemical_formula_moiety
;
C20 H20 Fe1 N2 O8
;
_journal_coden_Cambridge 155
_journal_volume 361
_journal_year 2008
_journal_page_first 1555
_journal_name_full 'Inorg.Chim.Acta '
loop_
_publ_author_name
"Miao Du"
"Ru-Qiang Zou"
"Rui-Qin Zhong"
"Qiang Xu"
_chemical_name_systematic
;
Tetra-aqua-bis(quinoline-6-carboxylate-N)-iron(ii)
;
_cell_volume    465.680
_exptl_crystal_colour 'dark brown'
_exptl_crystal_density_diffrn 1.684
_exptl_special_details
;
isomorphous with the cobalt(ii) and nickel(ii) analogues

;
_exptl_crystal_description 'Strip'
_diffrn_ambient_temperature 293
#These two values have been output from a single CSD field.
_refine_ls_R_factor_gt 0.026
_refine_ls_wR_factor_gt 0.026
_symmetry_cell_setting triclinic
_symmetry_space_group_name_H-M 'P -1'
_symmetry_Int_Tables_number 2
loop_
_symmetry_equiv_pos_site_id
_symmetry_equiv_pos_as_xyz
1 x,y,z
2 -x,-y,-z
_cell_length_a 7.0752(14)
_cell_length_b 7.8861(16)
_cell_length_c 9.756(2)
_cell_angle_alpha 75.34(3)
_cell_angle_beta 73.82(3)
_cell_angle_gamma 64.34(3)
_cell_formula_units_Z 1
loop_
_atom_type_symbol
_atom_type_radius_bond
C 0.68
H 0.23
Fe 1.34
N 0.68
O 0.68
loop_
_atom_site_label
_atom_site_type_symbol
_atom_site_fract_x
_atom_site_fract_y
_atom_site_fract_z
Fe1 Fe 0.00000 1.00000 1.00000
C1 C 0.1575(4) 0.6949(3) 0.8142(3)
H1 H 0.13120 0.63180 0.90730
C2 C 0.2310(4) 0.5903(3) 0.7001(3)
H2 H 0.25030 0.46290 0.71750
C3 C 0.2741(4) 0.6804(3) 0.5616(3)
H3 H 0.32010 0.61550 0.48340
C4 C 0.2475(3) 0.8718(3) 0.5401(2)
C5 C 0.1674(3) 0.9692(3) 0.6608(2)
C6 C 0.1358(3) 1.1625(3) 0.6393(2)
H4 H 0.07840 1.22920 0.71720
C7 C 0.1898(4) 1.2521(3) 0.5035(2)
H5 H 0.17180 1.37870 0.49110
C8 C 0.2721(3) 1.1568(3) 0.3819(2)
C9 C 0.2980(3) 0.9710(3) 0.3997(2)
H6 H 0.34890 0.90850 0.31980
C10 C 0.3237(4) 1.2649(3) 0.2348(2)
N1 N 0.1229(3) 0.8761(3) 0.7993(2)
O1 O 0.2762(4) 1.4369(3) 0.2289(2)
O2 O 0.4109(3) 1.1738(3) 0.12825(19)
O3 O 0.2218(3) 1.1382(2) 0.93469(18)
H7 H 0.32670 1.06880 0.88360
H8 H 0.25930 1.15550 1.00110
O4 O 0.2569(3) 0.7709(3) 1.08042(19)
H9 H 0.26750 0.66060 1.11470
H10 H 0.36320 0.77100 1.01870
C1A C -0.1575(4) 1.3051(3) 1.1858(3)
H1A H -0.13120 1.36820 1.09270
C2A C -0.2310(4) 1.4097(3) 1.2999(3)
H2A H -0.25030 1.53710 1.28250
C3A C -0.2741(4) 1.3196(3) 1.4384(3)
H3A H -0.32010 1.38450 1.51660
C4A C -0.2475(3) 1.1282(3) 1.4599(2)
C5A C -0.1674(3) 1.0308(3) 1.3392(2)
C6A C -0.1358(3) 0.8375(3) 1.3607(2)
H4A H -0.07840 0.77080 1.28280
C7A C -0.1898(4) 0.7479(3) 1.4965(2)
H5A H -0.17180 0.62130 1.50890
C8A C -0.2721(3) 0.8432(3) 1.6181(2)
C9A C -0.2980(3) 1.0290(3) 1.6003(2)
H6A H -0.34890 1.09150 1.68020
C10A C -0.3237(4) 0.7351(3) 1.7652(2)
N1A N -0.1229(3) 1.1239(3) 1.2007(2)
O1A O -0.2762(4) 0.5631(3) 1.7711(2)
O2A O -0.4109(3) 0.8262(3) 1.87175(19)
O3A O -0.2218(3) 0.8618(2) 1.06531(18)
H7A H -0.32670 0.93120 1.11640
H8A H -0.25930 0.84450 0.99890
O4A O -0.2569(3) 1.2291(3) 0.91958(19)
H9A H -0.26750 1.33940 0.88530
H10A H -0.36320 1.22900 0.98130
#END
