
#######################################################################
#
#                 Cambridge Crystallographic Data Centre
#                                CCDC
#
#######################################################################
#
# If this CIF has been generated from an entry in the Cambridge
# Structural Database, then it will include bibliographic, chemical,
# crystal, experimental, refinement or atomic coordinate data resulting
# from the CCDC's data processing and validation procedures.
#
#######################################################################

data_CSD_CIF_WIYGOA
_audit_creation_date 2000-11-21
_audit_creation_method CSD-ConQuest-V1
_database_code_CSD WIYGOA
_database_code_depnum_ccdc_archive 'CCDC 128885'
_chemical_formula_sum 'C8 H24 Cl2 Fe1 N8 O12 S2'
_chemical_formula_moiety
;
C8 H20 Fe1 N8 O2 S2 2+,2(Cl1 O4 1-),2(H2 O1)
;
_journal_coden_Cambridge 155
_journal_volume 300
_journal_year 2000
_journal_page_first 1082
_journal_name_full 'Inorg.Chim.Acta '
loop_
_publ_author_name
"T.W.Kajdan"
"P.J.Squattrito"
"S.N.Dubey"
_chemical_name_systematic
;
trans-Diaqua-bis(4-amino-3-ethyl-1,2,4-triazole-5-thione-N,S)-iron(ii) 
diperchlorate dihydrate
;
_cell_volume    580.672
_exptl_crystal_colour 'pale green'
_exptl_crystal_density_diffrn 1.759
_exptl_special_details
;
crystals turn yellowish-brown and cloudy when left in air

;
_exptl_crystal_description 'needle'
_diffrn_ambient_temperature ?
_diffrn_special_details
;
The study was carried out at room temperature,in the range 283-303K

;
#These two values have been output from a single CSD field.
_refine_ls_R_factor_gt 0.036
_refine_ls_wR_factor_gt 0.036
_symmetry_cell_setting triclinic
_symmetry_space_group_name_H-M 'P -1'
_symmetry_Int_Tables_number 2
loop_
_symmetry_equiv_pos_site_id
_symmetry_equiv_pos_as_xyz
1 x,y,z
2 -x,-y,-z
_cell_length_a 8.336(1)
_cell_length_b 9.916(2)
_cell_length_c 7.835(2)
_cell_angle_alpha 99.09(2)
_cell_angle_beta 103.92(1)
_cell_angle_gamma 107.50(1)
_cell_formula_units_Z 1
loop_
_atom_type_symbol
_atom_type_radius_bond
C 0.68
H 0.23
Cl 0.99
Fe 1.34
N 0.68
O 0.68
S 1.02
loop_
_atom_site_label
_atom_site_type_symbol
_atom_site_fract_x
_atom_site_fract_y
_atom_site_fract_z
Fe1 Fe 0.00000 0.00000 0.00000
S1 S 0.20087(10) 0.25324(9) 0.0398(1)
O1 O -0.1434(3) -0.0004(3) -0.2600(3)
N1 N -0.1518(3) 0.1150(3) 0.1337(4)
N2 N -0.0748(3) 0.2683(3) 0.1669(3)
N3 N 0.1088(3) 0.4752(3) 0.1887(4)
N4 N -0.0204(3) 0.5034(3) 0.2564(3)
C1 C 0.0799(4) 0.3336(3) 0.1332(4)
C2 C -0.1320(4) 0.3735(3) 0.2413(4)
C3 C -0.2973(4) 0.3386(4) 0.2937(5)
C4 C -0.3460(5) 0.4709(4) 0.3469(6)
H1 H -0.114(5) 0.067(4) -0.305(5)
H2 H -0.237(5) -0.047(4) -0.307(5)
H3 H -0.150(4) 0.097(3) 0.234(4)
H4 H -0.258(4) 0.092(3) 0.058(4)
H5 H 0.186(4) 0.547(3) 0.184(4)
H6 H -0.394(4) 0.270(3) 0.193(4)
H7 H -0.287(4) 0.289(3) 0.387(4)
H8 H -0.366(5) 0.518(4) 0.249(5)
H9 H -0.259(5) 0.547(4) 0.455(5)
H10 H -0.461(5) 0.431(4) 0.378(4)
Cl1 Cl 0.5054(1) 0.1731(1) 0.7354(1)
O2 O 0.5171(4) 0.0603(3) 0.8254(4)
O3 O 0.5911(4) 0.3143(3) 0.8606(4)
O4 O 0.3267(4) 0.1486(4) 0.6653(5)
O5 O 0.5839(7) 0.1681(4) 0.5992(6)
O6 O -0.0072(3) 0.1969(3) -0.4432(3)
H11 H 0.012(4) 0.282(4) -0.380(5)
H12 H 0.084(4) 0.189(4) -0.422(5)
S1A S -0.20087(10) -0.25324(9) -0.0398(1)
C1A C -0.0799(4) -0.3336(3) -0.1332(4)
N2A N 0.0748(3) -0.2683(3) -0.1669(3)
N1A N 0.1518(3) -0.1150(3) -0.1337(4)
O1A O 0.1434(3) 0.0004(3) 0.2600(3)
H1A H 0.114(5) -0.067(4) 0.305(5)
H2A H 0.237(5) 0.047(4) 0.307(5)
H3A H 0.150(4) -0.097(3) -0.234(4)
H4A H 0.258(4) -0.092(3) -0.058(4)
C2A C 0.1320(4) -0.3735(3) -0.2413(4)
N4A N 0.0204(3) -0.5034(3) -0.2564(3)
N3A N -0.1088(3) -0.4752(3) -0.1887(4)
H5A H -0.186(4) -0.547(3) -0.184(4)
C3A C 0.2973(4) -0.3386(4) -0.2937(5)
C4A C 0.3460(5) -0.4709(4) -0.3469(6)
H8A H 0.366(5) -0.518(4) -0.249(5)
H9A H 0.259(5) -0.547(4) -0.455(5)
H10A H 0.461(5) -0.431(4) -0.378(4)
H6A H 0.394(4) -0.270(3) -0.193(4)
H7A H 0.287(4) -0.289(3) -0.387(4)
#END
