
#######################################################################
#
#                 Cambridge Crystallographic Data Centre
#                                CCDC
#
#######################################################################
#
# If this CIF has been generated from an entry in the Cambridge
# Structural Database, then it will include bibliographic, chemical,
# crystal, experimental, refinement or atomic coordinate data resulting
# from the CCDC's data processing and validation procedures.
#
#######################################################################

data_CSD_CIF_WIYJEV
_audit_creation_date 2014-03-06
_audit_creation_method CSD-ConQuest-V1
_database_code_CSD WIYJEV
_database_code_depnum_ccdc_archive 'CCDC 982451'
_chemical_formula_sum 'C19 H38 Co1 N1 P2'
_chemical_formula_moiety
;
C19 H38 Co1 N1 P2
;
_journal_coden_Cambridge 1475
_journal_volume 5
_journal_year 2014
_journal_page_first 1956
_journal_name_full 'Chemical Science '
loop_
_publ_author_name
"S.P.Semproni"
"C.C.H.Atienza"
"P.J.Chirik"
_chemical_name_systematic
;
(2,6-bis((diisopropylphosphino)methyl)pyridine)-trihydrido-cobalt
;
_cell_volume   2137.078
_exptl_crystal_colour 'yellow'
_exptl_crystal_density_diffrn 1.247
_exptl_crystal_description 'plate'
_diffrn_ambient_temperature 105
#These two values have been output from a single CSD field.
_refine_ls_R_factor_gt 0.0272
_refine_ls_wR_factor_gt 0.0272
_symmetry_cell_setting monoclinic
_symmetry_space_group_name_H-M 'C 2/c'
_symmetry_Int_Tables_number 15
loop_
_symmetry_equiv_pos_site_id
_symmetry_equiv_pos_as_xyz
1 x,y,z
2 -x,y,1/2-z
3 1/2+x,1/2+y,z
4 1/2-x,1/2+y,1/2-z
5 -x,-y,-z
6 x,-y,-1/2+z
7 -1/2-x,-1/2-y,-z
8 -1/2+x,-1/2-y,-1/2+z
_cell_length_a 19.236(5)
_cell_length_b 9.591(5)
_cell_length_c 11.786(5)
_cell_angle_alpha 90
_cell_angle_beta 100.635(5)
_cell_angle_gamma 90
_cell_formula_units_Z 4
loop_
_atom_type_symbol
_atom_type_radius_bond
C 0.68
H 0.23
Co 1.26
N 0.68
P 1.05
loop_
_atom_site_label
_atom_site_type_symbol
_atom_site_fract_x
_atom_site_fract_y
_atom_site_fract_z
C1 C 0.08148(8) 0.04722(14) 0.61533(13)
H1 H 0.05640 0.05010 0.53410
H2 H 0.12860 0.00490 0.61710
C2 C 0.04015(7) -0.03875(15) 0.68635(12)
C3 C 0.04138(8) -0.18351(16) 0.68607(13)
H3 H 0.07050 -0.23190 0.64220
C4 C 0.00000 -0.2571(2) 0.75000
H4 H 0.00000 -0.35620 0.75000
C5 C 0.18227(8) 0.21881(16) 0.76269(14)
H5 H 0.21610 0.19460 0.71080
C6 C 0.20417(9) 0.35895(18) 0.82064(15)
H6 H 0.16860 0.38860 0.86540
H7 H 0.20780 0.42890 0.76140
H8 H 0.25010 0.34900 0.87220
C7 C 0.18571(9) 0.10482(18) 0.85479(14)
H9 H 0.23280 0.10450 0.90370
H10 H 0.17650 0.01390 0.81710
H11 H 0.15000 0.12330 0.90240
C8 C 0.09737(7) 0.33198(15) 0.54617(12)
H12 H 0.05420 0.30760 0.48820
C9 C 0.15976(9) 0.29777(17) 0.48818(15)
H13 H 0.15310 0.34290 0.41230
H14 H 0.16280 0.19660 0.47870
H15 H 0.20350 0.33190 0.53620
N1 N 0.00000 0.03339(17) 0.75000
P1 P 0.091626(19) 0.22636(4) 0.67509(3)
Co1 Co 0.00000 0.23824(3) 0.75000
C10 C 0.09179(8) 0.48852(15) 0.56729(15)
H16 H 0.13620 0.52210 0.61370
H17 H 0.05290 0.50620 0.60860
H18 H 0.08270 0.53770 0.49310
H19 H 0.0384(11) 0.2467(16) 0.8663(17)
H20 H 0.00000 0.376(3) 0.75000
C1A C -0.08148(8) 0.04722(14) 0.88467(13)
H1A H -0.05640 0.05010 0.96590
H2A H -0.12860 0.00490 0.88290
C2A C -0.04015(7) -0.03875(15) 0.81365(12)
C3A C -0.04138(8) -0.18351(16) 0.81393(13)
H3A H -0.07050 -0.23190 0.85780
C5A C -0.18227(8) 0.21881(16) 0.73731(14)
H5A H -0.21610 0.19460 0.78920
C6A C -0.20417(9) 0.35895(18) 0.67936(15)
H6A H -0.16860 0.38860 0.63460
H7A H -0.20780 0.42890 0.73860
H8A H -0.25010 0.34900 0.62780
C7A C -0.18571(9) 0.10482(18) 0.64521(14)
H9A H -0.23280 0.10450 0.59630
H10A H -0.17650 0.01390 0.68290
H11A H -0.15000 0.12330 0.59760
C8A C -0.09737(7) 0.33198(15) 0.95383(12)
H12A H -0.05420 0.30760 1.01180
C9A C -0.15976(9) 0.29777(17) 1.01182(15)
H13A H -0.15310 0.34290 1.08770
H14A H -0.16280 0.19660 1.02130
H15A H -0.20350 0.33190 0.96380
P1A P -0.091626(19) 0.22636(4) 0.82491(3)
C10A C -0.09179(8) 0.48852(15) 0.93271(15)
H16A H -0.13620 0.52210 0.88630
H17A H -0.05290 0.50620 0.89140
H18A H -0.08270 0.53770 1.00690
H19A H -0.0384(11) 0.2467(16) 0.6337(17)
#END
