
#######################################################################
#
#                 Cambridge Crystallographic Data Centre
#                                CCDC
#
#######################################################################
#
# If this CIF has been generated from an entry in the Cambridge
# Structural Database, then it will include bibliographic, chemical,
# crystal, experimental, refinement or atomic coordinate data resulting
# from the CCDC's data processing and validation procedures.
#
#######################################################################

data_CSD_CIF_WODKAB
_audit_creation_date 2000-11-21
_audit_creation_method CSD-ConQuest-V1
_database_code_CSD WODKAB
_database_code_depnum_ccdc_archive 'CCDC 149869'
_chemical_formula_sum 'C14 H16 Fe1 N2 O6'
_chemical_formula_moiety
;
C14 H16 Fe1 N2 O6
;
_journal_coden_Cambridge 4
_journal_volume 122
_journal_year 2000
_journal_page_first 7503
_journal_name_full 'J.Am.Chem.Soc. '
loop_
_publ_author_name
"S.Kiani"
"A.Tapper"
"R.J.Staples"
"P.Stavropoulos"
_chemical_name_systematic
;
bis(Methanol)-bis(picolinato)-iron(ii)
;
_cell_volume    767.158
_exptl_crystal_colour 'red-brown'
_exptl_crystal_density_diffrn 1.576
_exptl_crystal_description 'prismatic'
_diffrn_ambient_temperature 213
#These two values have been output from a single CSD field.
_refine_ls_R_factor_gt 0.0267
_refine_ls_wR_factor_gt 0.0267
_symmetry_cell_setting monoclinic
_symmetry_space_group_name_H-M 'P 21/n'
_symmetry_Int_Tables_number 14
loop_
_symmetry_equiv_pos_site_id
_symmetry_equiv_pos_as_xyz
1 x,y,z
2 1/2+x,1/2-y,1/2+z
3 -x,-y,-z
4 -1/2-x,-1/2+y,-1/2-z
_cell_length_a 9.048(2)
_cell_length_b 6.2370(7)
_cell_length_c 14.285(4)
_cell_angle_alpha 90
_cell_angle_beta 107.89(2)
_cell_angle_gamma 90
_cell_formula_units_Z 2
loop_
_atom_type_symbol
_atom_type_radius_bond
C 0.68
H 0.23
Fe 1.34
N 0.68
O 0.68
loop_
_atom_site_label
_atom_site_type_symbol
_atom_site_fract_x
_atom_site_fract_y
_atom_site_fract_z
Fe1 Fe 0.50000 0.00000 0.00000
O1 O 0.39000(12) -0.28138(17) -0.05316(8)
O2 O 0.20137(14) -0.50553(19) -0.04649(9)
O3 O 0.33369(13) 0.18115(19) -0.11947(8)
H1 H 0.292(2) 0.273(4) -0.0977(15)
N1 N 0.31933(15) -0.0055(2) 0.06874(9)
C1 C 0.2827(2) 0.1403(3) 0.12710(13)
H2 H 0.343(2) 0.265(3) 0.1400(12)
C2 C 0.1579(2) 0.1150(3) 0.16254(13)
H3 H 0.134(2) 0.230(3) 0.2027(12)
C3 C 0.0677(2) -0.0669(3) 0.13790(13)
H4 H -0.017(2) -0.085(3) 0.1609(13)
C4 C 0.1057(2) -0.2197(3) 0.07890(12)
H5 H 0.0506(19) -0.337(3) 0.0600(12)
C5 C 0.23084(17) -0.1830(2) 0.04483(11)
C6 C 0.27725(17) -0.3369(2) -0.02383(11)
C7 C 0.3707(3) 0.2623(4) -0.20328(15)
H6 H 0.409(2) 0.144(4) -0.2319(13)
H7 H 0.289(3) 0.321(4) -0.2493(15)
H8 H 0.448(3) 0.383(4) -0.1851(16)
O1B O 0.61000(12) 0.28138(17) 0.05316(8)
C6B C 0.72275(17) 0.3369(2) 0.02383(11)
O2B O 0.79863(14) 0.50553(19) 0.04649(9)
C5B C 0.76916(17) 0.1830(2) -0.04483(11)
N1B N 0.68067(15) 0.0055(2) -0.06874(9)
O3B O 0.66631(13) -0.18115(19) 0.11947(8)
H1B H 0.708(2) -0.273(4) 0.0977(15)
C7B C 0.6293(3) -0.2623(4) 0.20328(15)
H6B H 0.591(2) -0.144(4) 0.2319(13)
H7B H 0.711(3) -0.321(4) 0.2493(15)
H8B H 0.552(3) -0.383(4) 0.1851(16)
C1B C 0.7173(2) -0.1403(3) -0.12710(13)
H2B H 0.657(2) -0.265(3) -0.1400(12)
C2B C 0.8421(2) -0.1150(3) -0.16254(13)
H3B H 0.866(2) -0.230(3) -0.2027(12)
C3B C 0.9323(2) 0.0669(3) -0.13790(13)
H4B H 1.017(2) 0.085(3) -0.1609(13)
C4B C 0.8943(2) 0.2197(3) -0.07890(12)
H5B H 0.9494(19) 0.337(3) -0.0600(12)
#END
