
#######################################################################
#
#                 Cambridge Crystallographic Data Centre
#                                CCDC
#
#######################################################################
#
# If this CIF has been generated from an entry in the Cambridge
# Structural Database, then it will include bibliographic, chemical,
# crystal, experimental, refinement or atomic coordinate data resulting
# from the CCDC's data processing and validation procedures.
#
#######################################################################

data_CSD_CIF_WODKEF
_audit_creation_date 2000-11-21
_audit_creation_method CSD-ConQuest-V1
_database_code_CSD WODKEF
_database_code_depnum_ccdc_archive 'CCDC 149870'
_chemical_formula_sum 'C12 H12 Fe1 N2 O6'
_chemical_formula_moiety
;
C12 H8 Fe1 N2 O4,2(H2 O1)
;
_journal_coden_Cambridge 4
_journal_volume 122
_journal_year 2000
_journal_page_first 7503
_journal_name_full 'J.Am.Chem.Soc. '
loop_
_publ_author_name
"S.Kiani"
"A.Tapper"
"R.J.Staples"
"P.Stavropoulos"
_chemical_name_systematic
;
bis(Picolinato)-iron(ii) dihydrate
;
_cell_volume    328.168
_exptl_crystal_colour 'blue'
_exptl_crystal_density_diffrn 1.701
_exptl_crystal_description 'block'
_diffrn_ambient_temperature 213
_refine_special_details
;
The water molecule is disordered.

;
#These two values have been output from a single CSD field.
_refine_ls_R_factor_gt 0.033
_refine_ls_wR_factor_gt 0.033
_symmetry_cell_setting triclinic
_symmetry_space_group_name_H-M 'P -1'
_symmetry_Int_Tables_number 2
loop_
_symmetry_equiv_pos_site_id
_symmetry_equiv_pos_as_xyz
1 x,y,z
2 -x,-y,-z
_cell_length_a 5.121(3)
_cell_length_b 7.587(4)
_cell_length_c 9.193(5)
_cell_angle_alpha 75.347(9)
_cell_angle_beta 84.627(9)
_cell_angle_gamma 71.767(9)
_cell_formula_units_Z 1
loop_
_atom_type_symbol
_atom_type_radius_bond
C 0.68
H 0.23
Fe 1.64
N 0.68
O 0.68
loop_
_atom_site_label
_atom_site_type_symbol
_atom_site_fract_x
_atom_site_fract_y
_atom_site_fract_z
Fe1 Fe 1.00000 0.50000 1.00000
O1 O 0.6704(4) 0.5410(3) 1.1260(3)
O2 O 0.2271(4) 0.7153(3) 1.1165(3)
N1 N 0.7821(5) 0.7297(4) 0.8606(3)
C1 C 0.4645(6) 0.6795(4) 1.0636(4)
C2 C 0.5268(6) 0.8003(4) 0.9150(4)
C3 C 0.3439(7) 0.9700(5) 0.8400(4)
H1 H 0.16650 1.01620 0.87950
C4 C 0.4284(7) 1.0696(5) 0.7057(4)
H2 H 0.31050 1.18660 0.65390
C5 C 0.6889(7) 0.9953(5) 0.6483(4)
H3 H 0.74830 1.06050 0.55660
C6 C 0.8606(7) 0.8240(5) 0.7275(4)
H4 H 1.03580 0.77250 0.68750
O3 O 0.2368(7) 0.5468(6) 0.4400(4)
H5 H 0.09250 0.51810 0.47620
H6 H 0.39590 0.51850 0.47570
H7? H 0.23050 0.58530 0.33670
O1A O 1.3296(4) 0.4590(3) 0.8740(3)
C1A C 1.5355(6) 0.3205(4) 0.9364(4)
O2A O 1.7729(4) 0.2847(3) 0.8835(3)
C2A C 1.4732(6) 0.1997(4) 1.0850(4)
N1A N 1.2179(5) 0.2703(4) 1.1394(3)
C6A C 1.1394(7) 0.1760(5) 1.2725(4)
C5A C 1.3111(7) 0.0047(5) 1.3517(4)
C4A C 1.5716(7) -0.0696(5) 1.2943(4)
C3A C 1.6561(7) 0.0300(5) 1.1600(4)
H1A H 1.83350 -0.01620 1.12050
H2A H 1.68950 -0.18660 1.34610
H3A H 1.25170 -0.06050 1.44340
H4A H 0.96420 0.22750 1.31250
#END
