
#######################################################################
#
#                 Cambridge Crystallographic Data Centre
#                                CCDC
#
#######################################################################
#
# If this CIF has been generated from an entry in the Cambridge
# Structural Database, then it will include bibliographic, chemical,
# crystal, experimental, refinement or atomic coordinate data resulting
# from the CCDC's data processing and validation procedures.
#
#######################################################################

data_CSD_CIF_WOFSAO
_audit_creation_date 2019-07-08
_audit_creation_method CSD-ConQuest-V1
_database_code_CSD WOFSAO
_database_code_depnum_ccdc_archive 'CCDC 1881220'
_chemical_formula_sum 'C7 H17 Cl3 Mn1 N2 O1'
_chemical_formula_moiety
;
C7 H17 Cl3 Mn1 N2 O1
;
_journal_coden_Cambridge 222
_journal_volume 48
_journal_year 2019
_journal_page_first 15480
_journal_name_full 'Dalton Trans. '
loop_
_publ_author_name
"M.A.Hay"
"A.Sarkar"
"K.E.R.Marriott"
"C.Wilson"
"G.Rajaraman"
"M.Murrie"
_chemical_name_systematic
;
aqua-trichloro-(1-methyl-1,4-diazabicyclo[2.2.2]octan-1-ium)-manganese
;
_cell_volume    612.179
_exptl_crystal_colour 'light yellow'
_exptl_crystal_density_diffrn 1.663
_exptl_crystal_description 'needle'
_diffrn_ambient_temperature 100
#These two values have been output from a single CSD field.
_refine_ls_R_factor_gt 0.0445
_refine_ls_wR_factor_gt 0.0445
_symmetry_cell_setting monoclinic
_symmetry_space_group_name_H-M 'P 21/m'
_symmetry_Int_Tables_number 11
loop_
_symmetry_equiv_pos_site_id
_symmetry_equiv_pos_as_xyz
1 x,y,z
2 -x,1/2+y,-z
3 -x,-y,-z
4 x,-1/2-y,z
_cell_length_a 7.8885(19)
_cell_length_b 9.447(3)
_cell_length_c 8.269(2)
_cell_angle_alpha 90
_cell_angle_beta 96.572(6)
_cell_angle_gamma 90
_cell_formula_units_Z 2
loop_
_atom_type_symbol
_atom_type_radius_bond
C 0.68
H 0.23
Cl 0.99
Mn 1.61
N 0.68
O 0.68
loop_
_atom_site_label
_atom_site_type_symbol
_atom_site_fract_x
_atom_site_fract_y
_atom_site_fract_z
Mn1 Mn 0.56349(11) 0.75000 0.23819(10)
Cl1 Cl 0.69847(13) 0.52687(11) 0.18349(12)
Cl2 Cl 0.28915(16) 0.75000 0.33495(16)
O1 O 0.4670(5) 0.75000 -0.0224(5)
H1 H 0.422(6) 0.828(5) -0.068(6)
N1 N 0.7193(6) 0.75000 0.4969(6)
N2 N 0.8975(6) 0.75000 0.7782(5)
C1 C 0.9026(7) 0.75000 0.4806(7)
H2 H 0.93010 0.83470 0.41810
C2 C 1.0134(7) 0.75000 0.6442(7)
H3 H 1.08730 0.66500 0.65350
C3 C 0.6816(5) 0.6232(5) 0.5921(5)
H4 H 0.70610 0.53710 0.53060
H5 H 0.55880 0.62240 0.60660
C4 C 0.7867(5) 0.6197(4) 0.7586(5)
H6 H 0.70980 0.61700 0.84520
H7 H 0.85890 0.53380 0.76840
C5 C 1.0001(8) 0.75000 0.9415(7)
H8 H 0.926(6) 0.75000 1.026(5)
H9 H 1.070(4) 0.835(3) 0.944(5)
H10? H 0.93010 0.83470 0.41810
H11? H 1.08730 0.66500 0.65350
H2C H 0.93010 0.66530 0.41810
H3C H 1.08730 0.83500 0.65350
H1C H 0.422(6) 0.672(5) -0.068(6)
C3C C 0.6816(5) 0.8768(5) 0.5921(5)
H4C H 0.70610 0.96290 0.53060
H5C H 0.55880 0.87760 0.60660
C4C C 0.7867(5) 0.8803(4) 0.7586(5)
H6C H 0.70980 0.88300 0.84520
H7C H 0.85890 0.96620 0.76840
H9C H 1.070(4) 0.665(3) 0.944(5)
Cl1C Cl 0.69847(13) 0.97313(11) 0.18349(12)
#END
