
#######################################################################
#
#                 Cambridge Crystallographic Data Centre
#                                CCDC
#
#######################################################################
#
# If this CIF has been generated from an entry in the Cambridge
# Structural Database, then it will include bibliographic, chemical,
# crystal, experimental, refinement or atomic coordinate data resulting
# from the CCDC's data processing and validation procedures.
#
#######################################################################

data_CSD_CIF_WOHBEC
_audit_creation_date 2014-07-31
_audit_creation_method CSD-ConQuest-V1
_database_code_CSD WOHBEC
_database_code_depnum_ccdc_archive 'CCDC 805389'
_chemical_formula_sum 'C26 H42 Mn1 N4 O16'
_chemical_formula_moiety
;
C16 H16 Mn1 O10 2-,2(C5 H7 N2 1+),6(H2 O1)
;
_journal_coden_Cambridge 416
_journal_volume 22
_journal_year 2012
_journal_page_first 1395
_journal_name_full 'J.Fluorescence '
loop_
_publ_author_name
"Fan Zhang"
"Qiu-Yue Lin"
"Xiao-Liang Zheng"
"Ling-Ling Zhang"
"Qiong Yang"
"Jia-Ying Gu"
_chemical_name_systematic
;
bis(2-aminopyridinium) 
bis(7-oxabicyclo[2.2.1]heptane-2,3-dicarboxylate)-manganese(ii) hexahydrate
;
_cell_volume    797.349
_exptl_crystal_colour 'colorless'
_exptl_crystal_density_diffrn 1.503
_exptl_crystal_description 'block'
_diffrn_ambient_temperature 296
#These two values have been output from a single CSD field.
_refine_ls_R_factor_gt 0.0618
_refine_ls_wR_factor_gt 0.0618
_symmetry_cell_setting triclinic
_symmetry_space_group_name_H-M 'P -1'
_symmetry_Int_Tables_number 2
loop_
_symmetry_equiv_pos_site_id
_symmetry_equiv_pos_as_xyz
1 x,y,z
2 -x,-y,-z
_cell_length_a 6.5919(1)
_cell_length_b 10.2481(1)
_cell_length_c 11.9367(2)
_cell_angle_alpha 92.245(1)
_cell_angle_beta 90.507(1)
_cell_angle_gamma 98.243(1)
_cell_formula_units_Z 1
loop_
_atom_type_symbol
_atom_type_radius_bond
C 0.68
H 0.23
Mn 1.61
N 0.68
O 0.68
loop_
_atom_site_label
_atom_site_type_symbol
_atom_site_fract_x
_atom_site_fract_y
_atom_site_fract_z
Mn1 Mn 0.00000 0.00000 0.00000
C1 C 0.5369(2) 0.29173(14) -0.08529(12)
H1 H 0.60800 0.25480 -0.14700
H2 H 0.63490 0.35010 -0.03870
C2 C 0.3638(2) 0.36396(14) -0.12789(12)
H3 H 0.38370 0.45590 -0.10210
H4 H 0.35350 0.35860 -0.20910
C3 C 0.41925(19) 0.18353(12) -0.01717(11)
H5 H 0.49100 0.10710 -0.00830
C4 C 0.1751(2) 0.28673(13) -0.07485(11)
H6 H 0.04580 0.29560 -0.11290
C5 C 0.35003(19) 0.24206(11) 0.09349(10)
H7 H 0.46260 0.30520 0.12630
C6 C 0.17503(19) 0.31864(12) 0.05272(10)
H8 H 0.21570 0.41360 0.06740
C7 C 0.27975(19) 0.13690(12) 0.17874(10)
C8 C -0.0393(2) 0.27659(12) 0.09965(11)
O1 O 0.21482(16) 0.02030(9) 0.14273(8)
O2 O 0.29375(18) 0.17205(10) 0.27961(8)
O3 O -0.12408(15) 0.15898(9) 0.07716(9)
O4 O -0.12317(16) 0.35861(10) 0.15358(9)
O5 O 0.22551(15) 0.15315(9) -0.08036(8)
C9 C 0.7893(2) 0.12028(13) 0.56733(11)
C10 C 0.7999(3) 0.20412(16) 0.47615(13)
H9 H 0.82310 0.29520 0.48890
C11 C 0.7762(3) 0.15215(18) 0.36957(13)
H10 H 0.78280 0.20820 0.30990
C12 C 0.7419(3) 0.01564(18) 0.34827(13)
H11 H 0.72770 -0.02010 0.27530
C13 C 0.7299(2) -0.06328(15) 0.43794(13)
H12 H 0.70520 -0.15450 0.42620
N1 N 0.75343(17) -0.01113(12) 0.54326(10)
H13 H 0.74520 -0.06390 0.59790
N2 N 0.8132(2) 0.16224(13) 0.67356(11)
H14 H 0.80590 0.10630 0.72570
H15 H 0.83620 0.24550 0.69040
O6 O 0.0701(2) 0.55745(11) 0.28431(12)
H16 H 0.02900 0.50790 0.22740
H17 H 0.09340 0.51180 0.33970
O7 O 0.3666(2) 0.42407(12) 0.36439(11)
H18 H 0.35120 0.36690 0.31030
H19 H 0.4861(13) 0.4250(17) 0.3849(11)
O8 O 0.2739(3) 0.41212(18) 0.58516(13)
H20 H 0.15800 0.42910 0.60720
H21 H 0.27860 0.40990 0.51400
C1A C -0.5369(2) -0.29173(14) 0.08529(12)
H1A H -0.60800 -0.25480 0.14700
H2A H -0.63490 -0.35010 0.03870
C2A C -0.3638(2) -0.36396(14) 0.12789(12)
H3A H -0.38370 -0.45590 0.10210
H4A H -0.35350 -0.35860 0.20910
C3A C -0.41925(19) -0.18353(12) 0.01717(11)
H5A H -0.49100 -0.10710 0.00830
C4A C -0.1751(2) -0.28673(13) 0.07485(11)
H6A H -0.04580 -0.29560 0.11290
C5A C -0.35003(19) -0.24206(11) -0.09349(10)
H7A H -0.46260 -0.30520 -0.12630
C6A C -0.17503(19) -0.31864(12) -0.05272(10)
H8A H -0.21570 -0.41360 -0.06740
C7A C -0.27975(19) -0.13690(12) -0.17874(10)
C8A C 0.0393(2) -0.27659(12) -0.09965(11)
O1A O -0.21482(16) -0.02030(9) -0.14273(8)
O2A O -0.29375(18) -0.17205(10) -0.27961(8)
O3A O 0.12408(15) -0.15898(9) -0.07716(9)
O4A O 0.12317(16) -0.35861(10) -0.15358(9)
O5A O -0.22551(15) -0.15315(9) 0.08036(8)
#END
