
#######################################################################
#
#                 Cambridge Crystallographic Data Centre
#                                CCDC
#
#######################################################################
#
# If this CIF has been generated from an entry in the Cambridge
# Structural Database, then it will include bibliographic, chemical,
# crystal, experimental, refinement or atomic coordinate data resulting
# from the CCDC's data processing and validation procedures.
#
#######################################################################

data_CSD_CIF_WOJFOT
_audit_creation_date 2019-07-10
_audit_creation_method CSD-ConQuest-V1
_database_code_CSD WOJFOT
_database_code_depnum_ccdc_archive 'CCDC 1900293'
_chemical_formula_sum 'C27 H53 B1 Cr1 N1 O3 P1 Si2'
_chemical_formula_moiety
;
C27 H53 B1 Cr1 N1 O3 P1 Si2
;
_journal_coden_Cambridge 1220
_journal_volume 25
_journal_year 2019
_journal_page_first 8585
_journal_name_full 'Chem.-Eur.J. '
loop_
_publ_author_name
"C.Lenczyk"
"D.K.Roy"
"B.Ghosh"
"J.Schwarzmann"
"A.K.Phukan"
"H.Braunschweig"
_chemical_name_systematic
;
(N-boranyl-1,1,1-trimethyl-N-(trimethylsilyl)silanamine)-tricarbonyl-(tricyclo
hexylphosphine)-chromium
;
_cell_volume    820.289
_exptl_crystal_colour 'orange'
_exptl_crystal_density_diffrn 1.194
_exptl_crystal_description 'block'
_diffrn_ambient_temperature 100
_diffrn_special_details
;
twin

;
#These two values have been output from a single CSD field.
_refine_ls_R_factor_gt 0.0203
_refine_ls_wR_factor_gt 0.0203
_symmetry_cell_setting triclinic
_symmetry_space_group_name_H-M 'P 1'
_symmetry_Int_Tables_number 1
loop_
_symmetry_equiv_pos_site_id
_symmetry_equiv_pos_as_xyz
1 x,y,z
_cell_length_a 9.6278(16)
_cell_length_b 9.7338(15)
_cell_length_c 10.4069(12)
_cell_angle_alpha 79.107(5)
_cell_angle_beta 72.428(6)
_cell_angle_gamma 62.087(5)
_cell_formula_units_Z 1
loop_
_atom_type_symbol
_atom_type_radius_bond
C 0.68
H 0.23
B 0.83
Cr 1.39
N 0.68
O 0.68
P 1.05
Si 1.20
loop_
_atom_site_label
_atom_site_type_symbol
_atom_site_fract_x
_atom_site_fract_y
_atom_site_fract_z
Cr1 Cr 0.61099(3) 0.41235(3) 0.38032(3)
P1 P 0.54653(6) 0.38868(6) 0.62381(5)
O1 O 0.6977(3) 0.4239(3) 0.07870(19)
C1 C 0.8250(3) 0.3695(3) 0.3609(2)
O2 O 0.9564(2) 0.3533(2) 0.3393(2)
C2 C 0.6394(3) 0.2104(3) 0.3775(2)
O3 O 0.6546(2) 0.0859(2) 0.3731(2)
C3 C 0.6629(3) 0.4203(3) 0.1950(2)
B1 B 0.4439(3) 0.6169(3) 0.3362(2)
N1 N 0.3448(2) 0.7565(2) 0.27794(18)
Si1 Si 0.40700(7) 0.90801(7) 0.24597(6)
C4 C 0.6314(3) 0.8201(3) 0.2235(3)
H1 H 0.68518 0.74050 0.15685
H2 H 0.65793 0.77237 0.30992
H3 H 0.66868 0.90148 0.19186
Si2 Si 0.17204(7) 0.75903(7) 0.24779(6)
C5 C 0.3608(4) 1.0290(3) 0.0890(3)
H4 H 0.39743 0.96087 0.01539
H5 H 0.41712 1.09548 0.06466
H6 H 0.24364 1.09424 0.10431
C6 C 0.2423(4) 0.6069(4) 0.1284(3)
H7 H 0.14869 0.61156 0.10529
H8 H 0.29915 0.50409 0.17057
H9 H 0.31620 0.62477 0.04613
C7 C 0.0445(3) 0.9520(3) 0.1758(3)
H10 H 0.10111 0.96797 0.08290
H11 H 0.02431 1.03420 0.23040
H12 H -0.05894 0.95537 0.17624
C8 C 0.0444(3) 0.7148(3) 0.4084(3)
H13 H -0.04641 0.70901 0.38954
H14 H 0.00238 0.79732 0.47053
H15 H 0.11007 0.61491 0.44967
C9 C 0.3013(3) 1.0367(3) 0.3903(3)
H16 H 0.32919 1.12463 0.36971
H17 H 0.33524 0.97758 0.47154
H18 H 0.18385 1.07591 0.40560
C10 C 0.3364(2) 0.4069(2) 0.6921(2)
H19 H 0.26360 0.51130 0.65753
C11 C 0.3112(3) 0.2868(3) 0.6364(2)
H20 H 0.34512 0.29314 0.53649
H21 H 0.37993 0.18065 0.66860
C12 C 0.1330(3) 0.3159(3) 0.6818(2)
H22 H 0.06648 0.41657 0.63993
H23 H 0.12200 0.23292 0.64957
C13 C 0.0692(3) 0.3190(3) 0.8341(2)
H24 H 0.12557 0.21421 0.87572
H25 H -0.04803 0.34656 0.85805
C14 C 0.0956(3) 0.4377(3) 0.8900(3)
H26 H 0.02918 0.54402 0.85651
H27 H 0.06000 0.43238 0.98975
C15 C 0.2746(3) 0.4045(3) 0.8463(2)
H28 H 0.33983 0.30129 0.88558
H29 H 0.28859 0.48385 0.88131
C16 C 0.5418(3) 0.5457(2) 0.7054(2)
H30 H 0.52605 0.51729 0.80449
C17 C 0.4023(3) 0.7058(2) 0.6867(2)
H31 H 0.29767 0.69991 0.72502
H32 H 0.41219 0.73553 0.58916
C18 C 0.4040(3) 0.8306(3) 0.7565(2)
H33 H 0.31864 0.93374 0.73613
H34 H 0.37862 0.80854 0.85545
C19 C 0.5678(3) 0.8359(3) 0.7107(3)
H35 H 0.56669 0.91125 0.76338
H36 H 0.58668 0.87208 0.61423
C20 C 0.7057(3) 0.6755(3) 0.7296(3)
H37 H 0.69284 0.64350 0.82698
H38 H 0.81085 0.68091 0.69483
C21 C 0.7050(3) 0.5549(2) 0.6545(2)
H39 H 0.79390 0.45152 0.66863
H40 H 0.72396 0.58386 0.55650
C22 C 0.6745(3) 0.2042(2) 0.7092(2)
H41 H 0.62382 0.13219 0.71994
C23 C 0.6786(3) 0.2206(3) 0.8525(2)
H42 H 0.73120 0.28848 0.84725
H43 H 0.56621 0.27058 0.90841
C24 C 0.7713(3) 0.0617(3) 0.9194(2)
H44 H 0.77430 0.07638 1.00997
H45 H 0.71392 -0.00341 0.93111
C25 C 0.9442(3) -0.0217(3) 0.8348(3)
H46 H 1.00546 0.03757 0.83116
H47 H 0.99899 -0.12647 0.87726
C26 C 0.9434(3) -0.0372(3) 0.6919(3)
H48 H 0.89392 -0.10738 0.69527
H49 H 1.05661 -0.08515 0.63705
C27 C 0.8493(3) 0.1202(2) 0.6240(2)
H50 H 0.84670 0.10381 0.53389
H51 H 0.90577 0.18643 0.61115
H52 H 0.407(4) 0.514(4) 0.389(3)
H53 H 0.539(4) 0.609(3) 0.392(3)
#END
