
#######################################################################
#
#                 Cambridge Crystallographic Data Centre
#                                CCDC
#
#######################################################################
#
# If this CIF has been generated from an entry in the Cambridge
# Structural Database, then it will include bibliographic, chemical,
# crystal, experimental, refinement or atomic coordinate data resulting
# from the CCDC's data processing and validation procedures.
#
#######################################################################

data_CSD_CIF_WOPVUS
_audit_creation_date 2001-01-05
_audit_creation_method CSD-ConQuest-V1
_database_code_CSD WOPVUS
_database_code_depnum_ccdc_archive 'CCDC 151181'
_chemical_formula_sum 'C12 H32 Mn1 N5 O16'
_chemical_formula_moiety
;
5(H4 N1 1+),C12 H8 Mn1 O14 5-,2(H2 O1)
;
_journal_coden_Cambridge 9
_journal_volume 39
_journal_year 2000
_journal_page_first 4044
_journal_name_full 'Inorg.Chem. '
loop_
_publ_author_name
"M.Matzapetakis"
"N.Karligiano"
"A.Bino"
"M.Dakanali"
"C.P.Raptopoulou"
"V.Tangoulis"
"A.Terzis"
"J.Giapintzakis"
"A.Salifoglou"
_chemical_name_systematic
;
Penta-ammonium bis(citrato-O,O',O'')-manganese(iii) dihydrate
;
_cell_volume    571.264
_exptl_crystal_colour 'brown'
_exptl_crystal_density_diffrn 1.62
_exptl_special_details
;
isostructural with the aluminium, iron, gallium and chromium analogues

;
_exptl_crystal_description 'parallelepiped'
_diffrn_ambient_temperature ?
_diffrn_special_details
;
The study was carried out at room temperature,in the range 283-303K

;
_refine_special_details
;
H1N3A and H1N3B, from an ammonium cation, are disordered equally over two 
sites.
;
#These two values have been output from a single CSD field.
_refine_ls_R_factor_gt 0.0309
_refine_ls_wR_factor_gt 0.0309
_symmetry_cell_setting triclinic
_symmetry_space_group_name_H-M 'P -1'
_symmetry_Int_Tables_number 2
loop_
_symmetry_equiv_pos_site_id
_symmetry_equiv_pos_as_xyz
1 x,y,z
2 -x,-y,-z
_cell_length_a 9.606(3)
_cell_length_b 9.914(3)
_cell_length_c 7.247(3)
_cell_angle_alpha 91.05(1)
_cell_angle_beta 105.60(1)
_cell_angle_gamma 119.16(1)
_cell_formula_units_Z 1
loop_
_atom_type_symbol
_atom_type_radius_bond
C 0.68
H 0.23
Mn 1.35
N 0.68
O 0.68
loop_
_atom_site_label
_atom_site_type_symbol
_atom_site_fract_x
_atom_site_fract_y
_atom_site_fract_z
Mn1 Mn 0.00000 0.00000 0.00000
O1 O 0.0073(2) -0.20807(15) 0.0994(2)
O2 O -0.19000(15) -0.14217(13) -0.2099(2)
O3 O -0.1638(2) -0.04329(15) 0.1340(2)
C1 C -0.1116(2) -0.3502(2) 0.0517(3)
O4 O -0.0998(2) -0.4596(2) 0.1211(2)
C2 C -0.2775(2) -0.3927(2) -0.1000(3)
C3 C -0.3122(2) -0.2578(2) -0.1353(2)
C4 C -0.2952(2) -0.1812(2) 0.0632(3)
O5 O -0.3929(2) -0.2525(2) 0.1538(2)
C5 C -0.4879(2) -0.3253(2) -0.2824(3)
C6 C -0.5476(2) -0.2093(2) -0.3257(3)
O6 O -0.6488(3) -0.2376(3) -0.4931(3)
O7 O -0.5061(2) -0.1030(2) -0.1934(3)
N1 N 0.2957(3) -0.2311(2) 0.0983(3)
N2 N 0.2288(3) -0.0326(3) 0.5109(3)
N3 N 0.00000 0.50000 0.50000
O8 O 0.1198(3) 0.2633(3) 0.4955(3)
H1 H -0.2801(27) -0.4387(25) -0.2239(33)
H2 H -0.3621(31) -0.4701(28) -0.0650(33)
H3 H -0.4896(30) -0.3715(28) -0.4012(37)
H4 H -0.5661(32) -0.4084(30) -0.2343(36)
H5 H 0.2361(37) -0.3238(37) 0.0234(43)
H6 H 0.3742(49) -0.1667(45) 0.0633(54)
H7 H 0.2190(47) -0.2080(39) 0.0844(49)
H8 H 0.3377(39) -0.2326(35) 0.2181(51)
H9 H 0.2815(42) -0.0935(39) 0.5241(47)
H10 H 0.2307(39) 0.0264(37) 0.4091(50)
H11 H 0.2785(46) 0.0351(44) 0.6081(57)
H12 H 0.1262(48) -0.1002(41) 0.5027(47)
H13 H -0.0283(85) 0.5105(88) 0.378(11)
H14 H 0.117(11) 0.565(11) 0.502(11)
H15? H -0.035(35) 0.441(21) 0.450(37)
H16? H -0.058(17) 0.593(18) 0.485(19)
H17 H 0.1459(43) 0.2334(40) 0.4142(54)
H18 H 0.074(11) 0.294(12) 0.461(13)
O1A O -0.0073(2) 0.20807(15) -0.0994(2)
C1A C 0.1116(2) 0.3502(2) -0.0517(3)
O4A O 0.0998(2) 0.4596(2) -0.1211(2)
C2A C 0.2775(2) 0.3927(2) 0.1000(3)
C3A C 0.3122(2) 0.2578(2) 0.1353(2)
O2A O 0.19000(15) 0.14217(13) 0.2099(2)
O3A O 0.1638(2) 0.04329(15) -0.1340(2)
C4A C 0.2952(2) 0.1812(2) -0.0632(3)
C5A C 0.4879(2) 0.3253(2) 0.2824(3)
C6A C 0.5476(2) 0.2093(2) 0.3257(3)
O6A O 0.6488(3) 0.2376(3) 0.4931(3)
O7A O 0.5061(2) 0.1030(2) 0.1934(3)
H3A H 0.4896(30) 0.3715(28) 0.4012(37)
H4A H 0.5661(32) 0.4084(30) 0.2343(36)
O5A O 0.3929(2) 0.2525(2) -0.1538(2)
H1A H 0.2801(27) 0.4387(25) 0.2239(33)
H2A H 0.3621(31) 0.4701(28) 0.0650(33)
H13A H 0.0283(85) 0.4895(88) 0.622(11)
H14A H -0.117(11) 0.435(11) 0.498(11)
#END
