
#######################################################################
#
#                 Cambridge Crystallographic Data Centre
#                                CCDC
#
#######################################################################
#
# If this CIF has been generated from an entry in the Cambridge
# Structural Database, then it will include bibliographic, chemical,
# crystal, experimental, refinement or atomic coordinate data resulting
# from the CCDC's data processing and validation procedures.
#
#######################################################################

data_CSD_CIF_WORKAS
_audit_creation_date 2019-11-07
_audit_creation_method CSD-ConQuest-V1
_database_code_CSD WORKAS
_database_code_depnum_ccdc_archive 'CCDC 1938443'
_chemical_formula_sum 'C16 H32 Mn1 N2 O16 P4'
_chemical_formula_moiety
;
H8 Mn1 O16 P4 2-,2(C8 H12 N1 1+)
;
_journal_coden_Cambridge 119
_journal_volume 1202
_journal_year 2019
_journal_page_first 127326
_journal_name_full 'J.Mol.Struct. '
loop_
_publ_author_name
"I.Moghdad"
"A.Mbarek"
"F.Costantino"
"S.Nazzareni"
"H.Na?li"
_chemical_name_systematic
;
bis(2,6-dimethylanilinium) diaqua-bis(dihydrogen diphosphato)-manganese
;
_cell_volume    703.129
_exptl_crystal_colour 'colorless'
_exptl_crystal_density_diffrn 1.623
_exptl_crystal_description 'block'
_diffrn_ambient_temperature 293
#These two values have been output from a single CSD field.
_refine_ls_R_factor_gt 0.0533
_refine_ls_wR_factor_gt 0.0533
_symmetry_cell_setting triclinic
_symmetry_space_group_name_H-M 'P -1'
_symmetry_Int_Tables_number 2
loop_
_symmetry_equiv_pos_site_id
_symmetry_equiv_pos_as_xyz
1 x,y,z
2 -x,-y,-z
_cell_length_a 7.3901(10)
_cell_length_b 7.6691(10)
_cell_length_c 13.3738(19)
_cell_angle_alpha 85.305(12)
_cell_angle_beta 75.257(12)
_cell_angle_gamma 73.595(12)
_cell_formula_units_Z 1
loop_
_atom_type_symbol
_atom_type_radius_bond
C 0.68
H 0.23
Mn 1.61
N 0.68
O 0.68
P 1.05
loop_
_atom_site_label
_atom_site_type_symbol
_atom_site_fract_x
_atom_site_fract_y
_atom_site_fract_z
O1 O 0.2585(6) 0.7605(6) 0.9913(3)
H1 H 0.360(8) 0.782(7) 0.984(4)
H2 H 0.261(8) 0.677(8) 0.966(5)
H3 H 0.119(7) 1.509(7) 0.875(4)
H4 H 0.391(7) 1.032(7) 1.193(4)
Mn1 Mn 0.00000 1.00000 1.00000
P1 P 0.19477(16) 1.22280(16) 1.12992(9)
P2 P 0.30693(16) 1.25477(16) 0.90333(9)
O2 O 0.0771(4) 1.0987(4) 1.1242(2)
O3 O 0.1592(4) 1.1616(4) 0.8964(2)
O4 O 0.5048(4) 1.1882(4) 0.8336(2)
O5 O 0.0844(4) 1.4132(4) 1.1609(2)
O6 O 0.2316(5) 1.4635(4) 0.8914(3)
O7 O 0.3379(5) 1.1489(5) 1.1995(2)
O8 O 0.3434(4) 1.2278(4) 1.0184(2)
H5 H 0.127(7) 0.613(7) 1.213(4)
H6 H 0.048(10) 0.81(1) 1.202(5)
H7 H 0.254(8) 0.745(7) 1.206(4)
N1 N 0.1337(7) 0.7267(6) 1.2353(3)
C1 C 0.2229(8) 0.6094(7) 1.3970(4)
C2 C 0.0883(7) 0.7264(7) 1.3497(4)
C3 C -0.0850(8) 0.8409(7) 1.4036(4)
C4 C -0.1191(9) 0.8354(9) 1.5106(4)
H8 H -0.23448 0.90887 1.54938
C5 C 0.1789(10) 0.6108(9) 1.5043(5)
H9 H 0.26472 0.53242 1.53881
C6 C -0.2320(8) 0.9639(8) 1.3510(4)
H10 H -0.34048 1.03107 1.40218
H11 H -0.17314 1.04701 1.30567
H12 H -0.27606 0.89222 1.31166
C7 C 0.4060(8) 0.4813(8) 1.3373(4)
H13 H 0.47869 0.41277 1.38449
H14 H 0.37315 0.39978 1.29856
H15 H 0.48315 0.54965 1.29076
C8 C 0.0113(12) 0.7253(10) 1.5608(5)
H16 H -0.01305 0.72781 1.63248
O1A O -0.2585(6) 1.2395(6) 1.0087(3)
H1A H -0.360(8) 1.218(7) 1.016(4)
H2A H -0.261(8) 1.323(8) 1.034(5)
H3A H -0.119(7) 0.491(7) 1.125(4)
H4A H -0.391(7) 0.968(7) 0.807(4)
P1A P -0.19477(16) 0.77720(16) 0.87008(9)
P2A P -0.30693(16) 0.74523(16) 1.09667(9)
O2A O -0.0771(4) 0.9013(4) 0.8758(2)
O3A O -0.1592(4) 0.8384(4) 1.1036(2)
O4A O -0.5048(4) 0.8118(4) 1.1664(2)
O5A O -0.0844(4) 0.5868(4) 0.8391(2)
O6A O -0.2316(5) 0.5365(4) 1.1086(3)
O7A O -0.3379(5) 0.8511(5) 0.8005(2)
O8A O -0.3434(4) 0.7722(4) 0.9816(2)
#END
