
#######################################################################
#
#                 Cambridge Crystallographic Data Centre
#                                CCDC
#
#######################################################################
#
# If this CIF has been generated from an entry in the Cambridge
# Structural Database, then it will include bibliographic, chemical,
# crystal, experimental, refinement or atomic coordinate data resulting
# from the CCDC's data processing and validation procedures.
#
#######################################################################

data_CSD_CIF_WORNAU
_audit_creation_date 2015-01-14
_audit_creation_method CSD-ConQuest-V1
_database_code_CSD WORNAU
_database_code_depnum_ccdc_archive 'CCDC 1030270'
_chemical_formula_sum 'C12 H14 Co1 F2 N2 O8'
_chemical_formula_moiety
;
C12 H14 Co1 F2 N2 O8
;
_journal_coden_Cambridge 1500
_journal_volume 5
_journal_year 2015
_journal_page_first 10400
_journal_name_full 'RSC Advances '
loop_
_publ_author_name
"Yan-Hui Cui"
"Jiang Wu"
"A.M.Kirillov"
"Jin-Zhong Gu"
"Wei Dou"
_chemical_name_systematic
;
tetraaqua-bis(5-fluoronicotinate)-cobalt(ii)
;
_cell_volume    754.631
_exptl_crystal_colour 'pink'
_exptl_crystal_density_diffrn 1.81
_exptl_crystal_description 'block'
_diffrn_ambient_temperature 293
#These two values have been output from a single CSD field.
_refine_ls_R_factor_gt 0.0379
_refine_ls_wR_factor_gt 0.0379
_symmetry_cell_setting monoclinic
_symmetry_space_group_name_H-M 'I 2/m'
_symmetry_Int_Tables_number 12
loop_
_symmetry_equiv_pos_site_id
_symmetry_equiv_pos_as_xyz
1 x,y,z
2 -x,y,-z
3 1/2+x,1/2+y,1/2+z
4 1/2-x,1/2+y,1/2-z
5 -x,-y,-z
6 x,-y,z
7 -1/2-x,-1/2-y,-1/2-z
8 -1/2+x,-1/2-y,-1/2+z
_cell_length_a 8.4112(5)
_cell_length_b 6.8339(5)
_cell_length_c 13.2136(8)
_cell_angle_alpha 90
_cell_angle_beta 96.514(6)
_cell_angle_gamma 90
_cell_formula_units_Z 2
loop_
_atom_type_symbol
_atom_type_radius_bond
C 0.68
H 0.23
Co 1.26
F 0.64
N 0.68
O 0.68
loop_
_atom_site_label
_atom_site_type_symbol
_atom_site_fract_x
_atom_site_fract_y
_atom_site_fract_z
Co1 Co 0.50000 0.50000 0.50000
O1 O 1.0714(4) 0.50000 0.1840(2)
O2 O 1.0904(4) 0.50000 0.3537(2)
O3 O 0.6632(3) 0.7191(4) 0.55429(16)
H1 H 0.62290 0.78830 0.59520
N1 N 0.6053(4) 0.50000 0.3585(2)
F1 F 0.4667(3) 0.50000 0.09378(18)
C1 C 1.0125(5) 0.50000 0.2676(3)
C2 C 0.8326(5) 0.50000 0.2634(3)
C3 C 0.7620(5) 0.50000 0.3541(3)
H2 H 0.82900 0.50000 0.41520
C4 C 0.5077(5) 0.50000 0.2694(3)
H3 H 0.39730 0.50000 0.27000
C5 C 0.5720(5) 0.50000 0.1784(3)
C6 C 0.7331(5) 0.50000 0.1727(3)
H4 H 0.77420 0.50000 0.11020
H5 H 0.744(5) 0.688(7) 0.587(3)
O1A O -0.0714(4) 0.50000 0.8160(2)
O2A O -0.0904(4) 0.50000 0.6463(2)
O3A O 0.3368(3) 0.7191(4) 0.44571(16)
H1A H 0.37710 0.78830 0.40480
N1A N 0.3947(4) 0.50000 0.6415(2)
F1A F 0.5333(3) 0.50000 0.90622(18)
C1A C -0.0125(5) 0.50000 0.7324(3)
C2A C 0.1674(5) 0.50000 0.7366(3)
C3A C 0.2380(5) 0.50000 0.6459(3)
H2A H 0.17100 0.50000 0.58480
C4A C 0.4923(5) 0.50000 0.7306(3)
H3A H 0.60270 0.50000 0.73000
C5A C 0.4280(5) 0.50000 0.8216(3)
C6A C 0.2669(5) 0.50000 0.8273(3)
H4A H 0.22580 0.50000 0.88980
H5A H 0.256(5) 0.688(7) 0.413(3)
O3D O 0.3368(3) 0.2809(4) 0.44571(16)
H1D H 0.37710 0.21170 0.40480
H5D H 0.256(5) 0.312(7) 0.413(3)
O3E O 0.6632(3) 0.2809(4) 0.55429(16)
H1E H 0.62290 0.21170 0.59520
H5E H 0.744(5) 0.312(7) 0.587(3)
#END
