
#######################################################################
#
#                 Cambridge Crystallographic Data Centre
#                                CCDC
#
#######################################################################
#
# If this CIF has been generated from an entry in the Cambridge
# Structural Database, then it will include bibliographic, chemical,
# crystal, experimental, refinement or atomic coordinate data resulting
# from the CCDC's data processing and validation procedures.
#
#######################################################################

data_CSD_CIF_WOTRUU
_audit_creation_date 2015-01-16
_audit_creation_method CSD-ConQuest-V1
_database_code_CSD WOTRUU
_database_code_depnum_ccdc_archive 'CCDC 1043372'
_chemical_formula_sum 'C12 H11 Cl2 Mn1 N5 O1'
_chemical_formula_moiety
;
C12 H11 Cl2 Mn1 N5 O1
;
_journal_coeditor_code "ku3143"
_journal_coden_Cambridge 1777
_journal_volume 71
_journal_year 2015
_journal_page_first 116
_journal_name_full 'Acta Crystallogr.,Sect.C:Cryst.Struct.Chem. '
loop_
_publ_author_name
"Y.-F.Liu"
"Y.-P.Liu"
"K.-K.Zhang"
"Q.-L.Ren"
"J.Qin"
_chemical_name_systematic
;
Dichloro-(N'-(1-(pyrazin-2-yl)ethylidene)nicotinohydrazide)-manganese(ii)
;
_cell_volume   1473.822
_exptl_crystal_colour 'yellow'
_exptl_crystal_density_diffrn 1.654
_exptl_crystal_description 'block'
_diffrn_ambient_temperature 273
#These two values have been output from a single CSD field.
_refine_ls_R_factor_gt 0.0277
_refine_ls_wR_factor_gt 0.0277
_symmetry_cell_setting monoclinic
_symmetry_space_group_name_H-M 'C c'
_symmetry_Int_Tables_number 9
loop_
_symmetry_equiv_pos_site_id
_symmetry_equiv_pos_as_xyz
1 x,y,z
2 x,-y,1/2+z
3 1/2+x,1/2+y,z
4 1/2+x,1/2-y,1/2+z
_cell_length_a 14.1037(7)
_cell_length_b 7.4955(4)
_cell_length_c 14.5827(8)
_cell_angle_alpha 90
_cell_angle_beta 107.053(2)
_cell_angle_gamma 90
_cell_formula_units_Z 4
loop_
_atom_type_symbol
_atom_type_radius_bond
C 0.68
H 0.23
Cl 0.99
Mn 1.61
N 0.68
O 0.68
loop_
_atom_site_label
_atom_site_type_symbol
_atom_site_fract_x
_atom_site_fract_y
_atom_site_fract_z
C1 C 0.48853(19) 0.7659(3) 0.71542(18)
C2 C 0.3877(2) 0.7412(5) 0.6770(2)
H1 H 0.36270 0.71410 0.61220
C3 C 0.3639(2) 0.7923(5) 0.8212(3)
H2 H 0.32260 0.80160 0.86030
C4 C 0.4640(2) 0.8183(4) 0.8610(2)
H3 H 0.48840 0.84570 0.92590
C5 C 0.56112(18) 0.7485(3) 0.65967(18)
C6 C 0.5272(2) 0.7150(5) 0.5546(2)
H4 H 0.55780 0.60810 0.54050
H5 H 0.54560 0.81390 0.52160
H6 H 0.45650 0.70120 0.53390
C7 C 0.82022(19) 0.7651(3) 0.74205(18)
C8 C 0.90986(19) 0.7537(4) 0.70881(19)
C9 C 0.9091(2) 0.6881(4) 0.6202(2)
H7 H 0.84870 0.65150 0.57870
N1 N 0.98898(18) 0.6740(4) 0.59071(18)
C10 C 1.0835(2) 0.7908(4) 0.7422(2)
H8 H 1.14480 0.82510 0.78290
C11 C 1.0004(2) 0.8042(4) 0.7714(2)
H9 H 1.00430 0.84660 0.83230
Cl1 Cl 0.70300(5) 0.54346(10) 0.96410(5)
Cl2 Cl 0.72383(6) 1.0498(1) 0.97175(5)
Mn1 Mn 0.69252(2) 0.80067(4) 0.87266(2)
N2 N 0.52632(15) 0.8053(3) 0.80891(16)
N3 N 0.32423(19) 0.7547(4) 0.7296(2)
N4 N 0.65158(15) 0.7635(3) 0.71292(15)
N5 N 0.73027(16) 0.7514(3) 0.67619(15)
C12 C 1.0756(2) 0.7257(4) 0.6517(2)
H10 H 1.13260 0.71740 0.63230
O1 O 0.82693(14) 0.7871(3) 0.82750(14)
H11 H 0.72520 0.72730 0.62020
#END
