
#######################################################################
#
#                 Cambridge Crystallographic Data Centre
#                                CCDC
#
#######################################################################
#
# If this CIF has been generated from an entry in the Cambridge
# Structural Database, then it will include bibliographic, chemical,
# crystal, experimental, refinement or atomic coordinate data resulting
# from the CCDC's data processing and validation procedures.
#
#######################################################################

data_CSD_CIF_WUCGUZ
_audit_creation_date 2019-11-13
_audit_creation_method CSD-ConQuest-V1
_database_code_CSD WUCGUZ
_database_code_depnum_ccdc_archive 'CCDC 1954357'
_chemical_formula_sum 'C42 H52 Cl2 Co1 N2'
_chemical_formula_moiety
;
C42 H52 Cl2 Co1 N2
;
_journal_coden_Cambridge 179
_journal_volume 59
_journal_year 2019
_journal_page_first 1552
_journal_name_full 'Angew.Chem.,Int.Ed. '
loop_
_publ_author_name
"Yohei Ueda"
"H.Tsurugi"
"K.Mashima"
_chemical_name_systematic
;
(2,9-bis(2,4,6-tri-isopropylphenyl)-1,10-phenanthroline)-dichloro-cobalt(ii)
;
_cell_volume   1899.759
_exptl_crystal_colour 'blue'
_exptl_crystal_density_diffrn 1.249
_diffrn_ambient_temperature 113
#These two values have been output from a single CSD field.
_refine_ls_R_factor_gt 0.0495
_refine_ls_wR_factor_gt 0.0495
_symmetry_cell_setting monoclinic
_symmetry_space_group_name_H-M 'C 2'
_symmetry_Int_Tables_number 5
loop_
_symmetry_equiv_pos_site_id
_symmetry_equiv_pos_as_xyz
1 x,y,z
2 -x,y,-z
3 1/2+x,1/2+y,z
4 1/2-x,1/2+y,-z
_cell_length_a 15.204(3)
_cell_length_b 9.2000(17)
_cell_length_c 13.836(3)
_cell_angle_alpha 90
_cell_angle_beta 101.003(4)
_cell_angle_gamma 90
_cell_formula_units_Z 2
loop_
_atom_type_symbol
_atom_type_radius_bond
C 0.68
H 0.23
Cl 0.99
Co 1.26
N 0.68
loop_
_atom_site_label
_atom_site_type_symbol
_atom_site_fract_x
_atom_site_fract_y
_atom_site_fract_z
Co1 Co 0.50000 0.43089(6) 0.00000
Cl1 Cl 0.39500(8) 0.31453(11) 0.05984(7)
N1 N 0.5557(2) 0.5992(3) 0.0896(2)
C1 C 0.6129(3) 0.5960(4) 0.1761(2)
C2 C 0.6534(3) 0.7246(4) 0.2181(3)
H1 H 0.69765 0.71964 0.27668
C3 C 0.6298(3) 0.8568(4) 0.1755(3)
H2 H 0.65710 0.94328 0.20442
C4 C 0.5644(3) 0.8633(4) 0.0883(3)
C5 C 0.5317(3) 0.7300(4) 0.0464(2)
C6 C 0.5317(3) 0.9969(4) 0.0424(3)
H3 H 0.55420 1.08659 0.07106
C7 C 0.6285(3) 0.4544(4) 0.2308(2)
C8 C 0.7081(3) 0.3765(4) 0.2327(3)
C9 C 0.7229(3) 0.2514(4) 0.2917(3)
H4 H 0.77590 0.19640 0.29252
C10 C 0.6622(3) 0.2054(4) 0.3491(2)
C11 C 0.5838(3) 0.2837(4) 0.3445(3)
H5 H 0.54114 0.25109 0.38169
C12 C 0.5650(3) 0.4093(4) 0.2869(2)
C13 C 0.7788(3) 0.4229(6) 0.1745(3)
H6 H 0.75118 0.49695 0.12498
C14 C 0.8123(3) 0.2974(6) 0.1191(3)
H7 H 0.76124 0.25061 0.07651
H8 H 0.84326 0.22636 0.16645
H9 H 0.85377 0.33471 0.07888
C15 C 0.8581(4) 0.4946(6) 0.2427(4)
H10 H 0.88952 0.42188 0.28846
H11 H 0.83622 0.57275 0.28004
H12 H 0.89943 0.53496 0.20330
C16 C 0.6852(3) 0.0738(4) 0.4164(3)
H13 H 0.71431 0.00032 0.37952
C17 C 0.6046(3) 0.0015(5) 0.4453(4)
H14 H 0.57874 0.06629 0.48869
H15 H 0.62312 -0.08970 0.47990
H16 H 0.55967 -0.01908 0.38604
C18 C 0.7538(4) 0.1166(6) 0.5079(3)
H17 H 0.80760 0.15554 0.48777
H18 H 0.76991 0.03089 0.54954
H19 H 0.72799 0.19087 0.54491
C19 C 0.4802(3) 0.4961(4) 0.2889(3)
H20 H 0.46015 0.53963 0.22206
C20 C 0.4030(3) 0.4051(5) 0.3123(3)
H21 H 0.39338 0.32057 0.26837
H22 H 0.34834 0.46409 0.30264
H23 H 0.41761 0.37204 0.38080
C21 C 0.5013(3) 0.6220(5) 0.3632(3)
H24 H 0.54440 0.68827 0.34198
H25 H 0.52692 0.58286 0.42837
H26 H 0.44602 0.67492 0.36650
N1A N 0.4443(2) 0.5992(3) -0.0896(2)
C1A C 0.3871(3) 0.5960(4) -0.1761(2)
C2A C 0.3466(3) 0.7246(4) -0.2181(3)
H1A H 0.30235 0.71964 -0.27668
C3A C 0.3702(3) 0.8568(4) -0.1755(3)
H2A H 0.34290 0.94328 -0.20442
C4A C 0.4356(3) 0.8633(4) -0.0883(3)
C5A C 0.4683(3) 0.7300(4) -0.0464(2)
C6A C 0.4683(3) 0.9969(4) -0.0424(3)
H3A H 0.44580 1.08659 -0.07106
C7A C 0.3715(3) 0.4544(4) -0.2308(2)
C8A C 0.2919(3) 0.3765(4) -0.2327(3)
C9A C 0.2771(3) 0.2514(4) -0.2917(3)
H4A H 0.22410 0.19640 -0.29252
C10A C 0.3378(3) 0.2054(4) -0.3491(2)
C11A C 0.4162(3) 0.2837(4) -0.3445(3)
H5A H 0.45886 0.25109 -0.38169
C12A C 0.4350(3) 0.4093(4) -0.2869(2)
C13A C 0.2212(3) 0.4229(6) -0.1745(3)
H6A H 0.24882 0.49695 -0.12498
C14A C 0.1877(3) 0.2974(6) -0.1191(3)
H7A H 0.23876 0.25061 -0.07651
H8A H 0.15674 0.22636 -0.16645
H9A H 0.14623 0.33471 -0.07888
C15A C 0.1419(4) 0.4946(6) -0.2427(4)
H10A H 0.11048 0.42188 -0.28846
H11A H 0.16378 0.57275 -0.28004
H12A H 0.10057 0.53496 -0.20330
C16A C 0.3148(3) 0.0738(4) -0.4164(3)
H13A H 0.28569 0.00032 -0.37952
C17A C 0.3954(3) 0.0015(5) -0.4453(4)
H14A H 0.42126 0.06629 -0.48869
H15A H 0.37688 -0.08970 -0.47990
H16A H 0.44033 -0.01908 -0.38604
C18A C 0.2462(4) 0.1166(6) -0.5079(3)
H17A H 0.19240 0.15554 -0.48777
H18A H 0.23009 0.03089 -0.54954
H19A H 0.27201 0.19087 -0.54491
C19A C 0.5198(3) 0.4961(4) -0.2889(3)
H20A H 0.53985 0.53963 -0.22206
C20A C 0.5970(3) 0.4051(5) -0.3123(3)
H21A H 0.60662 0.32057 -0.26837
H22A H 0.65166 0.46409 -0.30264
H23A H 0.58239 0.37204 -0.38080
C21A C 0.4987(3) 0.6220(5) -0.3632(3)
H24A H 0.45560 0.68827 -0.34198
H25A H 0.47308 0.58286 -0.42837
H26A H 0.55398 0.67492 -0.36650
Cl1A Cl 0.60500(8) 0.31453(11) -0.05984(7)
#END
