
#######################################################################
#
#                 Cambridge Crystallographic Data Centre
#                                CCDC
#
#######################################################################
#
# If this CIF has been generated from an entry in the Cambridge
# Structural Database, then it will include bibliographic, chemical,
# crystal, experimental, refinement or atomic coordinate data resulting
# from the CCDC's data processing and validation procedures.
#
#######################################################################

data_CSD_CIF_WUGWAW
_audit_creation_date 2003-02-14
_audit_creation_method CSD-ConQuest-V1
_database_code_CSD WUGWAW
_database_code_depnum_ccdc_archive 'CCDC 179636'
_chemical_formula_sum 'C18 H15 Fe1 N3 O2'
_chemical_formula_moiety
;
C18 H15 Fe1 N3 O2
;
_journal_coden_Cambridge 36
_journal_volume 658
_journal_year 2002
_journal_page_first 251
_journal_name_full 'J.Organomet.Chem. '
loop_
_publ_author_name
"C.M.Thomas"
"B.Therrien"
"A.Neels"
"H.Stoeckli-Evans"
"G.Suss-Fink"
_chemical_name_systematic
;
Ferrocene-1-carboxylic acid (benzotriazol-1-yl)methyl ester
;
_cell_volume    756.030
_exptl_crystal_colour 'red'
_exptl_crystal_density_diffrn 1.587
_exptl_crystal_description 'block'
_exptl_crystal_preparation 'acetone/hexane'
_diffrn_ambient_temperature 223
#These two values have been output from a single CSD field.
_refine_ls_R_factor_gt 0.0226
_refine_ls_wR_factor_gt 0.0226
_symmetry_cell_setting triclinic
_symmetry_space_group_name_H-M 'P -1'
_symmetry_Int_Tables_number 2
loop_
_symmetry_equiv_pos_site_id
_symmetry_equiv_pos_as_xyz
1 x,y,z
2 -x,-y,-z
_cell_length_a 5.732(5)
_cell_length_b 10.716(5)
_cell_length_c 13.740(5)
_cell_angle_alpha 109.809(5)
_cell_angle_beta 97.364(5)
_cell_angle_gamma 102.569(5)
_cell_formula_units_Z 2
loop_
_atom_type_symbol
_atom_type_radius_bond
C 0.68
H 0.23
Fe 1.34
N 0.68
O 0.68
loop_
_atom_site_label
_atom_site_type_symbol
_atom_site_fract_x
_atom_site_fract_y
_atom_site_fract_z
C1 C 0.7802(3) 0.71805(17) 1.22564(13)
C2 C 0.8697(3) 0.81831(17) 1.32844(13)
C3 C 1.0671(4) 0.8134(2) 1.39699(14)
H1 H 1.126(4) 0.883(2) 1.4657(18)
C4 C 1.1666(4) 0.7060(2) 1.35931(15)
H2 H 1.302(4) 0.700(2) 1.4031(18)
C5 C 1.0747(4) 0.6048(2) 1.25587(15)
H3 H 1.153(4) 0.532(2) 1.2314(17)
C6 C 0.8823(3) 0.60867(18) 1.18739(14)
H4 H 0.823(3) 0.5410(19) 1.1170(15)
C7 C 0.4351(3) 0.70071(19) 1.07980(13)
H5 H 0.282(4) 0.7149(19) 1.0860(15)
H6 H 0.421(3) 0.603(2) 1.0486(14)
C8 C 0.6995(3) 0.72887(17) 0.96377(12)
C9 C 0.7949(3) 0.81650(16) 0.90861(12)
C10 C 0.7083(3) 0.92509(17) 0.89202(12)
H7 H 0.569(4) 0.949(2) 0.9122(15)
C11 C 0.8676(3) 0.98446(18) 0.83914(13)
H8 H 0.849(4) 1.052(2) 0.8139(15)
C12 C 1.0517(3) 0.91464(18) 0.82286(14)
H9 H 1.175(4) 0.931(2) 0.7869(16)
C13 C 1.0071(3) 0.81024(18) 0.86474(13)
H10 H 1.102(3) 0.7495(19) 0.8666(14)
C14 C 0.3609(4) 0.6868(3) 0.66217(16)
H11 H 0.223(5) 0.691(3) 0.688(2)
C15 C 0.4798(4) 0.5849(2) 0.66042(15)
H12 H 0.430(5) 0.513(3) 0.688(2)
C16 C 0.6840(3) 0.6091(2) 0.61697(14)
H13 H 0.798(4) 0.556(2) 0.6062(18)
C17 C 0.6956(4) 0.7260(2) 0.59174(14)
H14 H 0.818(4) 0.766(2) 0.5661(19)
C18 C 0.4937(5) 0.7750(3) 0.61983(16)
H15 H 0.465(5) 0.846(3) 0.612(2)
N1 N 0.5926(3) 0.75810(14) 1.18390(11)
N2 N 0.5688(3) 0.87548(15) 1.25717(12)
N3 N 0.7328(3) 0.91226(16) 1.34354(12)
O1 O 0.7702(3) 0.63229(13) 0.96909(10)
O2 O 0.5234(2) 0.77097(12) 1.01369(9)
Fe1 Fe 0.71115(4) 0.77881(2) 0.750031(17)
#END
