
#######################################################################
#
#                 Cambridge Crystallographic Data Centre
#                                CCDC
#
#######################################################################
#
# If this CIF has been generated from an entry in the Cambridge
# Structural Database, then it will include bibliographic, chemical,
# crystal, experimental, refinement or atomic coordinate data resulting
# from the CCDC's data processing and validation procedures.
#
#######################################################################

data_CSD_CIF_WUHPOH
_audit_creation_date 2020-03-24
_audit_creation_method CSD-ConQuest-V1
_database_code_CSD WUHPOH
_database_code_depnum_ccdc_archive 'CCDC 873669'
_chemical_formula_sum 'C16 H14 Cl2 Co1 N2 O2'
_chemical_formula_moiety
;
C16 H14 Cl2 Co1 N2 O2
;
_journal_coden_Cambridge 2020
_journal_volume 5
_journal_year 2020
_journal_page_first 3471
_journal_name_full 'Chem. Sel. '
loop_
_publ_author_name
"S.K.Nandanwar"
"S.B.Borkar"
"B.N.Wijaya"
"Joung Hyung Cho"
"N.H.Tarte"
"Hak Jun Kim"
_chemical_name_systematic
;
dichloro-bis(2-methyl-1,3-benzoxazole)-cobalt(ii)
;
_cell_volume    824.447
_exptl_crystal_density_diffrn 1.596
_diffrn_ambient_temperature 296
#These two values have been output from a single CSD field.
_refine_ls_R_factor_gt 0.039
_refine_ls_wR_factor_gt 0.039
_symmetry_cell_setting triclinic
_symmetry_space_group_name_H-M 'P -1'
_symmetry_Int_Tables_number 2
loop_
_symmetry_equiv_pos_site_id
_symmetry_equiv_pos_as_xyz
1 x,y,z
2 -x,-y,-z
_cell_length_a 8.0377(17)
_cell_length_b 8.8055(18)
_cell_length_c 12.198(2)
_cell_angle_alpha 86.364(12)
_cell_angle_beta 78.823(12)
_cell_angle_gamma 76.812(12)
_cell_formula_units_Z 2
loop_
_atom_type_symbol
_atom_type_radius_bond
C 0.68
H 0.23
Cl 0.99
Co 1.26
N 0.68
O 0.68
loop_
_atom_site_label
_atom_site_type_symbol
_atom_site_fract_x
_atom_site_fract_y
_atom_site_fract_z
Co1 Co 0.81881(3) 0.70913(3) 0.247740(16)
Cl1 Cl 1.09276(6) 0.57738(6) 0.24847(4)
Cl2 Cl 0.61968(7) 0.57067(6) 0.24691(4)
N1 N 0.76106(18) 0.84252(17) 0.38893(10)
N2 N 0.80528(18) 0.85507(16) 0.10924(10)
O1 O 0.67929(16) 0.91643(16) 0.56602(9)
O2 O 0.84576(16) 0.94406(15) -0.06674(9)
C1 C 0.8077(2) 0.9856(2) 0.39757(13)
C2 C 0.8940(3) 1.0762(2) 0.31977(15)
H1 H 0.93020 1.04810 0.24530
C3 C 0.9237(3) 1.2107(3) 0.35823(18)
H2 H 0.98070 1.27460 0.30820
C4 C 0.8704(3) 1.2526(2) 0.46958(19)
H3 H 0.89310 1.34370 0.49200
C5 C 0.7852(3) 1.1635(3) 0.54777(17)
H4 H 0.74910 1.19100 0.62240
C6 C 0.7570(2) 1.0310(2) 0.50787(13)
C7 C 0.6888(2) 0.8078(2) 0.49004(13)
C8 C 0.6227(3) 0.6680(2) 0.53204(16)
H5 H 0.61000 0.61220 0.47020
H6 H 0.51190 0.69890 0.58040
H7 H 0.70320 0.60190 0.57290
C9 C 0.6843(2) 0.9980(2) 0.10236(12)
C10 C 0.5548(3) 1.0828(2) 0.18219(14)
H8 H 0.53400 1.04790 0.25610
C11 C 0.4583(3) 1.2218(3) 0.14645(18)
H9 H 0.37110 1.28210 0.19760
C12 C 0.4894(3) 1.2733(2) 0.03483(19)
H10 H 0.42200 1.36700 0.01360
C13 C 0.6163(3) 1.1893(2) -0.04396(16)
H11 H 0.63750 1.22300 -0.11810
C14 C 0.7102(2) 1.0524(2) -0.00645(13)
C15 C 0.8941(2) 0.8304(2) 0.00736(13)
C16 C 1.0313(3) 0.6955(2) -0.03691(15)
H12 H 1.07500 0.63530 0.02400
H13 H 1.12430 0.73170 -0.08530
H14 H 0.98410 0.63160 -0.07820
#END
