
#######################################################################
#
#                 Cambridge Crystallographic Data Centre
#                                CCDC
#
#######################################################################
#
# If this CIF has been generated from an entry in the Cambridge
# Structural Database, then it will include bibliographic, chemical,
# crystal, experimental, refinement or atomic coordinate data resulting
# from the CCDC's data processing and validation procedures.
#
#######################################################################

data_CSD_CIF_WUHPUN
_audit_creation_date 2020-03-24
_audit_creation_method CSD-ConQuest-V1
_database_code_CSD WUHPUN
_database_code_depnum_ccdc_archive 'CCDC 873668'
_chemical_formula_sum 'C16 H14 Cl2 Co1 N2 S2'
_chemical_formula_moiety
;
C16 H14 Cl2 Co1 N2 S2
;
_journal_coden_Cambridge 2020
_journal_volume 5
_journal_year 2020
_journal_page_first 3471
_journal_name_full 'Chem. Sel. '
loop_
_publ_author_name
"S.K.Nandanwar"
"S.B.Borkar"
"B.N.Wijaya"
"Joung Hyung Cho"
"N.H.Tarte"
"Hak Jun Kim"
_chemical_name_systematic
;
dichloro-bis(2-methyl-1,3-benzothiazole)-cobalt(ii)
;
_cell_volume    880.326
_exptl_crystal_density_diffrn 1.614
_diffrn_ambient_temperature 296
#These two values have been output from a single CSD field.
_refine_ls_R_factor_gt 0.0753
_refine_ls_wR_factor_gt 0.0753
_symmetry_cell_setting triclinic
_symmetry_space_group_name_H-M 'P 1'
_symmetry_Int_Tables_number 1
loop_
_symmetry_equiv_pos_site_id
_symmetry_equiv_pos_as_xyz
1 x,y,z
_cell_length_a 8.4268(8)
_cell_length_b 9.0981(8)
_cell_length_c 12.8867(12)
_cell_angle_alpha 72.744(5)
_cell_angle_beta 78.657(6)
_cell_angle_gamma 69.751(5)
_cell_formula_units_Z 2
loop_
_atom_type_symbol
_atom_type_radius_bond
C 0.68
H 0.23
Cl 0.99
Co 1.26
N 0.68
S 1.02
loop_
_atom_site_label
_atom_site_type_symbol
_atom_site_fract_x
_atom_site_fract_y
_atom_site_fract_z
Co1 Co 0.89357(9) 0.63903(9) 0.21646(7)
N1 N 0.8921(9) 0.8238(9) 0.2830(7)
N2 N 1.0246(9) 0.6941(9) 0.0641(7)
Cl1 Cl 0.6377(3) 0.6484(3) 0.1826(2)
Cl2 Cl 1.0114(3) 0.3958(3) 0.3246(2)
S1 S 1.0124(3) 1.0041(3) 0.3410(3)
S2 S 1.0668(4) 0.8201(4) -0.1427(3)
C1 C 1.1983(11) 0.7100(11) 0.3001(8)
H1 H 1.21110 0.61390 0.28300
H2 H 1.29190 0.72860 0.31570
C2 C 1.0291(11) 0.8335(11) 0.3024(8)
C3 C 0.7473(11) 0.9517(9) 0.3002(8)
C4 C 0.5840(12) 0.9836(12) 0.2898(9)
H3 H 0.55170 0.91320 0.26490
C5 C 0.4636(13) 1.1154(13) 0.3146(8)
H4 H 0.34910 1.13060 0.31280
C6 C 0.5142(13) 1.2295(10) 0.3431(9)
H5 H 0.43310 1.32520 0.35350
C7 C 0.6673(15) 1.2040(13) 0.3547(10)
H6 H 0.69550 1.27820 0.37830
C8 C 0.7942(11) 1.0688(11) 0.3334(9)
C9 C 0.8058(13) 0.9634(12) 0.0065(10)
H7 H 0.70720 0.92730 0.03070
H8 H 0.78680 1.04840 -0.05930
H9 H 0.82660 1.00310 0.06210
C10 C 0.9652(11) 0.8173(11) -0.0167(8)
C11 C 1.1772(10) 0.5853(11) 0.0199(9)
C12 C 1.2893(13) 0.4420(14) 0.0804(10)
H10 H 1.26400 0.40510 0.15520
C13 C 1.4273(14) 0.3635(14) 0.0297(10)
H11 H 1.50520 0.27410 0.06890
C14 C 1.4592(14) 0.4156(16) -0.0876(11)
H12 H 1.55270 0.35180 -0.12290
C15 C 1.3665(14) 0.5434(14) -0.1445(10)
H13 H 1.39390 0.57710 -0.21940
C16 C 1.2135(12) 0.6370(12) -0.0877(10)
Co2 Co 0.43832(9) 0.18718(9) 0.67710(7)
N3 N 0.3005(8) 0.1363(9) 0.8323(6)
N4 N 0.4373(7) 0.0077(8) 0.6137(6)
Cl3 Cl 0.3181(3) 0.4297(3) 0.5694(2)
Cl4 Cl 0.6930(2) 0.1787(3) 0.7108(2)
S3 S 0.2657(4) 0.0058(4) 1.0378(3)
S4 S 0.3174(3) -0.1791(3) 0.5533(2)
C17 C 0.5115(13) -0.1293(11) 0.8898(8)
H14 H 0.47490 -0.20090 0.86510
H15 H 0.55970 -0.18550 0.95770
H16 H 0.59550 -0.09310 0.83620
C18 C 0.3726(11) 0.0036(11) 0.9052(7)
C19 C 0.1556(11) 0.2373(12) 0.8720(9)
C20 C 0.0510(11) 0.3752(12) 0.8137(10)
H17 H 0.07400 0.40930 0.73840
C21 C -0.0971(12) 0.4679(15) 0.8714(11)
H18 H -0.16730 0.56360 0.83210
C22 C -0.1362(11) 0.4205(14) 0.9795(10)
H19 H -0.23470 0.47930 1.01430
C23 C -0.0197(14) 0.2736(14) 1.0415(9)
H20 H -0.04010 0.24090 1.11710
C24 C 0.1137(13) 0.1887(13) 0.9889(8)
C25 C 0.1223(10) 0.1209(10) 0.6022(9)
H21 H 0.10820 0.15290 0.66890
H22 H 0.03380 0.07670 0.60290
H23 H 0.11620 0.21350 0.54130
C26 C 0.2922(10) -0.0045(10) 0.5921(7)
C27 C 0.5737(9) -0.1319(10) 0.5948(7)
C28 C 0.7472(10) -0.1467(11) 0.6046(8)
H24 H 0.77540 -0.06790 0.62280
C29 C 0.8696(11) -0.2888(11) 0.5848(9)
H25 H 0.98190 -0.30700 0.59460
C30 C 0.8326(11) -0.4014(12) 0.5520(9)
H26 H 0.92040 -0.48950 0.53530
C31 C 0.6545(10) -0.3861(11) 0.5423(9)
H27 H 0.62500 -0.46380 0.52370
C32 C 0.5345(12) -0.2432(11) 0.5639(9)
#END
