
#######################################################################
#
#                 Cambridge Crystallographic Data Centre
#                                CCDC
#
#######################################################################
#
# If this CIF has been generated from an entry in the Cambridge
# Structural Database, then it will include bibliographic, chemical,
# crystal, experimental, refinement or atomic coordinate data resulting
# from the CCDC's data processing and validation procedures.
#
#######################################################################

data_CSD_CIF_WULYOT
_audit_creation_date 2015-05-27
_audit_creation_method CSD-ConQuest-V1
_database_code_CSD WULYOT
_database_code_depnum_ccdc_archive 'CCDC 1403491'
_database_code_depnum_ccdc_journal 1267/4168
_chemical_formula_sum 'C12 H16 Mn1 O16 S2'
_chemical_formula_moiety
;
2(C6 H3 O4 S1 1-),H6 Mn1 O6 2+,2(H2 O1)
;
_journal_coden_Cambridge 1267
_journal_volume 229
_journal_year 2014
_journal_page_first 349
_journal_name_full 'Z.Kristallogr.-New Cryst.Struct. '
loop_
_publ_author_name
"Shi-Hui Li"
"Dai-Jian Guo"
"Yan Zhao"
_chemical_name_systematic
;
hexahydroxo-manganese bis(4-carboxythiophene-3-carboxylate) dihydrate
;
_cell_volume   1094.747
_exptl_crystal_colour 'pink'
_exptl_crystal_density_diffrn 1.624
_exptl_crystal_description 'block'
_diffrn_ambient_temperature 296
#These two values have been output from a single CSD field.
_refine_ls_R_factor_gt 0.0469
_refine_ls_wR_factor_gt 0.0469
_symmetry_cell_setting monoclinic
_symmetry_space_group_name_H-M 'C 2/m'
_symmetry_Int_Tables_number 12
loop_
_symmetry_equiv_pos_site_id
_symmetry_equiv_pos_as_xyz
1 x,y,z
2 -x,y,-z
3 1/2+x,1/2+y,z
4 1/2-x,1/2+y,-z
5 -x,-y,-z
6 x,-y,z
7 -1/2-x,-1/2-y,-z
8 -1/2+x,-1/2-y,z
_cell_length_a 6.991(2)
_cell_length_b 17.518(6)
_cell_length_c 9.440(3)
_cell_angle_alpha 90
_cell_angle_beta 108.750(4)
_cell_angle_gamma 90
_cell_formula_units_Z 2
loop_
_atom_type_symbol
_atom_type_radius_bond
C 0.68
H 0.23
Mn 1.61
O 0.68
S 1.02
loop_
_atom_site_label
_atom_site_type_symbol
_atom_site_fract_x
_atom_site_fract_y
_atom_site_fract_z
Mn1 Mn 0.00000 0.50000 0.50000
O1 O 0.2316(5) 0.50000 0.3829(4)
O2 O 0.00000 0.37601(17) 0.50000
O3 O 0.2448(6) 0.50000 0.7091(4)
O4 O 0.50000 0.37821(19) 0.50000
H1 H 0.43460 0.34870 0.53930
O5 O 0.1783(4) 0.20825(15) 0.3226(3)
O6 O 0.0745(4) 0.12771(13) 0.1348(3)
S1 S 0.00000 0.40079(7) 0.00000
C1 C 0.0739(5) 0.33318(18) 0.1362(4)
H2 H 0.12870 0.34440 0.23760
C2 C 0.0440(4) 0.26106(15) 0.0805(3)
C3 C 0.1034(4) 0.19599(17) 0.1869(3)
H3? H 0.00000 0.12550 0.00000
H4? H 0.31410 0.46600 0.41720
H5? H -0.10460 0.36040 0.43870
H6? H 0.26400 0.54360 0.74230
O1A O -0.2316(5) 0.50000 0.6171(4)
O3A O -0.2448(6) 0.50000 0.2909(4)
O2D O 0.00000 0.62399(17) 0.50000
H1A H 0.56540 0.34870 0.46070
O5A O -0.1783(4) 0.20825(15) -0.3226(3)
O6A O -0.0745(4) 0.12771(13) -0.1348(3)
C1A C -0.0739(5) 0.33318(18) -0.1362(4)
H2A H -0.12870 0.34440 -0.23760
C2A C -0.0440(4) 0.26106(15) -0.0805(3)
C3A C -0.1034(4) 0.19599(17) -0.1869(3)
#END
