
#######################################################################
#
#                 Cambridge Crystallographic Data Centre
#                                CCDC
#
#######################################################################
#
# If this CIF has been generated from an entry in the Cambridge
# Structural Database, then it will include bibliographic, chemical,
# crystal, experimental, refinement or atomic coordinate data resulting
# from the CCDC's data processing and validation procedures.
#
#######################################################################

data_CSD_CIF_WUWDEY
_audit_creation_date 2010-10-28
_audit_creation_method CSD-ConQuest-V1
_database_code_CSD WUWDEY
_database_code_depnum_ccdc_archive 'CCDC 730073'
_chemical_formula_sum 'C26 H32 Co1 N6 O12'
_chemical_formula_moiety
;
C14 H10 Co1 N2 O10 2-,2(C6 H9 N2 1+),2(H2 O1)
;
_journal_coden_Cambridge 155
_journal_volume 363
_journal_year 2010
_journal_page_first 2149
_journal_name_full 'Inorg.Chim.Acta '
loop_
_publ_author_name
"A.T.Colak"
"F.Colak"
"O.Z.Yesilel"
"D.Akduman"
"F.Yilmanz"
"M.Tumer"
_chemical_name_systematic
;
bis(2-Amino-6-methylpyridinium) 
diaqua-bis(pyridine-2,5-dicarboxylato-N,O)-cobalt(ii) dihydrate
;
_cell_volume    730.731
_exptl_crystal_colour 'orange'
_exptl_crystal_density_diffrn 1.544
_exptl_crystal_description 'flat plate'
_diffrn_ambient_temperature 100
#These two values have been output from a single CSD field.
_refine_ls_R_factor_gt 0.0284
_refine_ls_wR_factor_gt 0.0284
_symmetry_cell_setting triclinic
_symmetry_space_group_name_H-M 'P -1'
_symmetry_Int_Tables_number 2
loop_
_symmetry_equiv_pos_site_id
_symmetry_equiv_pos_as_xyz
1 x,y,z
2 -x,-y,-z
_cell_length_a 7.165
_cell_length_b 8.563
_cell_length_c 13.031
_cell_angle_alpha 79.51
_cell_angle_beta 77.59
_cell_angle_gamma 70.5
_cell_formula_units_Z 1
loop_
_atom_type_symbol
_atom_type_radius_bond
C 0.68
H 0.23
Co 1.26
N 0.68
O 0.68
loop_
_atom_site_label
_atom_site_type_symbol
_atom_site_fract_x
_atom_site_fract_y
_atom_site_fract_z
N1 N 0.25807(19) 0.00098(16) 1.01198(10)
Co1 Co 0.50000 0.50000 0.50000
O1 O 0.23235(14) 0.51141(11) 0.60490(7)
O2 O 0.51315(16) -0.12249(12) 0.25035(7)
O3 O 0.66468(16) 0.32550(13) 0.60708(8)
O4 O -0.02558(14) 0.40812(12) 0.64903(7)
O5 O 0.68988(16) 0.05754(12) 0.20221(8)
N2 N 0.30492(18) 0.25550(15) 0.94043(9)
N3 N 0.41683(17) 0.31144(13) 0.45771(8)
O6 O 0.93877(19) 0.17914(17) 0.82497(10)
C1 C 0.1403(2) 0.41379(15) 0.59583(10)
C2 C 0.2441(2) 0.15521(17) 1.02482(11)
C3 C 0.5567(2) 0.00373(16) 0.26187(10)
C4 C 0.4402(2) 0.10062(16) 0.35344(10)
C5 C 0.1589(2) 0.18176(17) 0.49165(11)
C6 C 0.5141(2) 0.21653(16) 0.38018(10)
C7 C 0.24115(19) 0.29529(15) 0.51219(10)
C8 C 0.2306(2) 0.47932(19) 1.03920(11)
C9 C 0.1664(2) 0.3791(2) 1.12938(11)
C10 C 0.2999(2) 0.41479(17) 0.94467(11)
C11 C 0.1723(2) 0.22098(19) 1.12303(11)
C12 C 0.2606(2) 0.08257(17) 0.41103(11)
C13 C 0.3732(2) 0.50576(19) 0.84307(11)
H1 H 0.504(3) 0.460(2) 0.8240(14)
H2 H 0.273(3) -0.025(2) 0.9479(16)
H3 H 0.752(3) 0.350(2) 0.6254(15)
H4 H 0.613(3) 0.264(3) 0.6537(18)
H5 H 0.948(4) 0.247(3) 0.771(2)
H6 H 1.057(4) 0.101(3) 0.8174(19)
H7 H 0.220(3) 0.586(2) 1.0424(14)
H8 H 0.356(3) 0.623(2) 0.8540(14)
H9 H 0.208(3) 0.006(2) 0.3934(14)
H10 H 0.635(3) 0.233(2) 0.3416(13)
H11 H 0.133(3) 0.152(2) 1.1802(16)
H12 H 0.114(3) 0.423(2) 1.1947(16)
H13 H 0.038(3) 0.175(2) 0.5276(15)
H14 H 0.298(3) 0.504(2) 0.7876(14)
H15 H 0.360(4) 0.215(3) 0.8800(19)
H16 H 0.216(3) -0.060(3) 1.0676(18)
O1A O 0.76765(14) 0.48859(11) 0.39510(7)
O2A O 0.48685(16) 1.12249(12) 0.74965(7)
O3A O 0.33532(16) 0.67450(13) 0.39292(8)
O4A O 1.02558(14) 0.59188(12) 0.35097(7)
O5A O 0.31012(16) 0.94246(12) 0.79779(8)
N3A N 0.58317(17) 0.68856(13) 0.54229(8)
C1A C 0.8597(2) 0.58621(15) 0.40417(10)
C3A C 0.4433(2) 0.99627(16) 0.73813(10)
C4A C 0.5598(2) 0.89938(16) 0.64656(10)
C5A C 0.8411(2) 0.81824(17) 0.50835(11)
C6A C 0.4859(2) 0.78347(16) 0.61982(10)
C7A C 0.75885(19) 0.70471(15) 0.48781(10)
C12A C 0.7394(2) 0.91743(17) 0.58897(11)
H3A H 0.248(3) 0.650(2) 0.3746(15)
H4A H 0.387(3) 0.736(3) 0.3463(18)
H9A H 0.792(3) 0.994(2) 0.6066(14)
H10A H 0.365(3) 0.767(2) 0.6584(13)
H13A H 0.962(3) 0.825(2) 0.4724(15)
#END
