
#######################################################################
#
#                 Cambridge Crystallographic Data Centre
#                                CCDC
#
#######################################################################
#
# If this CIF has been generated from an entry in the Cambridge
# Structural Database, then it will include bibliographic, chemical,
# crystal, experimental, refinement or atomic coordinate data resulting
# from the CCDC's data processing and validation procedures.
#
#######################################################################

data_CSD_CIF_XACSOK
_audit_creation_date 2005-01-11
_audit_creation_method CSD-ConQuest-V1
_database_code_CSD XACSOK
_database_code_depnum_ccdc_archive 'CCDC 234160'
_chemical_formula_sum 'C14 H19 Fe1 N2 P1'
_chemical_formula_moiety
;
C14 H19 Fe1 N2 P1
;
_journal_coden_Cambridge 1295
_journal_volume 7
_journal_year 2004
_journal_page_first 884
_journal_name_full 'Inorg.Chem.Commun. '
loop_
_publ_author_name
"B.Wrackmeyer"
"E.V.Klimkina"
"W.Milius"
_chemical_name_systematic
;
2-t-Butyl-1,3,2-diazaphospha(3)ferrocenophane
;
_chemical_melting_point 467.15
_cell_volume   1363.715
_exptl_crystal_colour 'orange'
_exptl_crystal_density_diffrn 1.472
_exptl_special_details
;
Melting point range 467.15-469.15K

;
_exptl_crystal_description 'prism'
_exptl_crystal_preparation 'dichloromethane'
_diffrn_ambient_temperature 293
#These two values have been output from a single CSD field.
_refine_ls_R_factor_gt 0.0425
_refine_ls_wR_factor_gt 0.0425
_symmetry_cell_setting monoclinic
_symmetry_space_group_name_H-M 'C c'
_symmetry_Int_Tables_number 9
loop_
_symmetry_equiv_pos_site_id
_symmetry_equiv_pos_as_xyz
1 x,y,z
2 x,-y,1/2+z
3 1/2+x,1/2+y,z
4 1/2+x,1/2-y,1/2+z
_cell_length_a 17.059(3)
_cell_length_b 8.6051(17)
_cell_length_c 10.560(2)
_cell_angle_alpha 90
_cell_angle_beta 118.39(3)
_cell_angle_gamma 90
_cell_formula_units_Z 4
loop_
_atom_type_symbol
_atom_type_radius_bond
C 0.68
H 0.23
Fe 1.34
N 0.68
P 1.05
loop_
_atom_site_label
_atom_site_type_symbol
_atom_site_fract_x
_atom_site_fract_y
_atom_site_fract_z
Fe1 Fe 0.31819(4) 0.23049(7) 0.71356(5)
N1 N 0.1411(2) 0.1026(6) 0.4773(5)
H1 H 0.10900 0.08440 0.38680
N2 N 0.2494(2) -0.1050(6) 0.6835(4)
H2 H 0.25830 -0.20130 0.67250
P1 P 0.14385(6) -0.02051(17) 0.60771(12)
C1 C 0.1961(3) 0.2372(6) 0.5304(6)
C2 C 0.2658(3) 0.2830(7) 0.4988(6)
H3 H 0.28100 0.23260 0.43000
C3 C 0.3086(3) 0.4155(8) 0.5847(6)
H4 H 0.35920 0.47060 0.58570
C4 C 0.2681(3) 0.4533(8) 0.6703(6)
H5 H 0.28450 0.53920 0.73920
C5 C 0.1977(3) 0.3413(7) 0.6366(6)
H6 H 0.15790 0.33750 0.67950
C6 C 0.3198(2) 0.0016(6) 0.7658(5)
C7 C 0.3943(3) 0.0374(7) 0.7433(6)
H7 H 0.40780 -0.01050 0.67180
C8 C 0.4466(3) 0.1533(8) 0.8468(6)
H8 H 0.50130 0.20080 0.85640
C9 C 0.4032(3) 0.1924(9) 0.9288(6)
H9 H 0.42300 0.26990 1.00590
C10 C 0.3254(3) 0.0972(7) 0.8782(5)
H10 H 0.28250 0.09870 0.91530
C11 C 0.0725(3) -0.1837(7) 0.4978(6)
C12 C -0.0206(3) -0.1149(10) 0.4013(9)
H11 H -0.05980 -0.19560 0.34230
H12 H -0.01630 -0.03550 0.34110
H13 H -0.04360 -0.07090 0.46050
C13 C 0.0664(4) -0.2987(9) 0.6034(8)
H14 H 0.02990 -0.38530 0.55110
H15 H 0.04050 -0.24800 0.65560
H16 H 0.12500 -0.33500 0.66970
C14 C 0.1071(4) -0.2667(8) 0.4046(7)
H17 H 0.06690 -0.34890 0.35120
H18 H 0.16510 -0.30930 0.46560
H19 H 0.11090 -0.19350 0.33910
#END
