
#######################################################################
#
#                 Cambridge Crystallographic Data Centre
#                                CCDC
#
#######################################################################
#
# If this CIF has been generated from an entry in the Cambridge
# Structural Database, then it will include bibliographic, chemical,
# crystal, experimental, refinement or atomic coordinate data resulting
# from the CCDC's data processing and validation procedures.
#
#######################################################################

data_CSD_CIF_XADWEF
_audit_creation_date 2005-01-11
_audit_creation_method CSD-ConQuest-V1
_database_code_CSD XADWEF
_database_code_depnum_ccdc_archive 'CCDC 242199'
_chemical_formula_sum 'C14 H18 D3 Cr1 O4 P2 Si1'
_chemical_formula_moiety
;
C11 H18 Cr1 O4 P2 Si1,0.5(C6 D6)
;
_journal_coden_Cambridge 1078
_journal_year 2004
_journal_name_full 'CSD Communication(Private Communication) '
loop_
_publ_author_name
"P.G.Jones"
"C.Thone"
"S.Jager"
_chemical_name_systematic
;
(1,3,5,5-tetramethyl-1,3,5-diphosphasilinan-1,3-diyl)-tetracarbonyl-chromium 
perdeuterobenzene solvate
;
_cell_volume    942.905
_exptl_crystal_colour 'yellow'
_exptl_crystal_density_diffrn 1.403
_exptl_special_details
;
contribution from Institut fur Anorganische und Analytische Chemie, 
Technische Universitat Braunschweig, Postfach 3329, 38023 Braunschweig, 
Germany
;
_exptl_crystal_description 'prism'
_diffrn_ambient_temperature 173
#These two values have been output from a single CSD field.
_refine_ls_R_factor_gt 0.0292
_refine_ls_wR_factor_gt 0.0292
_symmetry_cell_setting triclinic
_symmetry_space_group_name_H-M 'P -1'
_symmetry_Int_Tables_number 2
loop_
_symmetry_equiv_pos_site_id
_symmetry_equiv_pos_as_xyz
1 x,y,z
2 -x,-y,-z
_cell_length_a 7.5965(9)
_cell_length_b 9.1281(8)
_cell_length_c 14.572(2)
_cell_angle_alpha 103.623(12)
_cell_angle_beta 103.089(12)
_cell_angle_gamma 96.069(11)
_cell_formula_units_Z 2
loop_
_atom_type_symbol
_atom_type_radius_bond
C 0.68
H 0.23
Cr 1.35
D 0.23
O 0.68
P 1.05
Si 1.20
loop_
_atom_site_label
_atom_site_type_symbol
_atom_site_fract_x
_atom_site_fract_y
_atom_site_fract_z
Cr1 Cr 0.04928(5) 0.45216(4) 0.24558(3)
C1 C -0.1111(3) 0.2860(3) 0.15513(19)
O1 O -0.2151(2) 0.1867(2) 0.09895(15)
C2 C -0.0829(3) 0.4566(3) 0.33841(19)
O2 O -0.1672(3) 0.4557(2) 0.39506(15)
C3 C 0.1897(3) 0.3202(3) 0.29966(19)
O3 O 0.2729(3) 0.2371(2) 0.33132(14)
C4 C -0.1019(3) 0.5744(3) 0.18982(18)
O4 O -0.2047(2) 0.6426(2) 0.15441(14)
Si1 Si 0.28122(9) 0.83528(7) 0.17260(5)
C5 C 0.0884(4) 0.9258(3) 0.1209(2)
H1 H 0.10970 1.03440 0.15620
H2 H -0.02640 0.87500 0.12760
H3 H 0.08000 0.91600 0.05150
C6 C 0.5036(4) 0.9426(3) 0.1723(2)
H4 H 0.50020 0.94950 0.10580
H5 H 0.60330 0.88900 0.19460
H6 H 0.52430 1.04570 0.21620
C7 C 0.2862(3) 0.8395(3) 0.30369(18)
H7 H 0.39530 0.91290 0.34700
H8 H 0.17670 0.87960 0.31840
P1 P 0.29173(8) 0.65830(7) 0.33483(5)
C8 C 0.3983(4) 0.7077(3) 0.46524(18)
H9 H 0.51710 0.77370 0.47980
H10 H 0.41650 0.61420 0.48560
H11 H 0.31890 0.76190 0.50070
C9 C 0.4552(3) 0.5774(3) 0.27026(17)
H12 H 0.54480 0.65610 0.26110
H13 H 0.51890 0.50420 0.30010
P2 P 0.27235(8) 0.48431(7) 0.15899(5)
C10 C 0.3604(3) 0.3327(3) 0.08638(19)
H14 H 0.27130 0.28810 0.02290
H15 H 0.38090 0.25330 0.12080
H16 H 0.47640 0.37490 0.07630
C11 C 0.2587(4) 0.6313(3) 0.09377(18)
H17 H 0.13960 0.60590 0.04380
H18 H 0.35650 0.62840 0.05890
C12 C -0.0513(5) 0.8524(4) 0.5008(3)
D1 D -0.08810 0.74960 0.50080
C13 C -0.1145(5) 0.9005(4) 0.4196(3)
D2 D -0.19450 0.83030 0.36290
C14 C 0.0644(5) 0.9517(4) 0.5816(3)
D3 D 0.11000 0.91900 0.63840
C14A C -0.0644(5) 1.0483(4) 0.4184(3)
C12A C 0.0513(5) 1.1476(4) 0.4992(3)
D1A D 0.08810 1.25040 0.49920
C13A C 0.1145(5) 1.0995(4) 0.5804(3)
D2A D 0.19450 1.16970 0.63710
D3A D -0.11000 1.08100 0.36160
#END
