
#######################################################################
#
#                 Cambridge Crystallographic Data Centre
#                                CCDC
#
#######################################################################
#
# If this CIF has been generated from an entry in the Cambridge
# Structural Database, then it will include bibliographic, chemical,
# crystal, experimental, refinement or atomic coordinate data resulting
# from the CCDC's data processing and validation procedures.
#
#######################################################################

data_CSD_CIF_XAHLEY
_audit_creation_date 2005-01-11
_audit_creation_method CSD-ConQuest-V1
_database_code_CSD XAHLEY
_database_code_depnum_ccdc_archive 'CCDC 233950'
_chemical_formula_sum 'C14 H17 Br2 Mn1 N3'
_chemical_formula_moiety
;
C14 H17 Br2 Mn1 N3
;
_journal_coden_Cambridge 155
_journal_volume 357
_journal_year 2004
_journal_page_first 3430
_journal_name_full 'Inorg.Chim.Acta '
loop_
_publ_author_name
"C.Baffert"
"I.Romero"
"J.Pecaut"
"A.Llobet"
"A.Deronzier"
"M.-N.Collomb"
_chemical_name_systematic
;
Dibromo-(N,N-bis(2-pyridylmethyl)ethylamine)-manganese(ii)
;
_cell_volume    829.718
_exptl_crystal_colour 'colorless'
_exptl_crystal_density_diffrn 1.769
_exptl_crystal_preparation 'acetonitrile'
_diffrn_ambient_temperature 298
#These two values have been output from a single CSD field.
_refine_ls_R_factor_gt 0.0523
_refine_ls_wR_factor_gt 0.0523
_symmetry_cell_setting triclinic
_symmetry_space_group_name_H-M 'P -1'
_symmetry_Int_Tables_number 2
loop_
_symmetry_equiv_pos_site_id
_symmetry_equiv_pos_as_xyz
1 x,y,z
2 -x,-y,-z
_cell_length_a 8.0447(10)
_cell_length_b 8.5828(11)
_cell_length_c 13.709(2)
_cell_angle_alpha 78.454(3)
_cell_angle_beta 73.560(2)
_cell_angle_gamma 66.716(2)
_cell_formula_units_Z 2
loop_
_atom_type_symbol
_atom_type_radius_bond
C 0.68
H 0.23
Br 1.21
Mn 1.35
N 0.68
loop_
_atom_site_label
_atom_site_type_symbol
_atom_site_fract_x
_atom_site_fract_y
_atom_site_fract_z
Mn1 Mn 0.62689(5) 0.66829(5) 0.25592(3)
Br1 Br 0.83672(5) 0.75608(5) 0.10113(3)
Br2 Br 0.79570(5) 0.45940(4) 0.38372(3)
N1 N 0.3071(3) 0.7858(3) 0.27146(16)
N2 N 0.5214(3) 0.9054(3) 0.33407(17)
N3 N 0.5521(3) 0.4997(3) 0.18528(19)
C1 C 0.2281(4) 0.8708(4) 0.3667(2)
H1 H 0.218(5) 0.797(5) 0.430(3)
H2 H 0.109(5) 0.929(4) 0.362(3)
C2 C 0.3386(4) 0.9743(3) 0.37218(19)
C3 C 0.2592(6) 1.1266(4) 0.4146(2)
H3 H 0.138(4) 1.175(4) 0.428(2)
C4 C 0.3700(7) 1.2100(4) 0.4194(3)
H4 H 0.322(6) 1.318(5) 0.443(3)
C5 C 0.5544(6) 1.1427(4) 0.3809(3)
H5 H 0.637(4) 1.190(4) 0.382(3)
C6 C 0.6254(5) 0.9915(4) 0.3386(3)
H6 H 0.742(4) 0.940(4) 0.310(2)
C7 C 0.2377(4) 0.6502(4) 0.2742(3)
H7 H 0.138(5) 0.687(4) 0.254(3)
H8 H 0.213(5) 0.595(4) 0.355(3)
C8 C 0.3741(4) 0.5203(3) 0.2028(2)
C9 C 0.3179(5) 0.4235(4) 0.1566(3)
H9 H 0.185(5) 0.450(4) 0.165(3)
C10 C 0.4491(5) 0.3029(4) 0.0966(3)
H10 H 0.432(5) 0.223(5) 0.065(3)
C11 C 0.6327(6) 0.2808(4) 0.0789(3)
H11 H 0.743(4) 0.189(4) 0.031(2)
C12 C 0.6795(5) 0.3820(4) 0.1245(3)
H12 H 0.798(4) 0.384(4) 0.110(2)
C13 C 0.2858(4) 0.9105(3) 0.1793(2)
H13 H 0.361(5) 0.840(4) 0.121(3)
H14 H 0.374(4) 0.978(3) 0.172(2)
C14 C 0.0916(5) 1.0303(5) 0.1743(3)
H15 H 0.121(6) 1.106(5) 0.092(3)
H16 H 0.014(7) 1.116(6) 0.231(4)
H17 H 0.004(7) 0.962(6) 0.194(4)
#END
