
#######################################################################
#
#                 Cambridge Crystallographic Data Centre
#                                CCDC
#
#######################################################################
#
# If this CIF has been generated from an entry in the Cambridge
# Structural Database, then it will include bibliographic, chemical,
# crystal, experimental, refinement or atomic coordinate data resulting
# from the CCDC's data processing and validation procedures.
#
#######################################################################

data_CSD_CIF_XAKHIC
_audit_creation_date 2010-11-12
_audit_creation_method CSD-ConQuest-V1
_database_code_CSD XAKHIC
_database_code_depnum_ccdc_archive 'CCDC 797613'
_chemical_formula_sum 'C10 H14 Mn1 N6 O7'
_chemical_formula_moiety
;
C10 H12 Mn1 N6 O6,H2 O1
;
_journal_coeditor_code "IUCr XU5022"
_journal_coden_Cambridge 1370
_journal_volume 66
_journal_year 2010
_journal_page_first m1223
_journal_name_full 'Acta Crystallogr.,Sect.E:Struct.Rep.Online '
loop_
_publ_author_name
"Shan Gao"
"Seik Weng Ng"
_chemical_name_systematic
;
Diaqua-bis(3-aminopyrazine-2-carboxylato)-manganese(ii) monohydrate
;
_cell_volume   3043.798
_exptl_crystal_colour 'yellow'
_exptl_crystal_density_diffrn 1.681
_exptl_special_details
;
isostructural with the Mg analogue

;
_exptl_crystal_description 'prism'
_diffrn_ambient_temperature 293
#These two values have been output from a single CSD field.
_refine_ls_R_factor_gt 0.0472
_refine_ls_wR_factor_gt 0.0472
_symmetry_cell_setting orthorhombic
_symmetry_space_group_name_H-M 'F d d 2'
_symmetry_Int_Tables_number 43
loop_
_symmetry_equiv_pos_site_id
_symmetry_equiv_pos_as_xyz
1 x,y,z
2 -x,-y,z
3 1/4-x,1/4+y,1/4+z
4 1/4+x,1/4-y,1/4+z
5 x,1/2+y,1/2+z
6 -x,1/2-y,1/2+z
7 1/4-x,3/4+y,3/4+z
8 1/4+x,3/4-y,3/4+z
9 1/2+x,y,1/2+z
10 1/2-x,-y,1/2+z
11 3/4-x,1/4+y,3/4+z
12 3/4+x,1/4-y,3/4+z
13 1/2+x,1/2+y,z
14 1/2-x,1/2-y,z
15 3/4-x,3/4+y,1/4+z
16 3/4+x,3/4-y,1/4+z
_cell_length_a 8.3107(6)
_cell_length_b 29.5862(17)
_cell_length_c 12.3791(7)
_cell_angle_alpha 90
_cell_angle_beta 90
_cell_angle_gamma 90
_cell_formula_units_Z 8
loop_
_atom_type_symbol
_atom_type_radius_bond
C 0.68
H 0.23
Mn 1.61
N 0.68
O 0.68
loop_
_atom_site_label
_atom_site_type_symbol
_atom_site_fract_x
_atom_site_fract_y
_atom_site_fract_z
Mn1 Mn 0.25000 0.25000 0.53687(11)
O1 O 0.0649(6) 0.26569(16) 0.4190(4)
O2 O -0.0500(7) 0.31796(16) 0.3169(4)
O3 O 0.0675(8) 0.24512(17) 0.6593(4)
H1 H 0.084(11) 0.225(2) 0.706(5)
H2 H 0.006(9) 0.267(2) 0.675(8)
N1 N 0.2472(6) 0.32757(14) 0.5175(4)
N2 N 0.2176(7) 0.41941(18) 0.4774(5)
N3 N 0.0251(9) 0.4054(2) 0.3489(6)
H3 H -0.048(9) 0.391(3) 0.311(7)
H4 H 0.035(11) 0.4344(8) 0.335(8)
C1 C 0.0468(8) 0.30645(19) 0.3886(5)
C2 C 0.1439(7) 0.34192(19) 0.4439(5)
C3 C 0.1271(8) 0.3890(2) 0.4229(5)
C4 C 0.3184(10) 0.4035(2) 0.5501(7)
H5 H 0.38080 0.42410 0.58860
C5 C 0.3368(9) 0.3572(2) 0.5727(6)
H6 H 0.40950 0.34740 0.62480
O4 O -0.25000 0.25000 0.5133(9)
H7 H -0.164(7) 0.248(4) 0.478(7)
O1M O 0.4351(6) 0.23431(16) 0.4190(4)
O2M O 0.5500(7) 0.18204(16) 0.3169(4)
O3M O 0.4325(8) 0.25488(17) 0.6593(4)
H1M H 0.416(11) 0.275(2) 0.706(5)
H2M H 0.494(9) 0.233(2) 0.675(8)
N1M N 0.2528(6) 0.17243(14) 0.5175(4)
N2M N 0.2824(7) 0.08059(18) 0.4774(5)
N3M N 0.4749(9) 0.0946(2) 0.3489(6)
H3M H 0.548(9) 0.109(3) 0.311(7)
H4M H 0.465(11) 0.0656(8) 0.335(8)
C1M C 0.4532(8) 0.19355(19) 0.3886(5)
C2M C 0.3561(7) 0.15808(19) 0.4439(5)
C3M C 0.3729(8) 0.1110(2) 0.4229(5)
C4M C 0.1816(10) 0.0965(2) 0.5501(7)
H5M H 0.11920 0.07590 0.58860
C5M C 0.1632(9) 0.1428(2) 0.5727(6)
H6M H 0.09050 0.15260 0.62480
H7M H -0.336(7) 0.252(4) 0.478(7)
#END
