
#######################################################################
#
#                 Cambridge Crystallographic Data Centre
#                                CCDC
#
#######################################################################
#
# If this CIF has been generated from an entry in the Cambridge
# Structural Database, then it will include bibliographic, chemical,
# crystal, experimental, refinement or atomic coordinate data resulting
# from the CCDC's data processing and validation procedures.
#
#######################################################################

data_CSD_CIF_XAKJEA
_audit_creation_date 2010-11-12
_audit_creation_method CSD-ConQuest-V1
_database_code_CSD XAKJEA
_database_code_depnum_ccdc_archive 'CCDC 797617'
_chemical_formula_sum 'C10 H12 Mn1 N6 O6'
_chemical_formula_moiety
;
C10 H12 Mn1 N6 O6
;
_journal_coeditor_code "IUCr NG5015"
_journal_coden_Cambridge 1370
_journal_volume 66
_journal_year 2010
_journal_page_first m1228
_journal_name_full 'Acta Crystallogr.,Sect.E:Struct.Rep.Online '
loop_
_publ_author_name
"Min-Yan Zheng"
"Yong-Sheng Wei"
"Wei Geng"
"Guang Fan"
_chemical_name_systematic
;
bis(3-aminopyrazine-2-carboxylato)-diaqua-manganese(ii)
;
_cell_volume   1374.445
_exptl_crystal_colour 'pink'
_exptl_crystal_density_diffrn 1.775
_exptl_crystal_description 'block'
_diffrn_ambient_temperature 296
#These two values have been output from a single CSD field.
_refine_ls_R_factor_gt 0.0311
_refine_ls_wR_factor_gt 0.0311
_symmetry_cell_setting monoclinic
_symmetry_space_group_name_H-M 'C 2/c'
_symmetry_Int_Tables_number 15
loop_
_symmetry_equiv_pos_site_id
_symmetry_equiv_pos_as_xyz
1 x,y,z
2 -x,y,1/2-z
3 1/2+x,1/2+y,z
4 1/2-x,1/2+y,1/2-z
5 -x,-y,-z
6 x,-y,-1/2+z
7 -1/2-x,-1/2-y,-z
8 -1/2+x,-1/2-y,-1/2+z
_cell_length_a 7.9257(11)
_cell_length_b 12.6994(18)
_cell_length_c 13.663(2)
_cell_angle_alpha 90
_cell_angle_beta 91.903(2)
_cell_angle_gamma 90
_cell_formula_units_Z 4
loop_
_atom_type_symbol
_atom_type_radius_bond
C 0.68
H 0.23
Mn 1.61
N 0.68
O 0.68
loop_
_atom_site_label
_atom_site_type_symbol
_atom_site_fract_x
_atom_site_fract_y
_atom_site_fract_z
Mn1 Mn 0.50000 0.30461(4) 0.25000
O1 O 0.6806(3) 0.42418(16) 0.23675(14)
O2 O 0.8132(3) 0.52317(18) 0.12895(17)
O3 O 0.6893(3) 0.19335(16) 0.26050(16)
N1 N 0.5308(3) 0.31144(16) 0.09621(16)
N2 N 0.5990(3) 0.3363(2) -0.09977(17)
N3 N 0.7654(4) 0.4795(2) -0.0636(2)
H1 H 0.78290 0.48580 -0.12510
H2 H 0.81130 0.52310 -0.02250
C1 C 0.4598(3) 0.2483(2) 0.0281(2)
H3 H 0.38550 0.19570 0.04630
C2 C 0.4971(4) 0.2615(2) -0.0691(2)
H4 H 0.44850 0.21580 -0.11510
C3 C 0.6674(4) 0.4023(2) -0.0320(2)
C4 C 0.6355(3) 0.3870(2) 0.0689(2)
C5 C 0.7160(4) 0.4498(2) 0.1509(2)
H5 H 0.764(3) 0.181(2) 0.2150(18)
H6 H 0.678(4) 0.1343(15) 0.295(2)
O1A O 0.3194(3) 0.42418(16) 0.26325(14)
O2A O 0.1868(3) 0.52317(18) 0.37105(17)
O3A O 0.3107(3) 0.19335(16) 0.23950(16)
N1A N 0.4692(3) 0.31144(16) 0.40379(16)
N2A N 0.4010(3) 0.3363(2) 0.59977(17)
N3A N 0.2346(4) 0.4795(2) 0.5636(2)
H1A H 0.21710 0.48580 0.62510
H2A H 0.18870 0.52310 0.52250
C1A C 0.5402(3) 0.2483(2) 0.4719(2)
H3A H 0.61450 0.19570 0.45370
C2A C 0.5029(4) 0.2615(2) 0.5691(2)
H4A H 0.55150 0.21580 0.61510
C3A C 0.3326(4) 0.4023(2) 0.5320(2)
C4A C 0.3645(3) 0.3870(2) 0.4311(2)
C5A C 0.2840(4) 0.4498(2) 0.3491(2)
H5A H 0.236(3) 0.181(2) 0.2850(18)
H6A H 0.322(4) 0.1343(15) 0.205(2)
#END
