
#######################################################################
#
#                 Cambridge Crystallographic Data Centre
#                                CCDC
#
#######################################################################
#
# If this CIF has been generated from an entry in the Cambridge
# Structural Database, then it will include bibliographic, chemical,
# crystal, experimental, refinement or atomic coordinate data resulting
# from the CCDC's data processing and validation procedures.
#
#######################################################################

data_CSD_CIF_XALHUN
_audit_creation_date 2001-01-24
_audit_creation_method CSD-ConQuest-V1
_database_code_CSD XALHUN
_database_code_depnum_ccdc_archive 'CCDC 139128'
_chemical_formula_sum 'C11 H18 Fe1 Ga1 I1 N2 O4'
_chemical_formula_moiety
;
C11 H18 Fe1 Ga1 I1 N2 O4
;
_journal_coden_Cambridge 36
_journal_volume 606
_journal_year 2000
_journal_page_first 132
_journal_name_full 'J.Organomet.Chem. '
loop_
_publ_author_name
"H.Folsing"
"O.Segnitz"
"U.Bossek"
"K.Merz"
"M.Winter"
"R.A.Fischer"
_chemical_name_systematic
;
Tetracarbonyl-iodo-(N,N,N',N'-tetramethylpropylenediamine-N,N')-gallium-iron
;
_cell_volume    832.643
_exptl_crystal_colour 'colorless'
_exptl_crystal_density_diffrn 1.973
_exptl_crystal_description 'prism'
_diffrn_ambient_temperature ?
_diffrn_special_details
;
The study was carried out at room temperature,in the range 283-303K

;
#These two values have been output from a single CSD field.
_refine_ls_R_factor_gt 0.0346
_refine_ls_wR_factor_gt 0.0346
_symmetry_cell_setting triclinic
_symmetry_space_group_name_H-M 'P -1'
_symmetry_Int_Tables_number 2
loop_
_symmetry_equiv_pos_site_id
_symmetry_equiv_pos_as_xyz
1 x,y,z
2 -x,-y,-z
_cell_length_a 8.2059(13)
_cell_length_b 8.2783(13)
_cell_length_c 14.348(2)
_cell_angle_alpha 75.155(3)
_cell_angle_beta 83.953(3)
_cell_angle_gamma 62.117(3)
_cell_formula_units_Z 2
loop_
_atom_type_symbol
_atom_type_radius_bond
C 0.68
H 0.23
Fe 1.34
Ga 1.22
I 1.40
N 0.68
O 0.68
loop_
_atom_site_label
_atom_site_type_symbol
_atom_site_fract_x
_atom_site_fract_y
_atom_site_fract_z
I1 I 0.28962(4) 0.46376(5) 0.42215(2)
O1 O 0.7426(5) 0.0119(5) 0.3430(3)
Ga1 Ga 0.27460(6) 0.34305(6) 0.27126(3)
O2 O 0.4610(6) 0.6575(6) 0.1526(3)
Fe1 Fe 0.52795(9) 0.27082(9) 0.16937(5)
O3 O 0.3416(6) 0.1634(6) 0.0501(3)
O4 O 0.8493(6) 0.1971(6) 0.0459(3)
N1 N 0.1921(5) 0.1363(5) 0.3407(3)
C1 C 0.4796(7) 0.5083(7) 0.1583(4)
N2 N 0.0116(5) 0.5488(5) 0.2180(3)
C2 C -0.1369(6) 0.5562(7) 0.2890(4)
H1 H -0.25450 0.65210 0.25920
H2 H -0.11760 0.59440 0.34370
C3 C 0.6523(6) 0.1125(7) 0.2753(3)
C4 C -0.0295(7) 0.5216(7) 0.1261(3)
H3 H -0.15050 0.61710 0.10300
H4 H -0.02450 0.40000 0.13720
H5 H 0.05990 0.53030 0.07890
C5 C 0.0094(7) 0.7363(6) 0.1935(4)
H6 H -0.11050 0.83220 0.16880
H7 H 0.10010 0.73710 0.14560
H8 H 0.03710 0.76030 0.25040
C6 C 0.4117(7) 0.2081(7) 0.0972(4)
C7 C 0.3334(7) -0.0048(7) 0.4167(4)
H9 H 0.29730 -0.09980 0.44900
H10 H 0.34250 0.05700 0.46270
H11 H 0.45080 -0.06220 0.38730
C8 C 0.7216(7) 0.2249(7) 0.0935(4)
C9 C -0.1482(7) 0.3733(7) 0.3258(4)
H12 H -0.26160 0.39860 0.36120
H13 H -0.15610 0.32950 0.27070
C10 C 0.1868(8) 0.0317(7) 0.2716(4)
H14 H 0.14920 -0.06170 0.30460
H15 H 0.30720 -0.02850 0.24560
H16 H 0.10060 0.11780 0.22020
C11 C 0.0102(7) 0.2166(7) 0.3900(4)
H17 H 0.02500 0.26350 0.44220
H18 H -0.02210 0.11590 0.41830
#END
