
#######################################################################
#
#                 Cambridge Crystallographic Data Centre
#                                CCDC
#
#######################################################################
#
# If this CIF has been generated from an entry in the Cambridge
# Structural Database, then it will include bibliographic, chemical,
# crystal, experimental, refinement or atomic coordinate data resulting
# from the CCDC's data processing and validation procedures.
#
#######################################################################

data_CSD_CIF_XAMFEZ
_audit_creation_date 2017-02-26
_audit_creation_method CSD-ConQuest-V1
_database_code_CSD XAMFEZ
_database_code_depnum_ccdc_archive 'CCDC 1517172'
_chemical_formula_sum 'C9 H8 I1 Mn1 N2 O4'
_chemical_formula_moiety
;
C9 H8 I1 Mn1 N2 O4
;
_journal_coden_Cambridge 36
_journal_volume 835
_journal_year 2017
_journal_page_first 60
_journal_name_full 'J.Organomet.Chem. '
loop_
_publ_author_name
"R.Fraser"
"C.G.C.E.van Sittert"
"P.H.van Rooyen"
"M.Landman"
_chemical_name_systematic
;
tetracarbonyl-(1,3-dimethyl-2,3-dihydro-1H-imidazol-2-ylidene)-iodo-manganese
;
_cell_volume    632.783
_exptl_crystal_colour 'orange'
_exptl_crystal_density_diffrn 2.047
_exptl_crystal_description 'needle'
_diffrn_ambient_temperature 150
#These two values have been output from a single CSD field.
_refine_ls_R_factor_gt 0.0279
_refine_ls_wR_factor_gt 0.0279
_symmetry_cell_setting triclinic
_symmetry_space_group_name_H-M 'P -1'
_symmetry_Int_Tables_number 2
loop_
_symmetry_equiv_pos_site_id
_symmetry_equiv_pos_as_xyz
1 x,y,z
2 -x,-y,-z
_cell_length_a 6.5198(4)
_cell_length_b 7.6250(4)
_cell_length_c 13.3828(7)
_cell_angle_alpha 91.186(2)
_cell_angle_beta 97.541(1)
_cell_angle_gamma 106.027(1)
_cell_formula_units_Z 2
loop_
_atom_type_symbol
_atom_type_radius_bond
C 0.68
H 0.23
I 1.40
Mn 1.61
N 0.68
O 0.68
loop_
_atom_site_label
_atom_site_type_symbol
_atom_site_fract_x
_atom_site_fract_y
_atom_site_fract_z
I1 I 0.87915(3) 0.78144(3) 0.80553(2)
Mn1 Mn 0.49030(8) 0.73256(6) 0.68942(3)
O1 O 0.7227(4) 0.9399(4) 0.5350(2)
O2 O 0.5994(5) 0.4078(4) 0.6050(2)
O3 O 0.0763(4) 0.6881(4) 0.55866(19)
O4 O 0.4730(5) 1.0918(4) 0.7759(2)
N1 N 0.1924(5) 0.4033(4) 0.7796(2)
N2 N 0.3417(5) 0.6117(4) 0.8964(2)
C1 C 0.6378(6) 0.8644(5) 0.5937(3)
C2 C 0.5523(6) 0.5273(5) 0.6378(2)
C3 C 0.2364(6) 0.7022(4) 0.6094(2)
C4 C 0.4737(6) 0.9515(5) 0.7463(3)
C5 C 0.3301(5) 0.5747(5) 0.7954(2)
C6 C 0.1235(6) 0.3364(5) 0.8683(3)
H1 H 0.02860 0.21960 0.87600
C7 C 0.2151(6) 0.4664(5) 0.9407(3)
H2 H 0.19710 0.46070 1.00990
C8 C 0.4413(6) 0.7855(5) 0.9526(3)
H3 H 0.42520 0.77170 1.02400
H4 H 0.59480 0.82570 0.94570
H5 H 0.37110 0.87650 0.92600
C9 C 0.1039(6) 0.2968(5) 0.6833(3)
H6 H 0.00900 0.17770 0.69590
H7 H 0.02150 0.36290 0.63980
H8 H 0.22220 0.27890 0.64980
#END
