
#######################################################################
#
#                 Cambridge Crystallographic Data Centre
#                                CCDC
#
#######################################################################
#
# If this CIF has been generated from an entry in the Cambridge
# Structural Database, then it will include bibliographic, chemical,
# crystal, experimental, refinement or atomic coordinate data resulting
# from the CCDC's data processing and validation procedures.
#
#######################################################################

data_CSD_CIF_XAMMON
_audit_creation_date 2001-01-24
_audit_creation_method CSD-ConQuest-V1
_database_code_CSD XAMMON
_database_code_depnum_ccdc_archive 'CCDC 136080'
_database_code_depnum_ccdc_journal 186/2131
_chemical_formula_sum 'C13 H30 Fe1 I2 N6'
_chemical_formula_moiety
;
C13 H30 Fe1 I2 N6
;
_journal_coden_Cambridge 186
_journal_year 2000
_journal_page_first 3473
_journal_name_full 'J.Chem.Soc.,Dalton Trans. '
loop_
_publ_author_name
"S.Pohl"
"M.Harmjanz"
"J.Schneider"
"W.Saak"
"G.Henkel"
_chemical_name_systematic
;
Diiodo-(1,3-bis(N,N,N',N'-tetramethylguanidino)propane)-iron(ii)
;
_cell_volume   1061.608
_exptl_crystal_colour 'colorless'
_exptl_crystal_density_diffrn 1.815
_exptl_crystal_preparation 'acetonitrile'
_diffrn_ambient_temperature 150
#These two values have been output from a single CSD field.
_refine_ls_R_factor_gt 0.0255
_refine_ls_wR_factor_gt 0.0255
_symmetry_cell_setting triclinic
_symmetry_space_group_name_H-M 'P -1'
_symmetry_Int_Tables_number 2
loop_
_symmetry_equiv_pos_site_id
_symmetry_equiv_pos_as_xyz
1 x,y,z
2 -x,-y,-z
_cell_length_a 9.466(2)
_cell_length_b 10.473(3)
_cell_length_c 12.860(3)
_cell_angle_alpha 69.30(2)
_cell_angle_beta 87.65(2)
_cell_angle_gamma 63.96(2)
_cell_formula_units_Z 2
loop_
_atom_type_symbol
_atom_type_radius_bond
C 0.68
H 0.23
Fe 1.34
I 1.40
N 0.68
loop_
_atom_site_label
_atom_site_type_symbol
_atom_site_fract_x
_atom_site_fract_y
_atom_site_fract_z
I1 I 0.09745(3) 0.27638(3) 0.35844(2)
I2 I 0.43601(3) 0.17665(3) 0.13224(2)
Fe1 Fe 0.22904(6) 0.09540(5) 0.24095(4)
N1 N 0.0342(3) 0.1081(3) 0.1674(2)
N2 N 0.2996(3) -0.1236(3) 0.3518(2)
N3 N -0.1919(3) 0.3092(3) 0.0401(2)
N4 N 0.0497(4) 0.2037(3) -0.0224(2)
N5 N 0.4918(4) -0.2909(4) 0.5114(2)
N6 N 0.5631(3) -0.2597(4) 0.3327(3)
C1 C -0.0611(4) 0.0563(4) 0.2500(3)
H1 H -0.09710 0.11940 0.29390
H2 H -0.15270 0.06790 0.21070
C2 C 0.0357(4) -0.1111(4) 0.3279(3)
H3 H 0.08220 -0.17090 0.28250
H4 H -0.03540 -0.14630 0.36920
C3 C 0.1683(4) -0.1418(4) 0.4107(3)
H5 H 0.20700 -0.24360 0.46620
H6 H 0.12700 -0.07070 0.44820
C4 C -0.0358(4) 0.2051(4) 0.0653(3)
C5 C -0.2716(4) 0.3845(4) 0.1164(3)
H7 H -0.19970 0.34500 0.18320
H8 H -0.30630 0.49260 0.08010
H9 H -0.36180 0.36610 0.13590
C6 C -0.2872(4) 0.3578(4) -0.0649(3)
H10 H -0.22430 0.30130 -0.10870
H11 H -0.37780 0.33870 -0.04990
H12 H -0.32220 0.46530 -0.10570
C7 C 0.0305(5) 0.3446(5) -0.1125(3)
H13 H -0.06230 0.42890 -0.10620
H14 H 0.12180 0.36090 -0.10720
H15 H 0.01780 0.33740 -0.18360
C8 C 0.1850(4) 0.0652(4) -0.0205(3)
H16 H 0.18780 -0.02050 0.04190
H17 H 0.17660 0.05020 -0.08900
H18 H 0.28060 0.07370 -0.01260
C9 C 0.4471(4) -0.2217(4) 0.3988(3)
C10 C 0.6185(5) -0.4453(5) 0.5660(3)
H19 H 0.65970 -0.48880 0.51040
H20 H 0.70160 -0.44190 0.60350
H21 H 0.57810 -0.50710 0.61960
C11 C 0.4160(5) -0.2097(6) 0.5859(3)
H22 H 0.33410 -0.10950 0.54230
H23 H 0.37040 -0.26550 0.64010
H24 H 0.49390 -0.20030 0.62400
C12 C 0.7221(4) -0.2804(5) 0.3582(4)
H25 H 0.73710 -0.28500 0.43300
H26 H 0.79890 -0.37410 0.35200
H27 H 0.73540 -0.19590 0.30580
C13 C 0.5266(5) -0.2522(5) 0.2217(3)
H28 H 0.42010 -0.23840 0.21250
H29 H 0.53560 -0.16710 0.16640
H30 H 0.59910 -0.34530 0.21260
#END
