
#######################################################################
#
#                 Cambridge Crystallographic Data Centre
#                                CCDC
#
#######################################################################
#
# If this CIF has been generated from an entry in the Cambridge
# Structural Database, then it will include bibliographic, chemical,
# crystal, experimental, refinement or atomic coordinate data resulting
# from the CCDC's data processing and validation procedures.
#
#######################################################################

data_CSD_CIF_XANYOD
_audit_creation_date 2017-02-27
_audit_creation_method CSD-ConQuest-V1
_database_code_CSD XANYOD
_database_code_depnum_ccdc_archive 'CCDC 1518720'
_chemical_formula_sum 'C23 H24 Cl2 Co1 N5 O2 P1'
_chemical_formula_moiety
;
C20 H17 Cl2 Co1 N4 O1 P1,C3 H7 N1 O1
;
_journal_coden_Cambridge 1478
_journal_volume 8
_journal_year 2017
_journal_page_first 1805
_journal_name_full 'Polym.Chem. '
loop_
_publ_author_name
"Huafeng Chen"
"Weijing Pan"
"Kuo-Wei Huang"
"Xuequan Zhang"
"Dirong Gong"
_chemical_name_systematic
;
dichloro-(P,P-diphenyl-N-(6-(1H-pyrazol-1-yl)pyridin-2-yl)phosphinic 
amide)-cobalt(ii) N,N-dimethylformamide solvate
;
_cell_volume    619.045
_exptl_crystal_density_diffrn 1.511
_exptl_special_details
;
Absolute configuration

;
_exptl_crystal_description 'block'
_diffrn_ambient_temperature 100
#These two values have been output from a single CSD field.
_refine_ls_R_factor_gt 0.0309
_refine_ls_wR_factor_gt 0.0309
_symmetry_cell_setting triclinic
_symmetry_space_group_name_H-M 'P 1'
_symmetry_Int_Tables_number 1
loop_
_symmetry_equiv_pos_site_id
_symmetry_equiv_pos_as_xyz
1 x,y,z
_cell_length_a 7.881(2)
_cell_length_b 8.610(2)
_cell_length_c 10.582(3)
_cell_angle_alpha 101.612(3)
_cell_angle_beta 110.925(2)
_cell_angle_gamma 103.559(2)
_cell_formula_units_Z 1
loop_
_atom_type_symbol
_atom_type_radius_bond
C 0.68
H 0.23
Cl 0.99
Co 1.26
N 0.68
O 0.68
P 1.05
loop_
_atom_site_label
_atom_site_type_symbol
_atom_site_fract_x
_atom_site_fract_y
_atom_site_fract_z
Co1 Co -0.19201(5) 0.34399(4) 0.05619(4)
Cl1 Cl -0.40819(12) 0.10746(11) 0.05392(10)
Cl2 Cl -0.08765(13) 0.24554(12) -0.11232(10)
P1 P 0.20272(13) 0.52188(12) 0.33275(10)
N1 N -0.3403(4) 0.6120(4) -0.0258(3)
N2 N -0.3961(4) 0.4563(4) -0.0132(4)
N3 N 0.2764(4) 0.6187(4) 0.2304(3)
H1 H 0.39290 0.68660 0.27910
C1 C 0.5937(6) 0.3899(6) 0.6216(4)
H2 H 0.64090 0.40370 0.72070
C2 C -0.5857(5) 0.4133(5) -0.0572(4)
H3 H -0.66580 0.30910 -0.06150
C3 C -0.0736(6) 0.8449(5) -0.0054(4)
H4 H -0.15880 0.89440 -0.05770
C4 C 0.1264(6) 0.9174(5) 0.0492(4)
H5 H 0.18020 1.01860 0.03340
C5 C -0.1398(5) 0.6984(5) 0.0209(4)
N4 N -0.0277(4) 0.6195(4) 0.0919(3)
C6 C 0.2464(6) 0.8435(5) 0.1256(4)
H6 H 0.38250 0.89250 0.16280
C7 C -0.4944(6) 0.6656(5) -0.0762(4)
H7 H -0.49150 0.76990 -0.09390
C8 C -0.6524(6) 0.5406(5) -0.0961(4)
H8 H -0.78160 0.54010 -0.12960
C9 C 0.3918(5) 0.4442(5) 0.4153(4)
C10 C 0.4636(6) 0.4672(5) 0.5624(4)
H9 H 0.42340 0.53510 0.62050
C11 C 0.6551(6) 0.2937(5) 0.5393(4)
H10 H 0.74490 0.24210 0.58200
C12 C 0.1634(5) 0.6952(5) 0.1470(4)
C13 C 0.1939(5) 0.6704(5) 0.4727(4)
C14 C 0.5867(6) 0.2708(5) 0.3930(5)
H11 H 0.62960 0.20420 0.33610
C15 C 0.4555(6) 0.3468(5) 0.3324(4)
H12 H 0.40840 0.33220 0.23320
C16 C 0.3473(6) 0.8200(5) 0.5527(5)
H13 H 0.44730 0.85170 0.52320
C17 C 0.0442(6) 0.6278(5) 0.5131(4)
H14 H -0.06280 0.52750 0.45750
C18 C 0.0508(6) 0.7320(6) 0.6351(5)
H15 H -0.05160 0.70320 0.66280
C19 C 0.2066(6) 0.8774(5) 0.7156(5)
H16 H 0.21210 0.94710 0.79990
C20 C 0.3554(6) 0.9230(6) 0.6750(5)
H17 H 0.46160 1.02390 0.73050
O1 O 0.0105(4) 0.3833(3) 0.2496(3)
O2 O -0.3301(4) 0.8085(4) 0.3609(4)
N5 N -0.0580(5) 1.0358(4) 0.4589(4)
C21 C 0.0752(6) 1.1799(5) 0.5807(5)
H18 H 0.03890 1.17950 0.66010
H19 H 0.07110 1.28320 0.55610
H20 H 0.20590 1.17480 0.60860
C22 C -0.2070(6) 0.9311(6) 0.4631(6)
H21 H -0.22050 0.95130 0.55000
C23 C -0.0234(7) 1.0120(6) 0.3324(5)
H22 H -0.05450 1.09660 0.28720
H23 H -0.10490 0.89930 0.26570
H24 H 0.11250 1.02380 0.35840
#END
