
#######################################################################
#
#                 Cambridge Crystallographic Data Centre
#                                CCDC
#
#######################################################################
#
# If this CIF has been generated from an entry in the Cambridge
# Structural Database, then it will include bibliographic, chemical,
# crystal, experimental, refinement or atomic coordinate data resulting
# from the CCDC's data processing and validation procedures.
#
#######################################################################

data_CSD_CIF_XAPBUL
_audit_creation_date 2001-01-24
_audit_creation_method CSD-ConQuest-V1
_database_code_CSD XAPBUL
_database_code_depnum_ccdc_archive 'CCDC 139868'
_chemical_formula_sum 'C20 H24 Cl2 Co1 N8'
_chemical_formula_moiety
;
C20 H24 Cl2 Co1 N8
;
_journal_coden_Cambridge 643
_journal_volume 215
_journal_year 2000
_journal_page_first 547
_journal_name_full 'Z.Krist.Cryst.Mater. '
loop_
_publ_author_name
"I.Csoregh"
"G.Kenessey"
"T.Wadsten"
"G.Liptay"
"B.R.Carson"
_chemical_name_systematic
;
Dichloro-tetrakis(3-aminopyridine)-cobalt(ii)
;
_cell_volume    570.029
_exptl_crystal_colour 'pale violet'
_exptl_crystal_density_diffrn 1.475
_exptl_crystal_description 'needle'
_diffrn_ambient_temperature ?
_diffrn_special_details
;
The study was carried out at room temperature,in the range 283-303K

;
#These two values have been output from a single CSD field.
_refine_ls_R_factor_gt 0.0266
_refine_ls_wR_factor_gt 0.0266
_symmetry_cell_setting triclinic
_symmetry_space_group_name_H-M 'P -1'
_symmetry_Int_Tables_number 2
loop_
_symmetry_equiv_pos_site_id
_symmetry_equiv_pos_as_xyz
1 x,y,z
2 -x,-y,-z
_cell_length_a 7.684(1)
_cell_length_b 8.582(2)
_cell_length_c 9.966(2)
_cell_angle_alpha 73.17(1)
_cell_angle_beta 69.97(1)
_cell_angle_gamma 70.33(1)
_cell_formula_units_Z 1
loop_
_atom_type_symbol
_atom_type_radius_bond
C 0.68
H 0.23
Cl 0.99
Co 1.33
N 0.68
loop_
_atom_site_label
_atom_site_type_symbol
_atom_site_fract_x
_atom_site_fract_y
_atom_site_fract_z
Co1 Co 0.00000 0.00000 0.00000
Cl1 Cl 0.29738(6) -0.17503(5) 0.07551(4)
N1 N 0.1796(2) 0.0866(2) -0.2195(1)
C1 C 0.3453(2) 0.1220(2) -0.2432(2)
H1 H 0.39740 0.09880 -0.15810
C2 C 0.4501(3) 0.1906(3) -0.3807(2)
N2 N 0.6165(3) 0.2301(3) -0.3960(2)
H2 H 0.68250 0.27550 -0.49770
H3 H 0.66760 0.20890 -0.31350
C3 C 0.3764(3) 0.2190(3) -0.4974(2)
H4 H 0.44600 0.26740 -0.59770
C4 C 0.2086(3) 0.1778(3) -0.4740(2)
H5 H 0.15540 0.19620 -0.55760
C5 C 0.1134(3) 0.1126(2) -0.3348(2)
H6 H -0.00840 0.08320 -0.31920
N3 N -0.0065(2) 0.2024(2) 0.0971(1)
C6 C 0.1509(2) 0.2374(2) 0.0970(2)
H7 H 0.27880 0.16320 0.05460
C7 C 0.1474(2) 0.3701(2) 0.1528(2)
N4 N 0.3167(2) 0.3984(2) 0.1485(2)
H8 H 0.42460 0.35080 0.07570
H9 H 0.32000 0.47070 0.20960
C8 C -0.0333(3) 0.4683(2) 0.2172(2)
H10 H -0.04420 0.56420 0.26010
C9 C -0.1954(3) 0.4311(2) 0.2196(2)
H11 H -0.32540 0.49940 0.26570
C10 C -0.1787(2) 0.2994(2) 0.1585(2)
H12 H -0.29800 0.27540 0.16000
Cl1A Cl -0.29738(6) 0.17503(5) -0.07551(4)
N1A N -0.1796(2) -0.0866(2) 0.2195(1)
C1A C -0.3453(2) -0.1220(2) 0.2432(2)
H1A H -0.39740 -0.09880 0.15810
C2A C -0.4501(3) -0.1906(3) 0.3807(2)
N2A N -0.6165(3) -0.2301(3) 0.3960(2)
H2A H -0.68250 -0.27550 0.49770
H3A H -0.66760 -0.20890 0.31350
C3A C -0.3764(3) -0.2190(3) 0.4974(2)
H4A H -0.44600 -0.26740 0.59770
C4A C -0.2086(3) -0.1778(3) 0.4740(2)
H5A H -0.15540 -0.19620 0.55760
C5A C -0.1134(3) -0.1126(2) 0.3348(2)
H6A H 0.00840 -0.08320 0.31920
N3A N 0.0065(2) -0.2024(2) -0.0971(1)
C6A C -0.1509(2) -0.2374(2) -0.0970(2)
H7A H -0.27880 -0.16320 -0.05460
C7A C -0.1474(2) -0.3701(2) -0.1528(2)
N4A N -0.3167(2) -0.3984(2) -0.1485(2)
H8A H -0.42460 -0.35080 -0.07570
H9A H -0.32000 -0.47070 -0.20960
C8A C 0.0333(3) -0.4683(2) -0.2172(2)
H10A H 0.04420 -0.56420 -0.26010
C9A C 0.1954(3) -0.4311(2) -0.2196(2)
H11A H 0.32540 -0.49940 -0.26570
C10A C 0.1787(2) -0.2994(2) -0.1585(2)
H12A H 0.29800 -0.27540 -0.16000
#END
