
#######################################################################
#
#                 Cambridge Crystallographic Data Centre
#                                CCDC
#
#######################################################################
#
# If this CIF has been generated from an entry in the Cambridge
# Structural Database, then it will include bibliographic, chemical,
# crystal, experimental, refinement or atomic coordinate data resulting
# from the CCDC's data processing and validation procedures.
#
#######################################################################

data_CSD_CIF_XAPVEQ
_audit_creation_date 2005-08-11
_audit_creation_method CSD-ConQuest-V1
_database_code_CSD XAPVEQ
_database_code_depnum_ccdc_archive 'CCDC 277712'
_chemical_formula_sum 'C24 H30 Co2 N4 O16'
_chemical_formula_moiety
;
C24 H26 Co2 N4 O14,2(H2 O1)
;
_journal_coeditor_code "IUCr LH6428"
_journal_coden_Cambridge 1370
_journal_volume 61
_journal_year 2005
_journal_page_first m1332
_journal_name_full 'Acta Crystallogr.,Sect.E:Struct.Rep.Online '
loop_
_publ_author_name
"Xian-Ming Zhang"
_chemical_name_systematic
;
(\m~2~-4,4'-Bipyridine-N,N')-bis(triaqua-(pyridine-2,4-dicarboxylato-N,O)-coba
lt(ii)) dihydrate
;
_cell_volume    726.136
_exptl_crystal_colour 'red'
_exptl_crystal_density_diffrn 1.711
_exptl_crystal_description 'needle'
_diffrn_ambient_temperature 293
#These two values have been output from a single CSD field.
_refine_ls_R_factor_gt 0.0523
_refine_ls_wR_factor_gt 0.0523
_symmetry_cell_setting triclinic
_symmetry_space_group_name_H-M 'P -1'
_symmetry_Int_Tables_number 2
loop_
_symmetry_equiv_pos_site_id
_symmetry_equiv_pos_as_xyz
1 x,y,z
2 -x,-y,-z
_cell_length_a 6.413(1)
_cell_length_b 9.763(2)
_cell_length_c 12.113(2)
_cell_angle_alpha 79.54(3)
_cell_angle_beta 79.26(3)
_cell_angle_gamma 80.61(3)
_cell_formula_units_Z 1
loop_
_atom_type_symbol
_atom_type_radius_bond
C 0.68
H 0.23
Co 1.33
N 0.68
O 0.68
loop_
_atom_site_label
_atom_site_type_symbol
_atom_site_fract_x
_atom_site_fract_y
_atom_site_fract_z
Co1 Co 0.14240(8) 0.04839(5) 0.28137(5)
O1 O -0.1574(4) 0.0998(3) 0.3745(2)
O2 O -0.4475(5) 0.2595(3) 0.3735(3)
O3 O -0.0254(5) 0.7844(3) 0.0700(3)
O4 O -0.3478(5) 0.7432(3) 0.1608(3)
N1 N 0.0875(5) 0.2738(3) 0.2358(3)
N2 N 0.1027(5) -0.1685(3) 0.3414(3)
C1 C -0.2559(6) 0.2209(4) 0.3428(3)
C2 C -0.1188(6) 0.3236(4) 0.2664(3)
C3 C -0.2020(7) 0.4599(4) 0.2317(3)
H1 H -0.34700 0.49010 0.25230
C4 C -0.0678(7) 0.5525(4) 0.1654(3)
C5 C 0.1451(7) 0.5024(4) 0.1373(4)
H2 H 0.24000 0.56170 0.09420
C6 C 0.2163(7) 0.3632(4) 0.1735(4)
H3 H 0.36060 0.33030 0.15370
C7 C -0.1561(7) 0.7058(4) 0.1282(4)
C8 C 0.2592(7) -0.2665(4) 0.3721(4)
H4 H 0.39900 -0.24550 0.35280
C9 C 0.2266(7) -0.3960(5) 0.4303(4)
H5 H 0.34360 -0.46150 0.44670
C10 C 0.0224(6) -0.4317(4) 0.4655(3)
C11 C -0.1409(7) -0.3313(4) 0.4317(4)
H6 H -0.28190 -0.34980 0.45040
C12 C -0.0948(7) -0.2034(4) 0.3701(4)
H7 H -0.20760 -0.13820 0.34730
O5 O 0.4429(5) 0.0130(4) 0.1835(3)
O6 O -0.0009(6) 0.0398(4) 0.1394(3)
O7 O 0.3060(6) 0.0431(4) 0.4142(3)
H8 H 0.499(8) -0.054(6) 0.167(4)
H9 H 0.255(10) 0.013(7) 0.478(5)
H10 H 0.383(8) 0.106(5) 0.416(4)
H11 H 0.045(10) 0.087(7) 0.084(5)
H12 H -0.021(10) -0.037(7) 0.116(5)
H13 H 0.499(10) 0.076(7) 0.128(6)
O8 O 0.4062(7) 0.7919(4) 0.9872(4)
H14 H 0.274(14) 0.792(8) 1.011(6)
H15 H 0.474(16) 0.786(11) 1.050(9)
Co1A Co -0.14240(8) -1.04839(5) 0.71863(5)
O1A O 0.1574(4) -1.0998(3) 0.6255(2)
O2A O 0.4475(5) -1.2595(3) 0.6265(3)
O3A O 0.0254(5) -1.7844(3) 0.9300(3)
O4A O 0.3478(5) -1.7432(3) 0.8392(3)
N1A N -0.0875(5) -1.2738(3) 0.7642(3)
N2A N -0.1027(5) -0.8315(3) 0.6586(3)
C1A C 0.2559(6) -1.2209(4) 0.6572(3)
C2A C 0.1188(6) -1.3236(4) 0.7336(3)
C3A C 0.2020(7) -1.4599(4) 0.7683(3)
H1A H 0.34700 -1.49010 0.74770
C4A C 0.0678(7) -1.5525(4) 0.8346(3)
C5A C -0.1451(7) -1.5024(4) 0.8627(4)
H2A H -0.24000 -1.56170 0.90580
C6A C -0.2163(7) -1.3632(4) 0.8265(4)
H3A H -0.36060 -1.33030 0.84630
C7A C 0.1561(7) -1.7058(4) 0.8718(4)
C8A C -0.2592(7) -0.7335(4) 0.6279(4)
H4A H -0.39900 -0.75450 0.64720
C9A C -0.2266(7) -0.6040(5) 0.5697(4)
H5A H -0.34360 -0.53850 0.55330
C10A C -0.0224(6) -0.5683(4) 0.5345(3)
C11A C 0.1409(7) -0.6687(4) 0.5683(4)
H6A H 0.28190 -0.65020 0.54960
C12A C 0.0948(7) -0.7966(4) 0.6299(4)
H7A H 0.20760 -0.86180 0.65270
O5A O -0.4429(5) -1.0130(4) 0.8165(3)
O6A O 0.0009(6) -1.0398(4) 0.8606(3)
O7A O -0.3060(6) -1.0431(4) 0.5858(3)
H8A H -0.499(8) -0.946(6) 0.833(4)
H9A H -0.255(10) -1.013(7) 0.522(5)
H10A H -0.383(8) -1.106(5) 0.584(4)
H11A H -0.045(10) -1.087(7) 0.916(5)
H12A H 0.021(10) -0.963(7) 0.884(5)
H13A H -0.499(10) -1.076(7) 0.872(6)
#END
