
#######################################################################
#
#                 Cambridge Crystallographic Data Centre
#                                CCDC
#
#######################################################################
#
# If this CIF has been generated from an entry in the Cambridge
# Structural Database, then it will include bibliographic, chemical,
# crystal, experimental, refinement or atomic coordinate data resulting
# from the CCDC's data processing and validation procedures.
#
#######################################################################

data_CSD_CIF_XATMEL
_audit_creation_date 2005-11-15
_audit_creation_method CSD-ConQuest-V1
_database_code_CSD XATMEL
_database_code_depnum_ccdc_archive 'CCDC 268288'
_chemical_formula_sum 'C12 H10 Cr1 O5'
_chemical_formula_moiety
;
C12 H10 Cr1 O5
;
_journal_coden_Cambridge 1078
_journal_year 2005
_journal_name_full 'CSD Communication(Private Communication) '
loop_
_publ_author_name
"C.S.Kraemer"
"T.J.J.Muller"
"K.Polborn"
_chemical_name_systematic
;
(\h^6^-(Acetoxymethyl)benzene)-tricarbonyl-chromium
;
_cell_volume    606.300
_exptl_crystal_colour 'yellow'
_exptl_crystal_density_diffrn 1.568
_exptl_special_details
;
contribution from Department Chemie, Universitat Munchen, Butenandtstr. 5-13, 
81377 Munchen, Germany
;
_exptl_crystal_description 'platelet'
_diffrn_ambient_temperature 295
#These two values have been output from a single CSD field.
_refine_ls_R_factor_gt 0.0265
_refine_ls_wR_factor_gt 0.0265
_symmetry_cell_setting triclinic
_symmetry_space_group_name_H-M 'P -1'
_symmetry_Int_Tables_number 2
loop_
_symmetry_equiv_pos_site_id
_symmetry_equiv_pos_as_xyz
1 x,y,z
2 -x,-y,-z
_cell_length_a 6.1513(5)
_cell_length_b 6.7386(12)
_cell_length_c 15.3919(16)
_cell_angle_alpha 79.124(10)
_cell_angle_beta 80.206(8)
_cell_angle_gamma 77.588(10)
_cell_formula_units_Z 2
loop_
_atom_type_symbol
_atom_type_radius_bond
C 0.68
H 0.23
Cr 1.35
O 0.68
loop_
_atom_site_label
_atom_site_type_symbol
_atom_site_fract_x
_atom_site_fract_y
_atom_site_fract_z
Cr1 Cr 0.38986(4) 0.05935(4) 0.317056(18)
O1 O 0.1931(3) -0.0553(3) 0.17334(13)
O2 O 0.0968(3) -0.1958(3) 0.44522(11)
O3 O 0.7429(3) -0.3208(3) 0.31041(16)
O4 O 0.5786(3) 0.5744(2) 0.09511(10)
O5 O 0.9404(3) 0.4555(3) 0.10968(12)
C1 C 0.2698(4) -0.0114(3) 0.22806(15)
C2 C 0.2086(4) -0.0947(3) 0.39708(14)
C3 C 0.6068(4) -0.1754(3) 0.31303(15)
C4 C 0.4865(3) 0.3343(3) 0.22794(13)
C5 C 0.2657(3) 0.3917(3) 0.27194(14)
H1 H 0.15020 0.45500 0.23840
C6 C 0.2198(4) 0.3546(3) 0.36445(14)
H2 H 0.07410 0.39210 0.39250
C7 C 0.3937(4) 0.2602(3) 0.41563(14)
H3 H 0.36290 0.23370 0.47760
C8 C 0.6116(4) 0.2064(3) 0.37367(14)
H4 H 0.72710 0.14660 0.40770
C9 C 0.6583(3) 0.2421(3) 0.27987(14)
H5 H 0.80420 0.20410 0.25220
C10 C 0.5309(4) 0.3700(3) 0.12786(14)
H6 H 0.65770 0.26820 0.10790
H7 H 0.40070 0.35460 0.10370
C11 C 0.7930(4) 0.5956(4) 0.09018(13)
C12 C 0.8162(5) 0.8138(4) 0.05789(18)
H8 H 0.69220 0.90320 0.08610
H9 H 0.81710 0.84380 -0.00570
H10 H 0.95440 0.83510 0.07240
#END
