
#######################################################################
#
#                 Cambridge Crystallographic Data Centre
#                                CCDC
#
#######################################################################
#
# If this CIF has been generated from an entry in the Cambridge
# Structural Database, then it will include bibliographic, chemical,
# crystal, experimental, refinement or atomic coordinate data resulting
# from the CCDC's data processing and validation procedures.
#
#######################################################################

data_CSD_CIF_XAVLUD
_audit_creation_date 2012-03-05
_audit_creation_method CSD-ConQuest-V1
_database_code_CSD XAVLUD
_database_code_depnum_ccdc_archive 'CCDC 807576'
_chemical_formula_sum 'C8 H26 As2 Co1 N6 Se6'
_chemical_formula_moiety
;
C8 H26 Co1 N6 2+,As2 Se6 2-
;
_journal_coden_Cambridge 214
_journal_volume 142
_journal_year 2011
_journal_page_first 1203
_journal_name_full 'Monatsh.Chem. '
loop_
_publ_author_name
"Jing Zhao"
"Jingjing Liang"
"Yingli Pan"
"Yong Zhang"
"Dingxian Jia"
_chemical_name_systematic
;
bis(Diethylenetriamine)-cobalt(ii) 
1,2,4,5,3,6-tetraselenadiarsinane-3,6-bis(selenolate)
;
_cell_volume   1124.068
_exptl_crystal_colour 'yellow'
_exptl_crystal_density_diffrn 2.626
_exptl_crystal_description 'platelet'
_diffrn_ambient_temperature 223
#These two values have been output from a single CSD field.
_refine_ls_R_factor_gt 0.0327
_refine_ls_wR_factor_gt 0.0327
_symmetry_cell_setting monoclinic
_symmetry_space_group_name_H-M 'P 21/n'
_symmetry_Int_Tables_number 14
loop_
_symmetry_equiv_pos_site_id
_symmetry_equiv_pos_as_xyz
1 x,y,z
2 1/2-x,1/2+y,1/2-z
3 -x,-y,-z
4 -1/2+x,-1/2-y,-1/2+z
_cell_length_a 7.2128(18)
_cell_length_b 15.111(4)
_cell_length_c 10.445(3)
_cell_angle_alpha 90
_cell_angle_beta 99.110(8)
_cell_angle_gamma 90
_cell_formula_units_Z 2
loop_
_atom_type_symbol
_atom_type_radius_bond
C 0.68
H 0.23
As 1.21
Co 1.26
N 0.68
Se 1.22
loop_
_atom_site_label
_atom_site_type_symbol
_atom_site_fract_x
_atom_site_fract_y
_atom_site_fract_z
As1 As 0.29402(10) 0.05334(5) 0.04766(7)
Se1 Se 0.2216(1) -0.09705(5) 0.10402(7)
Se2 Se 0.00423(10) 0.12544(5) 0.07999(7)
Se3 Se 0.43228(10) 0.10496(5) 0.24655(7)
Co1 Co 0.00000 0.00000 0.50000
N1 N 0.1395(8) 0.0350(4) 0.6938(5)
H1 H 0.05950 0.02610 0.75170
H2 H 0.24130 -0.00050 0.71650
N2 N 0.0802(8) 0.1332(4) 0.4623(6)
H3 H 0.12930 0.13290 0.38620
N3 N -0.2539(8) 0.0672(4) 0.5331(6)
H4 H -0.35020 0.05270 0.46930
H5 H -0.28500 0.04950 0.61030
C1 C 0.1999(11) 0.1284(5) 0.6986(8)
H6 H 0.31740 0.13460 0.75950
H7 H 0.10450 0.16510 0.73010
C2 C 0.2289(11) 0.1602(6) 0.5664(8)
H8 H 0.23680 0.22490 0.56750
H9 H 0.34900 0.13720 0.54790
C3 C -0.0906(10) 0.1886(5) 0.4423(8)
H10 H -0.15420 0.18190 0.35270
H11 H -0.05490 0.25090 0.45570
C4 C -0.2248(10) 0.1633(5) 0.5345(8)
H12 H -0.17320 0.18250 0.62260
H13 H -0.34540 0.19320 0.50850
As1B As -0.29402(10) -0.05334(5) -0.04766(7)
Se1B Se -0.2216(1) 0.09705(5) -0.10402(7)
Se2B Se -0.00423(10) -0.12544(5) -0.07999(7)
Se3B Se -0.43228(10) -0.10496(5) -0.24655(7)
N1B N -0.1395(8) -0.0350(4) 0.3062(5)
H1B H -0.05950 -0.02610 0.24830
H2B H -0.24130 0.00050 0.28350
N2B N -0.0802(8) -0.1332(4) 0.5377(6)
H3B H -0.12930 -0.13290 0.61380
N3B N 0.2539(8) -0.0672(4) 0.4669(6)
H4B H 0.35020 -0.05270 0.53070
H5B H 0.28500 -0.04950 0.38970
C1B C -0.1999(11) -0.1284(5) 0.3014(8)
H6B H -0.31740 -0.13460 0.24050
H7B H -0.10450 -0.16510 0.26990
C2B C -0.2289(11) -0.1602(6) 0.4336(8)
H8B H -0.23680 -0.22490 0.43250
H9B H -0.34900 -0.13720 0.45210
C3B C 0.0906(10) -0.1886(5) 0.5577(8)
H10B H 0.15420 -0.18190 0.64730
H11B H 0.05490 -0.25090 0.54430
C4B C 0.2248(10) -0.1633(5) 0.4655(8)
H12B H 0.17320 -0.18250 0.37740
H13B H 0.34540 -0.19320 0.49150
#END
