
#######################################################################
#
#                 Cambridge Crystallographic Data Centre
#                                CCDC
#
#######################################################################
#
# If this CIF has been generated from an entry in the Cambridge
# Structural Database, then it will include bibliographic, chemical,
# crystal, experimental, refinement or atomic coordinate data resulting
# from the CCDC's data processing and validation procedures.
#
#######################################################################

data_CSD_CIF_XAXFIL
_audit_creation_date 2001-02-22
_audit_creation_method CSD-ConQuest-V1
_database_code_CSD XAXFIL
_database_code_depnum_ccdc_archive 'CCDC 1295618'
_chemical_formula_sum 'C12 H16 Co1 N2 O8'
_chemical_formula_moiety
;
C12 H16 Co1 N2 O8
;
_journal_coden_Cambridge 211
_journal_volume 44
_journal_year 1998
_journal_page_first 269
_journal_name_full 'J.Coord.Chem. '
loop_
_publ_author_name
"K.Waizumi"
"M.Takuno"
"N.Fukushima"
"H.Masuda"
_chemical_name_systematic
;
trans-Tetraaqua-bis(pyridine-4-carboxylate-N)-cobalt(ii)
;
_chemical_name_common
;
trans-Tetraaqua-bis(isonicotinato)-cobalt(ii)
;
_cell_volume    349.620
_exptl_crystal_colour 'salmon pink'
_exptl_crystal_density_diffrn 1.785
_exptl_special_details
;
isomorphous with the zinc and copper analogues

;
_exptl_crystal_description 'plate'
_exptl_crystal_preparation 'water'
_diffrn_ambient_temperature ?
_diffrn_special_details
;
The study was carried out at room temperature,in the range 283-303K

;
#These two values have been output from a single CSD field.
_refine_ls_R_factor_gt 0.054
_refine_ls_wR_factor_gt 0.054
_symmetry_cell_setting triclinic
_symmetry_space_group_name_H-M 'P -1'
_symmetry_Int_Tables_number 2
loop_
_symmetry_equiv_pos_site_id
_symmetry_equiv_pos_as_xyz
1 x,y,z
2 -x,-y,-z
_cell_length_a 9.777(3)
_cell_length_b 6.348(4)
_cell_length_c 6.888(3)
_cell_angle_alpha 113.10(6)
_cell_angle_beta 110.55(3)
_cell_angle_gamma 97.61(5)
_cell_formula_units_Z 1
loop_
_atom_type_symbol
_atom_type_radius_bond
C 0.68
H 0.23
Co 1.33
N 0.68
O 0.68
loop_
_atom_site_label
_atom_site_type_symbol
_atom_site_fract_x
_atom_site_fract_y
_atom_site_fract_z
Co1 Co 0.00000 0.00000 0.00000
O1 O -0.0428(3) -0.2117(4) 0.1518(4)
O2 O 0.0818(3) 0.3036(4) 0.3385(4)
O3 O 0.7333(3) -0.1927(4) 0.3122(4)
O4 O 0.8014(3) 0.2077(4) 0.5150(5)
N1 N 0.2316(3) -0.0140(5) 0.0936(4)
C1 C 0.2692(4) -0.2178(6) 0.0597(6)
C2 C 0.4184(3) -0.2196(5) 0.1428(5)
C3 C 0.5010(4) 0.2059(6) 0.2956(5)
C4 C 0.3488(4) 0.1935(5) 0.2051(5)
C5 C 0.5387(3) -0.0043(5) 0.2662(4)
C6 C 0.7033(4) 0.0043(6) 0.3714(5)
H1 H 0.181(5) -0.362(8) -0.022(7)
H2 H 0.437(5) -0.360(7) 0.115(7)
H3 H 0.580(5) 0.357(7) 0.372(7)
H4 H 0.320(5) 0.334(8) 0.214(7)
H5 H -0.106(6) -0.186(8) 0.218(8)
H6 H 0.037(6) -0.206(9) 0.249(9)
H7 H 0.124(5) 0.267(8) 0.452(8)
H8 H 0.116(6) 0.447(9) 0.377(8)
O1A O 0.0428(3) 0.2117(4) -0.1518(4)
H5A H 0.106(6) 0.186(8) -0.218(8)
H6A H -0.037(6) 0.206(9) -0.249(9)
O2A O -0.0818(3) -0.3036(4) -0.3385(4)
H7A H -0.124(5) -0.267(8) -0.452(8)
H8A H -0.116(6) -0.447(9) -0.377(8)
N1A N -0.2316(3) 0.0140(5) -0.0936(4)
C1A C -0.2692(4) 0.2178(6) -0.0597(6)
C2A C -0.4184(3) 0.2196(5) -0.1428(5)
C5A C -0.5387(3) 0.0043(5) -0.2662(4)
C3A C -0.5010(4) -0.2059(6) -0.2956(5)
C4A C -0.3488(4) -0.1935(5) -0.2051(5)
H4A H -0.320(5) -0.334(8) -0.214(7)
H3A H -0.580(5) -0.357(7) -0.372(7)
C6A C -0.7033(4) -0.0043(6) -0.3714(5)
O3A O -0.7333(3) 0.1927(4) -0.3122(4)
O4A O -0.8014(3) -0.2077(4) -0.5150(5)
H2A H -0.437(5) 0.360(7) -0.115(7)
H1A H -0.181(5) 0.362(8) 0.022(7)
#END
