
#######################################################################
#
#                 Cambridge Crystallographic Data Centre
#                                CCDC
#
#######################################################################
#
# If this CIF has been generated from an entry in the Cambridge
# Structural Database, then it will include bibliographic, chemical,
# crystal, experimental, refinement or atomic coordinate data resulting
# from the CCDC's data processing and validation procedures.
#
#######################################################################

data_CSD_CIF_XAXWOI02
_audit_creation_date 2017-04-02
_audit_creation_method CSD-ConQuest-V1
_database_code_CSD XAXWOI02
_database_code_depnum_ccdc_archive 'CCDC 1541637'
_chemical_formula_sum 'C4 H8 F6 Mn1 O8'
_chemical_formula_moiety
;
C4 H8 F6 Mn1 O8
;
_journal_coden_Cambridge 1078
_journal_year 2017
_journal_name_full 'CSD Communication(Private Communication) '
loop_
_publ_author_name
"F.A.Rabuffetti"
"L.Suescun"
"H.N.Munasinghe"
_chemical_name_systematic
;
tetraaqua-bis(trifluoroacetato)-manganese(ii)
;
_cell_volume    599.813
_exptl_crystal_colour 'colorless'
_exptl_crystal_density_diffrn 1.955
_exptl_special_details
;
Moisture-sensitive,Hygroscopic

;
_exptl_crystal_description 'block'
_exptl_crystal_preparation 'Solvent Evaporation'
_diffrn_ambient_temperature 100
_diffrn_special_details
;
twin

;
#These two values have been output from a single CSD field.
_refine_ls_R_factor_gt 0.0308
_refine_ls_wR_factor_gt 0.0308
_symmetry_cell_setting triclinic
_symmetry_space_group_name_H-M 'P -1'
_symmetry_Int_Tables_number 2
loop_
_symmetry_equiv_pos_site_id
_symmetry_equiv_pos_as_xyz
1 x,y,z
2 -x,-y,-z
_cell_length_a 8.2900(5)
_cell_length_b 9.1648(6)
_cell_length_c 9.3415(6)
_cell_angle_alpha 74.435(3)
_cell_angle_beta 64.559(3)
_cell_angle_gamma 71.250(3)
_cell_formula_units_Z 2
loop_
_atom_type_symbol
_atom_type_radius_bond
C 0.68
H 0.23
F 0.64
Mn 1.61
O 0.68
loop_
_atom_site_label
_atom_site_type_symbol
_atom_site_fract_x
_atom_site_fract_y
_atom_site_fract_z
Mn1 Mn 0.33964(2) 0.40654(2) 0.38823(2)
O1 O 0.47446(14) 0.26347(11) 0.20071(12)
H1 H 0.490(3) 0.1675(13) 0.233(3)
H2 H 0.5753(18) 0.283(2) 0.146(2)
O2 O 0.53263(13) 0.28133(10) 0.51041(11)
H3 H 0.573(3) 0.1853(10) 0.520(2)
H4 H 0.500(3) 0.308(2) 0.5982(15)
O3 O 0.13394(13) 0.53252(10) 0.28283(11)
H5 H 0.164(3) 0.543(2) 0.1837(11)
H6 H 0.067(3) 0.6166(15) 0.311(2)
O4 O 0.19735(14) 0.55949(11) 0.56704(12)
H7 H 0.0910(14) 0.562(2) 0.629(2)
H8 H 0.236(3) 0.623(2) 0.582(3)
O5 O 0.15513(12) 0.25267(10) 0.53889(11)
O6 O 0.33790(14) 0.02987(11) 0.44718(13)
C1 C 0.20033(17) 0.10796(13) 0.54074(15)
C2 C 0.0690(2) 0.01609(15) 0.68184(18)
F1 F 0.05030(16) -0.10122(11) 0.63484(15)
F2 F 0.1377(2) -0.04667(16) 0.79555(15)
F3 F -0.09655(15) 0.10356(12) 0.74642(16)
O7 O 0.51889(13) 0.56834(11) 0.24962(11)
O8 O 0.71685(14) 0.44903(11) 0.03834(11)
C3 C 0.65111(17) 0.55700(14) 0.11649(14)
C4 C 0.7403(2) 0.69861(16) 0.04955(15)
F4 F 0.86258(16) 0.69360(13) -0.09946(11)
F5 F 0.61559(16) 0.83268(11) 0.05008(15)
F6 F 0.82698(16) 0.70175(13) 0.14012(12)
#END
