
#######################################################################
#
#                 Cambridge Crystallographic Data Centre
#                                CCDC
#
#######################################################################
#
# If this CIF has been generated from an entry in the Cambridge
# Structural Database, then it will include bibliographic, chemical,
# crystal, experimental, refinement or atomic coordinate data resulting
# from the CCDC's data processing and validation procedures.
#
#######################################################################

data_CSD_CIF_XECNAW
_audit_creation_date 2012-08-03
_audit_creation_method CSD-ConQuest-V1
_database_code_CSD XECNAW
_database_code_depnum_ccdc_archive 'CCDC 889941'
_chemical_formula_sum 'C12 H24 Mn1 N10 O8'
_chemical_formula_moiety
;
C12 H16 Mn1 N10 O4,4(H2 O1)
;
_journal_coeditor_code "IUCr GK2497"
_journal_coden_Cambridge 1370
_journal_volume 68
_journal_year 2012
_journal_page_first m890
_journal_name_full 'Acta Crystallogr.,Sect.E:Struct.Rep.Online '
loop_
_publ_author_name
"Chen Qi"
"Xiang He"
"Min Shao"
"Ming-Xing Li"
_chemical_name_systematic
;
bis(3-(tetrazolate)pyridine)-tetra-aqua-manganese(ii) tetrahydrate
;
_cell_volume    532.957
_exptl_crystal_colour 'yellow'
_exptl_crystal_density_diffrn 1.531
_exptl_crystal_description 'block'
_diffrn_ambient_temperature 293
#These two values have been output from a single CSD field.
_refine_ls_R_factor_gt 0.0316
_refine_ls_wR_factor_gt 0.0316
_symmetry_cell_setting triclinic
_symmetry_space_group_name_H-M 'P -1'
_symmetry_Int_Tables_number 2
loop_
_symmetry_equiv_pos_site_id
_symmetry_equiv_pos_as_xyz
1 x,y,z
2 -x,-y,-z
_cell_length_a 8.137(8)
_cell_length_b 8.629(8)
_cell_length_c 8.761(8)
_cell_angle_alpha 84.878(10)
_cell_angle_beta 65.347(8)
_cell_angle_gamma 72.571(10)
_cell_formula_units_Z 1
loop_
_atom_type_symbol
_atom_type_radius_bond
C 0.68
H 0.23
Mn 1.61
N 0.68
O 0.68
loop_
_atom_site_label
_atom_site_type_symbol
_atom_site_fract_x
_atom_site_fract_y
_atom_site_fract_z
C1 C 0.4972(3) 0.8406(3) 0.1955(2)
H1 H 0.38630 0.83300 0.28440
C2 C 0.5378(3) 0.7784(2) 0.0396(2)
C3 C 0.7038(3) 0.7881(3) -0.0919(2)
H2 H 0.73690 0.74850 -0.19930
C4 C 0.8196(3) 0.8579(3) -0.0606(3)
H3 H 0.93260 0.86470 -0.14680
C5 C 0.7665(3) 0.9175(2) 0.0990(3)
H4 H 0.84570 0.96430 0.11800
C6 C 0.4027(3) 0.7086(2) 0.0214(2)
Mn1 Mn 0.50000 1.00000 0.50000
N1 N 0.6059(2) 0.9108(2) 0.22757(19)
N2 N 0.2536(2) 0.6822(2) 0.1516(2)
N3 N 0.1654(2) 0.6214(2) 0.0825(2)
N4 N 0.2572(2) 0.6120(2) -0.0813(2)
N5 N 0.4088(2) 0.6669(2) -0.12397(19)
O1 O 0.4248(2) 1.25174(18) 0.44974(18)
H5 H 0.34860 1.32880 0.52130
H6 H 0.45870 1.29500 0.35480
O2 O 0.79389(19) 0.99831(18) 0.44105(18)
H7 H 0.87300 0.91730 0.45890
H8 H 0.82290 1.08200 0.45260
O3 O 0.0823(2) 0.75323(18) 0.49811(18)
H9 H 0.09420 0.66960 0.55620
H10 H 0.13460 0.71960 0.39580
O4 O 0.1519(2) 0.48719(18) 0.69383(17)
H11 H 0.06080 0.45190 0.75980
H12 H 0.18550 0.52710 0.75750
C1A C 0.5028(3) 1.1594(3) 0.8045(2)
H1A H 0.61370 1.16700 0.71560
C2A C 0.4622(3) 1.2216(2) 0.9604(2)
C3A C 0.2962(3) 1.2119(3) 1.0919(2)
H2A H 0.26310 1.25150 1.19930
C4A C 0.1804(3) 1.1421(3) 1.0606(3)
H3A H 0.06740 1.13530 1.14680
C5A C 0.2335(3) 1.0825(2) 0.9010(3)
H4A H 0.15430 1.03570 0.88200
C6A C 0.5973(3) 1.2914(2) 0.9786(2)
N1A N 0.3941(2) 1.0892(2) 0.77243(19)
N2A N 0.7464(2) 1.3178(2) 0.8484(2)
N3A N 0.8346(2) 1.3786(2) 0.9175(2)
N4A N 0.7428(2) 1.3880(2) 1.0813(2)
N5A N 0.5912(2) 1.3331(2) 1.12397(19)
O1A O 0.5752(2) 0.74826(18) 0.55026(18)
H5A H 0.65140 0.67120 0.47870
H6A H 0.54130 0.70500 0.64520
O2A O 0.20611(19) 1.00169(18) 0.55895(18)
H7A H 0.12700 1.08270 0.54110
H8A H 0.17710 0.91800 0.54740
#END
