
#######################################################################
#
#                 Cambridge Crystallographic Data Centre
#                                CCDC
#
#######################################################################
#
# If this CIF has been generated from an entry in the Cambridge
# Structural Database, then it will include bibliographic, chemical,
# crystal, experimental, refinement or atomic coordinate data resulting
# from the CCDC's data processing and validation procedures.
#
#######################################################################

data_CSD_CIF_XEFPEF
_audit_creation_date 2012-08-02
_audit_creation_method CSD-ConQuest-V1
_database_code_CSD XEFPEF
_database_code_depnum_ccdc_archive 'CCDC 883449'
_chemical_formula_sum 'C12 H24 Br8 Fe3 N24'
_chemical_formula_moiety
;
C12 H24 Fe1 N24 2+,2(Br4 Fe1 1-)
;
_journal_coden_Cambridge 182
_journal_volume 48
_journal_year 2012
_journal_page_first 7604
_journal_name_full 'Chem.Commun. '
loop_
_publ_author_name
"O.Roubeau"
"M.Evangelisti"
"E.Natividad"
_chemical_name_systematic
;
hexakis(1-methyl-1H-tetrazole)-iron(ii) bis(tetrabromo-iron(iii))
;
_cell_volume   1010.296
_exptl_crystal_colour 'red'
_exptl_crystal_density_diffrn 2.155
_exptl_crystal_description 'parallelepiped'
_diffrn_ambient_temperature 296
#These two values have been output from a single CSD field.
_refine_ls_R_factor_gt 0.028
_refine_ls_wR_factor_gt 0.028
_symmetry_cell_setting hexagonal
_symmetry_space_group_name_H-M 'P -3'
_symmetry_Int_Tables_number 147
loop_
_symmetry_equiv_pos_site_id
_symmetry_equiv_pos_as_xyz
1 x,y,z
2 -y,x-y,z
3 -x+y,-x,z
4 -x,-y,-z
5 y,-x+y,-z
6 x-y,x,-z
_cell_length_a 12.9487(1)
_cell_length_b 12.9487(1)
_cell_length_c 6.9577(1)
_cell_angle_alpha 90
_cell_angle_beta 90
_cell_angle_gamma 120
_cell_formula_units_Z 1
loop_
_atom_type_symbol
_atom_type_radius_bond
C 0.68
H 0.23
Br 1.21
Fe 1.48
N 0.68
loop_
_atom_site_label
_atom_site_type_symbol
_atom_site_fract_x
_atom_site_fract_y
_atom_site_fract_z
Fe1 Fe 0.00000 0.00000 0.50000
N1 N 0.1538(2) 0.1174(2) 0.3221(4)
N2 N 0.2182(3) 0.0791(3) 0.2238(4)
N3 N 0.3044(3) 0.1664(3) 0.1334(4)
N4 N 0.2977(2) 0.2636(2) 0.1733(4)
C1 C 0.2063(3) 0.2324(3) 0.2874(4)
H1 H 0.18220 0.28390 0.33630
C2 C 0.3833(3) 0.3791(3) 0.0958(5)
H2 H 0.37030 0.43940 0.15180
H3 H 0.37370 0.37870 -0.04110
H4 H 0.46260 0.39580 0.12530
Fe2 Fe 0.66670 0.33330 0.46957(12)
Br1 Br 0.66670 0.33330 0.13559(10)
Br2 Br 0.66927(4) 0.16425(4) 0.58318(6)
N1A N -0.1174(2) 0.0364(2) 0.3221(4)
N1B N -0.0364(2) -0.1538(2) 0.3221(4)
N1C N -0.1538(2) -0.1174(2) 0.6779(4)
N1D N 0.1174(2) -0.0364(2) 0.6779(4)
N1E N 0.0364(2) 0.1538(2) 0.6779(4)
N2A N -0.0791(3) 0.1391(3) 0.2238(4)
N2B N -0.1391(3) -0.2182(3) 0.2238(4)
N2C N -0.2182(3) -0.0791(3) 0.7762(4)
N2D N 0.0791(3) -0.1391(3) 0.7762(4)
N2E N 0.1391(3) 0.2182(3) 0.7762(4)
N3A N -0.1664(3) 0.1380(3) 0.1334(4)
N3B N -0.1380(3) -0.3044(3) 0.1334(4)
N3C N -0.3044(3) -0.1664(3) 0.8666(4)
N3D N 0.1664(3) -0.1380(3) 0.8666(4)
N3E N 0.1380(3) 0.3044(3) 0.8666(4)
N4A N -0.2636(2) 0.0341(2) 0.1733(4)
N4B N -0.0341(2) -0.2977(2) 0.1733(4)
N4C N -0.2977(2) -0.2636(2) 0.8267(4)
N4D N 0.2636(2) -0.0341(2) 0.8267(4)
N4E N 0.0341(2) 0.2977(2) 0.8267(4)
C1A C -0.2324(3) -0.0261(3) 0.2874(4)
C1B C 0.0261(3) -0.2063(3) 0.2874(4)
C1C C -0.2063(3) -0.2324(3) 0.7126(4)
C1D C 0.2324(3) 0.0261(3) 0.7126(4)
C1E C -0.0261(3) 0.2063(3) 0.7126(4)
H1A H -0.28390 -0.10170 0.33630
H1B H 0.10170 -0.18220 0.33630
H1C H -0.18220 -0.28390 0.66370
H1D H 0.28390 0.10170 0.66370
H1E H -0.10170 0.18220 0.66370
C2A C -0.3791(3) 0.0042(3) 0.0958(5)
C2B C -0.0042(3) -0.3833(3) 0.0958(5)
C2C C -0.3833(3) -0.3791(3) 0.9042(5)
C2D C 0.3791(3) -0.0042(3) 0.9042(5)
C2E C 0.0042(3) 0.3833(3) 0.9042(5)
H2A H -0.43940 -0.06910 0.15180
H2B H 0.06910 -0.37030 0.15180
H2C H -0.37030 -0.43940 0.84820
H2D H 0.43940 0.06910 0.84820
H2E H -0.06910 0.37030 0.84820
H3A H -0.37870 -0.00500 -0.04110
H3B H 0.00500 -0.37370 -0.04110
H3C H -0.37370 -0.37870 1.04110
H3D H 0.37870 0.00500 1.04110
H3E H -0.00500 0.37370 1.04110
H4A H -0.39580 0.06680 0.12530
H4B H -0.06680 -0.46260 0.12530
H4C H -0.46260 -0.39580 0.87470
H4D H 0.39580 -0.06680 0.87470
H4E H 0.06680 0.46260 0.87470
Br2A Br 0.83575(4) 0.50502(4) 0.58318(6)
Br2B Br 0.49498(4) 0.33073(4) 0.58318(6)
#END
