
#######################################################################
#
#                 Cambridge Crystallographic Data Centre
#                                CCDC
#
#######################################################################
#
# If this CIF has been generated from an entry in the Cambridge
# Structural Database, then it will include bibliographic, chemical,
# crystal, experimental, refinement or atomic coordinate data resulting
# from the CCDC's data processing and validation procedures.
#
#######################################################################

data_CSD_CIF_XEFPEF03
_audit_creation_date 2014-05-08
_audit_creation_method CSD-ConQuest-V1
_database_code_CSD XEFPEF03
_database_code_depnum_ccdc_archive 'CCDC 983920'
_chemical_formula_sum 'C12 H24 Br8 Fe3 N24'
_chemical_formula_moiety
;
C12 H24 Fe1 N24 2+,2(Br4 Fe1 1-)
;
_journal_coden_Cambridge 1220
_journal_volume 20
_journal_year 2014
_journal_page_first 7956
_journal_name_full 'Chem.-Eur.J. '
loop_
_publ_author_name
"J.Alberto Rodriguez-Velamazan"
"O.Fabelo"
"C.M.Beavers"
"E.Natividad"
"M.Evangelisti"
"O.Roubeau"
_chemical_name_systematic
;
hexakis(1-methyl-1H-tetrazole)-iron(ii) bis(tetrabromo-iron(iii))
;
_cell_volume    929.610
_exptl_crystal_density_diffrn 2.342
_exptl_special_details
;
Magnetic properties
powder data

;
_diffrn_ambient_temperature 10
_diffrn_radiation_probe 'neutron'
#These two values have been output from a single CSD field.
_refine_ls_R_factor_gt 0.078
_refine_ls_wR_factor_gt 0.078
_symmetry_cell_setting hexagonal
_symmetry_space_group_name_H-M 'P -3'
_symmetry_Int_Tables_number 147
loop_
_symmetry_equiv_pos_site_id
_symmetry_equiv_pos_as_xyz
1 x,y,z
2 -y,x-y,z
3 -x+y,-x,z
4 -x,-y,-z
5 y,-x+y,-z
6 x-y,x,-z
_cell_length_a 12.59569(9)
_cell_length_b 12.59569(9)
_cell_length_c 6.76591(9)
_cell_angle_alpha 90
_cell_angle_beta 90
_cell_angle_gamma 120
_cell_formula_units_Z 1
loop_
_atom_type_symbol
_atom_type_radius_bond
C 0.68
H 0.23
Br 1.21
Fe 1.52
N 0.68
loop_
_atom_site_label
_atom_site_type_symbol
_atom_site_fract_x
_atom_site_fract_y
_atom_site_fract_z
Fe1 Fe 0.00000 0.00000 0.50000
N1 N 0.1096(6) 0.1432(7) 0.6665(12)
N2 N 0.0677(8) 0.2092(8) 0.7672(14)
N3 N 0.1592(7) 0.3007(6) 0.8589(11)
N4 N 0.2598(7) 0.2920(6) 0.8218(12)
C1 C 0.2272(10) 0.1949(9) 0.7034(15)
H1 H 0.2934(17) 0.1721(18) 0.656(3)
C2 C 0.3767(9) 0.3793(9) 0.8981(15)
H2 H 0.4444(19) 0.3492(19) 0.880(3)
H3 H 0.371(2) 0.381(2) 1.060(4)
H4 H 0.405(3) 0.460(2) 0.841(4)
Fe2 Fe 0.66670 0.33330 0.4640(18)
Br1 Br 0.66670 0.33330 0.119(2)
Br2 Br 0.6658(10) 0.5071(10) 0.5813(16)
N1A N -0.1432(6) -0.0336(7) 0.6665(12)
N2A N -0.2092(8) -0.1415(8) 0.7672(14)
N3A N -0.3007(7) -0.1415(6) 0.8589(11)
N4A N -0.2920(7) -0.0322(6) 0.8218(12)
C1A C -0.1949(10) 0.0323(9) 0.7034(15)
H1A H -0.1721(17) 0.1213(18) 0.656(3)
C2A C -0.3793(9) -0.0026(9) 0.8981(15)
H2A H -0.3492(19) 0.0952(19) 0.880(3)
H3A H -0.381(2) -0.010(2) 1.060(4)
H4A H -0.460(3) -0.055(2) 0.841(4)
N1B N 0.0336(6) -0.1096(7) 0.6665(12)
N2B N 0.1415(8) -0.0677(8) 0.7672(14)
N3B N 0.1415(7) -0.1592(6) 0.8589(11)
N4B N 0.0322(7) -0.2598(6) 0.8218(12)
C1B C -0.0323(10) -0.2272(9) 0.7034(15)
H1B H -0.1213(17) -0.2934(18) 0.656(3)
C2B C 0.0026(9) -0.3767(9) 0.8981(15)
H2B H -0.0952(19) -0.4444(19) 0.880(3)
H3B H 0.010(2) -0.371(2) 1.060(4)
H4B H 0.055(3) -0.405(2) 0.841(4)
N1C N -0.1096(6) -0.1432(7) 0.3335(12)
N2C N -0.0677(8) -0.2092(8) 0.2328(14)
N3C N -0.1592(7) -0.3007(6) 0.1411(11)
N4C N -0.2598(7) -0.2920(6) 0.1782(12)
C1C C -0.2272(10) -0.1949(9) 0.2966(15)
H1C H -0.2934(17) -0.1721(18) 0.344(3)
C2C C -0.3767(9) -0.3793(9) 0.1019(15)
H2C H -0.4444(19) -0.3492(19) 0.120(3)
H3C H -0.371(2) -0.381(2) -0.060(4)
H4C H -0.405(3) -0.460(2) 0.159(4)
N1D N 0.1432(6) 0.0336(7) 0.3335(12)
N2D N 0.2092(8) 0.1415(8) 0.2328(14)
N3D N 0.3007(7) 0.1415(6) 0.1411(11)
N4D N 0.2920(7) 0.0322(6) 0.1782(12)
C1D C 0.1949(10) -0.0323(9) 0.2966(15)
H1D H 0.1721(17) -0.1213(18) 0.344(3)
C2D C 0.3793(9) 0.0026(9) 0.1019(15)
H2D H 0.3492(19) -0.0952(19) 0.120(3)
H3D H 0.381(2) 0.010(2) -0.060(4)
H4D H 0.460(3) 0.055(2) 0.159(4)
N1E N -0.0336(6) 0.1096(7) 0.3335(12)
N2E N -0.1415(8) 0.0677(8) 0.2328(14)
N3E N -0.1415(7) 0.1592(6) 0.1411(11)
N4E N -0.0322(7) 0.2598(6) 0.1782(12)
C1E C 0.0323(10) 0.2272(9) 0.2966(15)
H1E H 0.1213(17) 0.2934(18) 0.344(3)
C2E C -0.0026(9) 0.3767(9) 0.1019(15)
H2E H 0.0952(19) 0.4444(19) 0.120(3)
H3E H -0.010(2) 0.371(2) -0.060(4)
H4E H -0.055(3) 0.405(2) 0.159(4)
Br2A Br 0.4929(10) 0.1587(10) 0.5813(16)
Br2B Br 0.8413(10) 0.3342(10) 0.5813(16)
#END
