
#######################################################################
#
#                 Cambridge Crystallographic Data Centre
#                                CCDC
#
#######################################################################
#
# If this CIF has been generated from an entry in the Cambridge
# Structural Database, then it will include bibliographic, chemical,
# crystal, experimental, refinement or atomic coordinate data resulting
# from the CCDC's data processing and validation procedures.
#
#######################################################################

data_CSD_CIF_XEFPEF01
_audit_creation_date 2012-08-02
_audit_creation_method CSD-ConQuest-V1
_database_code_CSD XEFPEF01
_database_code_depnum_ccdc_archive 'CCDC 883450'
_chemical_formula_sum 'C12 H24 Br8 Fe3 N24'
_chemical_formula_moiety
;
C12 H24 Fe1 N24 2+,2(Br4 Fe1 1-)
;
_journal_coden_Cambridge 182
_journal_volume 48
_journal_year 2012
_journal_page_first 7604
_journal_name_full 'Chem.Commun. '
loop_
_publ_author_name
"O.Roubeau"
"M.Evangelisti"
"E.Natividad"
_chemical_name_systematic
;
hexakis(1-methyl-1H-tetrazole)-iron(ii) bis(tetrabromo-iron(iii))
;
_cell_volume    947.013
_exptl_crystal_colour 'red'
_exptl_crystal_density_diffrn 2.299
_exptl_crystal_description 'parallelepiped'
_diffrn_ambient_temperature 104
_diffrn_radiation_probe x-ray
_diffrn_source synchrotron
#These two values have been output from a single CSD field.
_refine_ls_R_factor_gt 0.0358
_refine_ls_wR_factor_gt 0.0358
_symmetry_cell_setting hexagonal
_symmetry_space_group_name_H-M 'P -3'
_symmetry_Int_Tables_number 147
loop_
_symmetry_equiv_pos_site_id
_symmetry_equiv_pos_as_xyz
1 x,y,z
2 -y,x-y,z
3 -x+y,-x,z
4 -x,-y,-z
5 y,-x+y,-z
6 x-y,x,-z
_cell_length_a 12.683(2)
_cell_length_b 12.683(2)
_cell_length_c 6.7980(14)
_cell_angle_alpha 90
_cell_angle_beta 90
_cell_angle_gamma 120
_cell_formula_units_Z 1
loop_
_atom_type_symbol
_atom_type_radius_bond
C 0.68
H 0.23
Br 1.21
Fe 1.48
N 0.68
loop_
_atom_site_label
_atom_site_type_symbol
_atom_site_fract_x
_atom_site_fract_y
_atom_site_fract_z
Fe1 Fe 0.00000 0.00000 0.50000
N1 N 0.1089(2) 0.1440(2) 0.6670(3)
N2 N 0.0691(2) 0.2105(2) 0.7656(4)
N3 N 0.1588(2) 0.2992(2) 0.8573(4)
N4 N 0.2582(2) 0.2910(2) 0.8184(3)
C1 C 0.2267(2) 0.1966(2) 0.7013(4)
H1 H 0.28010 0.17110 0.65050
C2 C 0.3773(3) 0.3794(3) 0.8969(4)
H2 H 0.43670 0.35430 0.86300
H3 H 0.37220 0.38350 1.04020
H4 H 0.40310 0.45970 0.84010
Fe2 Fe 0.66670 0.33330 0.46791(10)
Br1 Br 0.66670 0.33330 0.12598(8)
Br2 Br 0.66691(3) 0.50734(3) 0.58522(4)
N1A N -0.1440(2) -0.0351(2) 0.6670(3)
N1B N 0.0351(2) -0.1089(2) 0.6670(3)
N1C N -0.1089(2) -0.1440(2) 0.3330(3)
N1D N 0.1440(2) 0.0351(2) 0.3330(3)
N1E N -0.0351(2) 0.1089(2) 0.3330(3)
N2A N -0.2105(2) -0.1414(2) 0.7656(4)
N2B N 0.1414(2) -0.0691(2) 0.7656(4)
N2C N -0.0691(2) -0.2105(2) 0.2344(4)
N2D N 0.2105(2) 0.1414(2) 0.2344(4)
N2E N -0.1414(2) 0.0691(2) 0.2344(4)
N3A N -0.2992(2) -0.1404(2) 0.8573(4)
N3B N 0.1404(2) -0.1588(2) 0.8573(4)
N3C N -0.1588(2) -0.2992(2) 0.1427(4)
N3D N 0.2992(2) 0.1404(2) 0.1427(4)
N3E N -0.1404(2) 0.1588(2) 0.1427(4)
N4A N -0.2910(2) -0.0328(2) 0.8184(3)
N4B N 0.0328(2) -0.2582(2) 0.8184(3)
N4C N -0.2582(2) -0.2910(2) 0.1816(3)
N4D N 0.2910(2) 0.0328(2) 0.1816(3)
N4E N -0.0328(2) 0.2582(2) 0.1816(3)
C1A C -0.1966(2) 0.0301(2) 0.7013(4)
C1B C -0.0301(2) -0.2267(2) 0.7013(4)
C1C C -0.2267(2) -0.1966(2) 0.2987(4)
C1D C 0.1966(2) -0.0301(2) 0.2987(4)
C1E C 0.0301(2) 0.2267(2) 0.2987(4)
H1A H -0.17110 0.10900 0.65050
H1B H -0.10900 -0.28010 0.65050
H1C H -0.28010 -0.17110 0.34950
H1D H 0.17110 -0.10900 0.34950
H1E H 0.10900 0.28010 0.34950
C2A C -0.3794(3) -0.0021(3) 0.8969(4)
C2B C 0.0021(3) -0.3773(3) 0.8969(4)
C2C C -0.3773(3) -0.3794(3) 0.1031(4)
C2D C 0.3794(3) 0.0021(3) 0.1031(4)
C2E C -0.0021(3) 0.3773(3) 0.1031(4)
H2A H -0.35430 0.08240 0.86300
H2B H -0.08240 -0.43670 0.86300
H2C H -0.43670 -0.35430 0.13700
H2D H 0.35430 -0.08240 0.13700
H2E H 0.08240 0.43670 0.13700
H3A H -0.38350 -0.01130 1.04020
H3B H 0.01130 -0.37220 1.04020
H3C H -0.37220 -0.38350 -0.04020
H3D H 0.38350 0.01130 -0.04020
H3E H -0.01130 0.37220 -0.04020
H4A H -0.45970 -0.05660 0.84010
H4B H 0.05660 -0.40310 0.84010
H4C H -0.40310 -0.45970 0.15990
H4D H 0.45970 0.05660 0.15990
H4E H -0.05660 0.40310 0.15990
Br2A Br 0.49266(3) 0.15957(3) 0.58522(4)
Br2B Br 0.84043(3) 0.33309(3) 0.58522(4)
#END
