
#######################################################################
#
#                 Cambridge Crystallographic Data Centre
#                                CCDC
#
#######################################################################
#
# If this CIF has been generated from an entry in the Cambridge
# Structural Database, then it will include bibliographic, chemical,
# crystal, experimental, refinement or atomic coordinate data resulting
# from the CCDC's data processing and validation procedures.
#
#######################################################################

data_CSD_CIF_XEKBIZ
_audit_creation_date 2006-10-31
_audit_creation_method CSD-ConQuest-V1
_database_code_CSD XEKBIZ
_database_code_depnum_ccdc_archive 'CCDC 292599'
_chemical_formula_sum 'C17 H10 Br1 Mn1 N2 O3'
_chemical_formula_moiety
;
C17 H10 Br1 Mn1 N2 O3
;
_journal_coden_Cambridge 36
_journal_volume 691
_journal_year 2006
_journal_page_first 3434
_journal_name_full 'J.Organomet.Chem. '
loop_
_publ_author_name
"L.A.Garcia-Escudero"
"D.Miguel"
"J.A.Turiel"
_chemical_name_systematic
;
fac-Bromo-tricarbonyl-(2-((4-ethynylphenyl)iminomethyl)pyridine)-manganese
;
_cell_volume    849.730
_exptl_crystal_colour 'red'
_exptl_crystal_density_diffrn 1.662
_exptl_crystal_description 'prism'
_exptl_crystal_preparation 'dichloromethane/hexane'
_diffrn_ambient_temperature 296
#These two values have been output from a single CSD field.
_refine_ls_R_factor_gt 0.0583
_refine_ls_wR_factor_gt 0.0583
_symmetry_cell_setting triclinic
_symmetry_space_group_name_H-M 'P -1'
_symmetry_Int_Tables_number 2
loop_
_symmetry_equiv_pos_site_id
_symmetry_equiv_pos_as_xyz
1 x,y,z
2 -x,-y,-z
_cell_length_a 8.964(3)
_cell_length_b 9.120(4)
_cell_length_c 10.883(4)
_cell_angle_alpha 82.172(7)
_cell_angle_beta 74.695(6)
_cell_angle_gamma 86.211(7)
_cell_formula_units_Z 2
loop_
_atom_type_symbol
_atom_type_radius_bond
C 0.68
H 0.23
Br 1.21
Mn 1.35
N 0.68
O 0.68
loop_
_atom_site_label
_atom_site_type_symbol
_atom_site_fract_x
_atom_site_fract_y
_atom_site_fract_z
Mn1 Mn 0.41264(16) 0.21269(19) 0.25089(13)
Br1 Br 0.29835(12) 0.27165(14) 0.47704(10)
N1 N 0.3287(9) 0.006(1) 0.3056(6)
N2 N 0.1925(8) 0.244(1) 0.2327(6)
C1 C 0.4947(9) 0.1796(11) 0.0861(9)
O1 O 0.5551(8) 0.1631(8) -0.0143(6)
C2 C 0.4704(11) 0.3993(14) 0.2073(9)
O2 O 0.5167(8) 0.5204(8) 0.1853(6)
C3 C 0.5944(12) 0.1655(13) 0.2859(9)
O3 O 0.7121(8) 0.1403(8) 0.3094(7)
C4 C -0.1035(16) 0.7801(16) 0.0927(13)
C5 C -0.1645(16) 0.8882(17) 0.0627(13)
H1 H -0.21410 0.97600 0.03830
C6 C 0.4062(12) -0.1194(14) 0.3456(9)
H2 H 0.50840 -0.11360 0.34870
C7 C 0.3342(15) -0.2537(14) 0.3811(9)
H3 H 0.38810 -0.33700 0.40850
C8 C 0.1835(15) -0.2655(14) 0.3764(9)
H4 H 0.13480 -0.35580 0.40020
C9 C 0.1083(12) -0.1432(14) 0.3366(9)
H5 H 0.00710 -0.14890 0.33110
C10 C 0.1816(13) -0.0072(13) 0.3034(8)
C11 C 0.1081(10) 0.1275(13) 0.2638(8)
H6 H 0.00530 0.13180 0.26040
C12 C 0.1182(11) 0.3838(13) 0.1964(9)
C13 C 0.1875(11) 0.4777(12) 0.0909(9)
H7 H 0.28420 0.45200 0.04050
C14 C 0.1150(13) 0.6114(13) 0.0579(9)
H8 H 0.16490 0.67650 -0.01220
C15 C -0.0311(12) 0.6472(13) 0.1293(10)
C16 C -0.1025(11) 0.5634(14) 0.2333(10)
H9 H -0.19900 0.59240 0.28210
C17 C -0.0301(11) 0.4288(13) 0.2694(8)
H10 H -0.08010 0.36800 0.34250
#END
