
#######################################################################
#
#                 Cambridge Crystallographic Data Centre
#                                CCDC
#
#######################################################################
#
# If this CIF has been generated from an entry in the Cambridge
# Structural Database, then it will include bibliographic, chemical,
# crystal, experimental, refinement or atomic coordinate data resulting
# from the CCDC's data processing and validation procedures.
#
#######################################################################

data_CSD_CIF_XELCOG
_audit_creation_date 2001-06-11
_audit_creation_method CSD-ConQuest-V1
_database_code_CSD XELCOG
_database_code_depnum_ccdc_archive 'CCDC 158126'
_chemical_formula_sum 'C20 H21 Fe1 N3 O5'
_chemical_formula_moiety
;
C20 H21 Fe1 N3 O5
;
_journal_coden_Cambridge 24
_journal_volume 41
_journal_year 2000
_journal_page_first 9581
_journal_name_full 'Tetrahedron Lett. '
loop_
_publ_author_name
"R.S.Glass"
"N.Y.T.Stessman"
_chemical_name_systematic
;
(\h^5^-4-Acetylimino-5,7-diacetyl-6-methoxycarbonyl-cyclopenta(d)dihydropyridi
midine)-(\h^5^-cyclopentadienyl)-iron
;
_cell_volume    491.940
_exptl_crystal_colour 'orange'
_exptl_crystal_density_diffrn 1.483
_exptl_crystal_description 'irregular'
_diffrn_ambient_temperature 170
#These two values have been output from a single CSD field.
_refine_ls_R_factor_gt 0.0412
_refine_ls_wR_factor_gt 0.0412
_symmetry_cell_setting triclinic
_symmetry_space_group_name_H-M 'P 1'
_symmetry_Int_Tables_number 1
loop_
_symmetry_equiv_pos_site_id
_symmetry_equiv_pos_as_xyz
1 x,y,z
_cell_length_a 7.4149(8)
_cell_length_b 8.1199(9)
_cell_length_c 8.9125(9)
_cell_angle_alpha 99.828(2)
_cell_angle_beta 110.796(2)
_cell_angle_gamma 91.662(2)
_cell_formula_units_Z 1
loop_
_atom_type_symbol
_atom_type_radius_bond
C 0.68
H 0.23
Fe 1.34
N 0.68
O 0.68
loop_
_atom_site_label
_atom_site_type_symbol
_atom_site_fract_x
_atom_site_fract_y
_atom_site_fract_z
Fe1 Fe -0.33120(4) -0.22646(4) -0.15105(4)
N1 N -0.5668(3) -0.1881(3) -0.5825(3)
C1 C -0.6559(4) -0.3579(4) -0.6232(4)
H1 H -0.79680 -0.36170 -0.69100
N2 N -0.6333(4) -0.4262(3) -0.4792(3)
C2 C -0.4396(5) -0.3998(4) -0.3622(4)
C3 C -0.3050(5) -0.2762(4) -0.3727(4)
C4 C -0.3658(4) -0.1615(4) -0.4854(3)
C5 C -0.1236(5) -0.2851(4) -0.2454(4)
H2 H -0.00040 -0.21400 -0.22060
C6 C -0.1479(6) -0.4099(5) -0.1609(5)
H3 H -0.04540 -0.44100 -0.06460
C7 C -0.3430(6) -0.4807(4) -0.2319(4)
H4 H -0.40210 -0.57100 -0.19540
C8 C -0.5514(6) -0.0952(5) -0.1300(5)
H5 H -0.68540 -0.10570 -0.21410
C9 C -0.3978(6) 0.0139(5) -0.1160(5)
H6 H -0.40220 0.09420 -0.19040
C10 C -0.2359(6) -0.0054(6) 0.0163(5)
H7 H -0.10500 0.05820 0.05500
C11 C -0.2925(7) -0.1301(6) 0.0859(5)
H8 H -0.20660 -0.17250 0.18330
C12 C -0.4881(7) -0.1862(5) -0.0022(6)
H9 H -0.56750 -0.27290 0.02130
C13 C -0.6712(5) -0.0751(4) -0.6744(4)
C14 C -0.6158(6) 0.1079(5) -0.6075(5)
H10 H -0.73100 0.16900 -0.64180
H11 H -0.52010 0.14820 -0.64890
H12 H -0.55970 0.12690 -0.48770
O1 O -0.8101(4) -0.1286(3) -0.7969(3)
O2 O -0.5584(3) -0.4548(3) -0.7171(3)
C15 C -0.6684(5) -0.5778(4) -0.8427(4)
C16 C -0.5478(7) -0.6585(5) -0.9321(5)
H13 H -0.56640 -0.78070 -0.94460
H14 H -0.41080 -0.61930 -0.87010
H15 H -0.58680 -0.62830 -1.04030
O3 O -0.8374(4) -0.6128(3) -0.8738(3)
C17 C -0.7870(5) -0.4918(4) -0.4454(4)
C18 C -0.9861(5) -0.5034(5) -0.5692(5)
H16 H -1.07730 -0.55960 -0.53270
H17 H -0.99000 -0.56790 -0.67400
H18 H -1.02250 -0.39020 -0.58270
O4 O -0.7528(4) -0.5389(3) -0.3167(3)
N3 N -0.2632(4) -0.0484(3) -0.5085(3)
C19 C -0.0665(5) -0.0060(4) -0.4264(4)
C20 C -0.0137(6) 0.1403(5) -0.2867(5)
H19 H 0.11380 0.19490 -0.26910
H20 H -0.00930 0.10110 -0.18750
H21 H -0.11090 0.22090 -0.31190
O5 O 0.0524(3) -0.0749(3) -0.4714(3)
#END
