
#######################################################################
#
#                 Cambridge Crystallographic Data Centre
#                                CCDC
#
#######################################################################
#
# If this CIF has been generated from an entry in the Cambridge
# Structural Database, then it will include bibliographic, chemical,
# crystal, experimental, refinement or atomic coordinate data resulting
# from the CCDC's data processing and validation procedures.
#
#######################################################################

data_CSD_CIF_XEPDOM
_audit_creation_date 2007-02-02
_audit_creation_method CSD-ConQuest-V1
_database_code_CSD XEPDOM
_database_code_depnum_ccdc_archive 'CCDC 296383'
_chemical_formula_sum 'C12 H14 Co1 N4 O6'
_chemical_formula_moiety
;
C12 H14 Co1 N4 O6
;
_journal_coden_Cambridge 580
_journal_volume 25
_journal_year 2006
_journal_page_first 2967
_journal_name_full 'Polyhedron '
loop_
_publ_author_name
"S.Tanase"
"M.van Son"
"G.A.van Albada"
"R.de Gelder"
"E.Bouwman"
"J.Reedijk"
_chemical_name_systematic
;
cis-Diaqua-bis(5-methylpyrazine-2-carboxylato-N,O)-cobalt(ii)
;
_cell_volume    721.492
_exptl_crystal_colour 'orange'
_exptl_crystal_density_diffrn 1.699
_exptl_special_details
;
magnetic properties

;
_exptl_crystal_description 'rough platelet'
_diffrn_ambient_temperature 208
#These two values have been output from a single CSD field.
_refine_ls_R_factor_gt 0.0459
_refine_ls_wR_factor_gt 0.0459
loop_
_citation_database_id_CSD
_citation_special_details
LEQKAU "is a stereoisomer of this entry"
_symmetry_cell_setting triclinic
_symmetry_space_group_name_H-M 'P -1'
_symmetry_Int_Tables_number 2
loop_
_symmetry_equiv_pos_site_id
_symmetry_equiv_pos_as_xyz
1 x,y,z
2 -x,-y,-z
_cell_length_a 7.0480(6)
_cell_length_b 7.3825(9)
_cell_length_c 14.2921(11)
_cell_angle_alpha 89.402(7)
_cell_angle_beta 79.397(6)
_cell_angle_gamma 80.841(8)
_cell_formula_units_Z 2
loop_
_atom_type_symbol
_atom_type_radius_bond
C 0.68
H 0.23
Co 1.33
N 0.68
O 0.68
loop_
_atom_site_label
_atom_site_type_symbol
_atom_site_fract_x
_atom_site_fract_y
_atom_site_fract_z
Co1 Co 0.13413(5) 0.19364(5) 0.24051(3)
O1 O 0.4242(3) 0.1300(4) 0.25155(17)
H1 H 0.462(6) 0.204(6) 0.273(3)
H2 H 0.506(6) 0.061(5) 0.215(3)
O2 O 0.1515(4) 0.4703(3) 0.24745(17)
H3 H 0.151(5) 0.541(5) 0.202(3)
H4 H 0.146(5) 0.519(5) 0.297(3)
C1 C 0.1618(4) -0.1373(4) 0.1318(2)
O3 O 0.1322(3) -0.0822(3) 0.21642(14)
O4 O 0.1586(4) -0.2951(3) 0.10343(16)
C2 C 0.2099(4) 0.0021(4) 0.05627(19)
N1 N 0.1953(3) 0.1756(3) 0.08728(16)
C3 C 0.2396(4) 0.2993(4) 0.0218(2)
H5 H 0.227(4) 0.417(4) 0.040(2)
C4 C 0.3044(4) 0.2529(4) -0.0741(2)
N2 N 0.3224(3) 0.0792(3) -0.10409(17)
C5 C 0.2715(4) -0.0433(4) -0.0383(2)
H6 H 0.281(4) -0.159(4) -0.055(2)
C6 C 0.3578(7) 0.3939(5) -0.1458(3)
H7 H 0.438(6) 0.343(6) -0.198(3)
H8 H 0.426(7) 0.487(7) -0.125(4)
H9 H 0.252(7) 0.446(6) -0.163(3)
C7 C -0.2551(4) 0.2912(4) 0.3453(2)
O5 O -0.1679(3) 0.2447(3) 0.26212(14)
O6 O -0.4337(3) 0.3397(3) 0.37107(15)
C8 C -0.1297(4) 0.2792(3) 0.42130(19)
N3 N 0.0576(3) 0.2032(3) 0.39262(16)
C9 C 0.1716(4) 0.1788(4) 0.4580(2)
H10 H 0.298(5) 0.123(4) 0.438(2)
C10 C 0.1040(4) 0.2372(4) 0.5519(2)
N4 N -0.0797(4) 0.3247(3) 0.57892(17)
C11 C -0.1955(4) 0.3413(4) 0.5143(2)
H11 H -0.325(5) 0.403(4) 0.532(2)
C12 C 0.2337(5) 0.2107(5) 0.6240(2)
H12 H 0.274(7) 0.315(7) 0.639(3)
H13 H 0.347(7) 0.125(7) 0.603(3)
H14 H 0.180(6) 0.146(6) 0.677(3)
#END
