
#######################################################################
#
#                 Cambridge Crystallographic Data Centre
#                                CCDC
#
#######################################################################
#
# If this CIF has been generated from an entry in the Cambridge
# Structural Database, then it will include bibliographic, chemical,
# crystal, experimental, refinement or atomic coordinate data resulting
# from the CCDC's data processing and validation procedures.
#
#######################################################################

data_CSD_CIF_XEPPAK
_audit_creation_date 2007-02-02
_audit_creation_method CSD-ConQuest-V1
_database_code_CSD XEPPAK
_database_code_depnum_ccdc_archive 'CCDC 297121'
_chemical_formula_sum 'C16 H16 Co1 N4 O8'
_chemical_formula_moiety
;
C12 H16 Co1 N4 O4 2+,C4 O4 2-
;
_journal_coden_Cambridge 644
_journal_volume 61
_journal_year 2006
_journal_page_first 1094
_journal_name_full 'Z.Naturforsch.,B:Chem.Sci. '
loop_
_publ_author_name
"O.Z.Yesilel"
"H.Olmez"
"O.O.Yilan"
"H.Pasaoglu"
"O.Buyukgungor"
_chemical_name_systematic
;
Diaqua-bis(pyridine-2-carboxamide)-cobalt(ii) squarate
;
_cell_volume    421.695
_exptl_crystal_colour 'brown'
_exptl_crystal_density_diffrn 1.777
_diffrn_ambient_temperature 293
#These two values have been output from a single CSD field.
_refine_ls_R_factor_gt 0.0256
_refine_ls_wR_factor_gt 0.0256
_symmetry_cell_setting triclinic
_symmetry_space_group_name_H-M 'P -1'
_symmetry_Int_Tables_number 2
loop_
_symmetry_equiv_pos_site_id
_symmetry_equiv_pos_as_xyz
1 x,y,z
2 -x,-y,-z
_cell_length_a 6.9624(9)
_cell_length_b 7.9224(11)
_cell_length_c 8.0501(11)
_cell_angle_alpha 107.404(11)
_cell_angle_beta 93.340(11)
_cell_angle_gamma 93.266(11)
_cell_formula_units_Z 1
loop_
_atom_type_symbol
_atom_type_radius_bond
C 0.68
H 0.23
Co 1.33
N 0.68
O 0.68
loop_
_atom_site_label
_atom_site_type_symbol
_atom_site_fract_x
_atom_site_fract_y
_atom_site_fract_z
C1 C 0.5168(3) 0.6695(2) 0.2014(2)
H1 H 0.44120 0.56930 0.13370
C2 C 0.5747(3) 0.7965(3) 0.1251(2)
H2 H 0.54030 0.78150 0.00790
C3 C 0.6847(3) 0.9458(3) 0.2262(3)
H3 H 0.72490 1.03380 0.17830
C4 C 0.7347(3) 0.9634(2) 0.4001(2)
H4 H 0.80880 1.06320 0.47060
C5 C 0.6724(2) 0.8302(2) 0.4663(2)
C6 C 0.7130(2) 0.8325(2) 0.6523(2)
C7 C 0.0285(2) 0.5870(2) 0.1251(2)
C8 C 0.0501(2) 0.5973(2) -0.0523(2)
N1 N 0.5649(2) 0.68464(18) 0.36851(18)
N2 N 0.8181(3) 0.9691(2) 0.7598(2)
O1 O 0.7692(2) 0.3982(2) 0.4444(2)
O2 O 0.64651(19) 0.70641(17) 0.69888(16)
O3 O 0.06495(19) 0.69266(16) 0.27590(15)
O4 O 0.1123(2) 0.71498(18) -0.11431(17)
Co1 Co 0.50000 0.50000 0.50000
H5 H 0.811(4) 0.373(4) 0.355(4)
H6 H 0.826(4) 0.388(4) 0.517(4)
H7 H 0.851(4) 1.067(4) 0.732(3)
H8 H 0.837(4) 0.971(4) 0.869(4)
C1A C 0.4832(3) 0.3305(2) 0.7986(2)
H1A H 0.55880 0.43070 0.86630
C2A C 0.4253(3) 0.2035(3) 0.8749(2)
H2A H 0.45970 0.21850 0.99210
C3A C 0.3153(3) 0.0542(3) 0.7738(3)
H3A H 0.27510 -0.03380 0.82170
C4A C 0.2653(3) 0.0366(2) 0.5999(2)
H4A H 0.19120 -0.06320 0.52940
C5A C 0.3276(2) 0.1698(2) 0.5337(2)
C6A C 0.2870(2) 0.1675(2) 0.3477(2)
C7A C -0.0285(2) 0.4130(2) -0.1251(2)
C8A C -0.0501(2) 0.4027(2) 0.0523(2)
N1A N 0.4351(2) 0.31536(18) 0.63149(18)
N2A N 0.1819(3) 0.0309(2) 0.2402(2)
O1A O 0.2308(2) 0.6018(2) 0.5556(2)
O2A O 0.35349(19) 0.29359(17) 0.30112(16)
O3A O -0.06495(19) 0.30734(16) -0.27590(15)
O4A O -0.1123(2) 0.28502(18) 0.11431(17)
H5A H 0.189(4) 0.627(4) 0.645(4)
H6A H 0.174(4) 0.612(4) 0.483(4)
H7A H 0.149(4) -0.067(4) 0.268(3)
H8A H 0.163(4) 0.029(4) 0.131(4)
#END
