
#######################################################################
#
#                 Cambridge Crystallographic Data Centre
#                                CCDC
#
#######################################################################
#
# If this CIF has been generated from an entry in the Cambridge
# Structural Database, then it will include bibliographic, chemical,
# crystal, experimental, refinement or atomic coordinate data resulting
# from the CCDC's data processing and validation procedures.
#
#######################################################################

data_CSD_CIF_XEQFII
_audit_creation_date 2001-06-21
_audit_creation_method CSD-ConQuest-V1
_database_code_CSD XEQFII
_chemical_formula_sum 'C17 H20 Cr1 O3 Si1'
_chemical_formula_moiety
;
C17 H20 Cr1 O3 Si1
;
_journal_coden_Cambridge 579
_journal_volume 19
_journal_year 2000
_journal_page_first 590
_journal_name_full 'Organometallics '
loop_
_publ_author_name
"M.Stradiotto"
"P.Hazendonk"
"A.D.Bain"
"M.A.Brook"
"M.J.McGlinchey"
_chemical_name_systematic
;
Tricarbonyl-(\h^6^-1,3-dimethyl-1-exo-(trimethylsilyl)indene)-chromium
;
_chemical_melting_point 401.15
_cell_volume    910.680
_exptl_crystal_colour 'yellow'
_exptl_crystal_density_diffrn 1.285
_exptl_special_details
;
Melting point range 401.15-403.15K

;
_exptl_crystal_description 'plate'
_exptl_crystal_preparation 'dichloromethane'
_diffrn_ambient_temperature ?
_diffrn_special_details
;
The study was carried out at room temperature,in the range 283-303K

;
#These two values have been output from a single CSD field.
_refine_ls_R_factor_gt 0.0672
_refine_ls_wR_factor_gt 0.0672
_symmetry_cell_setting triclinic
_symmetry_space_group_name_H-M 'P -1'
_symmetry_Int_Tables_number 2
loop_
_symmetry_equiv_pos_site_id
_symmetry_equiv_pos_as_xyz
1 x,y,z
2 -x,-y,-z
_cell_length_a 9.691(11)
_cell_length_b 9.877(9)
_cell_length_c 10.395(12)
_cell_angle_alpha 67.98(3)
_cell_angle_beta 81.98(2)
_cell_angle_gamma 82.94(2)
_cell_formula_units_Z 2
loop_
_atom_type_symbol
_atom_type_radius_bond
C 0.68
H 0.23
Cr 1.35
O 0.68
Si 1.20
loop_
_atom_site_label
_atom_site_type_symbol
_atom_site_fract_x
_atom_site_fract_y
_atom_site_fract_z
Cr1 Cr 0.2689(1) 0.4432(1) 0.8836(1)
Si1 Si 0.2108(2) 0.0888(2) 0.6507(2)
O1 O 0.2048(6) 0.5998(6) 1.0846(6)
O2 O 0.0927(7) 0.6837(6) 0.6920(6)
O3 O 0.5169(7) 0.6198(6) 0.7600(6)
C1 C 0.2675(8) 0.2744(6) 0.6404(7)
C2 C 0.4213(9) 0.2683(7) 0.6089(8)
C3 C 0.4909(8) 0.2528(7) 0.7168(10)
C4 C 0.3869(8) 0.2525(6) 0.8322(7)
C5 C 0.4004(10) 0.2364(7) 0.9715(10)
C6 C 0.2770(16) 0.2365(8) 1.0595(9)
C7 C 0.1443(12) 0.2584(9) 1.0143(11)
C8 C 0.2528(7) 0.2733(6) 0.7860(7)
C9 C 0.1327(9) 0.2794(7) 0.8768(9)
C10 C 0.0191(8) 0.0852(9) 0.6893(10)
C11 C 0.2639(10) 0.0686(9) 0.4802(9)
C12 C 0.2967(9) -0.0590(7) 0.7890(9)
C13 C 0.1844(9) 0.4014(7) 0.5364(8)
C14 C 0.6464(8) 0.2313(9) 0.7266(10)
C15 C 0.1615(9) 0.5893(8) 0.7633(8)
C16 C 0.2292(7) 0.5389(8) 1.0060(8)
C17 C 0.4201(9) 0.5504(8) 0.8077(8)
H1 H 0.4657(9) 0.2748(7) 0.5218(8)
H2 H 0.4918(10) 0.2361(7) 1.0018(10)
H3 H 0.2844(16) 0.2391(8) 1.1516(9)
H4 H 0.0616(12) 0.2741(9) 1.0747(11)
H5 H 0.0419(9) 0.3129(7) 0.8394(9)
H6 H -0.0253(8) 0.1629(9) 0.6164(10)
H7 H -0.0089(8) 0.0979(9) 0.7766(10)
H8 H -0.0083(8) -0.0072(9) 0.6949(10)
H9 H 0.218(1) 0.1467(9) 0.4088(9)
H10 H 0.2378(10) -0.0237(9) 0.4843(9)
H11 H 0.3633(10) 0.0725(9) 0.4591(9)
H12 H 0.3962(9) -0.0564(7) 0.7683(9)
H13 H 0.2697(9) -0.1516(7) 0.7948(9)
H14 H 0.2691(9) -0.0464(7) 0.8765(9)
H15 H 0.0862(9) 0.3952(7) 0.5661(8)
H16 H 0.2031(9) 0.3954(7) 0.4455(8)
H17 H 0.2119(9) 0.4930(7) 0.5327(8)
H18 H 0.6645(8) 0.2235(9) 0.8177(10)
H19 H 0.6906(8) 0.3134(9) 0.6574(10)
H20 H 0.6830(8) 0.1433(9) 0.7111(10)
#END
