
#######################################################################
#
#                 Cambridge Crystallographic Data Centre
#                                CCDC
#
#######################################################################
#
# If this CIF has been generated from an entry in the Cambridge
# Structural Database, then it will include bibliographic, chemical,
# crystal, experimental, refinement or atomic coordinate data resulting
# from the CCDC's data processing and validation procedures.
#
#######################################################################

data_CSD_CIF_XESGEH
_audit_creation_date 2001-06-20
_audit_creation_method CSD-ConQuest-V1
_database_code_CSD XESGEH
_database_code_depnum_ccdc_archive 'CCDC 160603'
_database_code_depnum_ccdc_journal 186/2316
_chemical_formula_sum 'C10 H20 Cl1 Co1 N4 O8'
_chemical_formula_moiety
;
C10 H20 Co1 N4 O4 1+,Cl1 O4 1-
;
_journal_coden_Cambridge 186
_journal_year 2001
_journal_page_first 758
_journal_name_full 'J.Chem.Soc.,Dalton Trans. '
loop_
_publ_author_name
"A.J.Clarkson"
"A.G.Blackman"
"C.R.Clark"
_chemical_name_systematic
;
syn,anti-(1,4,7,10-Tetra-azacyclododecane-N,N',N'',N''')-(oxalato-O,O')-cobalt
(iii) perchlorate
;
_cell_volume    831.024
_exptl_crystal_colour 'red'
_exptl_crystal_density_diffrn 1.673
_exptl_crystal_description 'block'
_diffrn_ambient_temperature 158
#These two values have been output from a single CSD field.
_refine_ls_R_factor_gt 0.048
_refine_ls_wR_factor_gt 0.048
loop_
_citation_database_id_CSD
_citation_special_details
XESGAD "is a stereoisomer of this entry"
_symmetry_cell_setting triclinic
_symmetry_space_group_name_H-M 'P -1'
_symmetry_Int_Tables_number 2
loop_
_symmetry_equiv_pos_site_id
_symmetry_equiv_pos_as_xyz
1 x,y,z
2 -x,-y,-z
_cell_length_a 7.406(4)
_cell_length_b 8.610(5)
_cell_length_c 14.305(10)
_cell_angle_alpha 77.850(18)
_cell_angle_beta 86.805(18)
_cell_angle_gamma 68.773(11)
_cell_formula_units_Z 2
loop_
_atom_type_symbol
_atom_type_radius_bond
C 0.68
H 0.23
Cl 0.99
Co 1.33
N 0.68
O 0.68
loop_
_atom_site_label
_atom_site_type_symbol
_atom_site_fract_x
_atom_site_fract_y
_atom_site_fract_z
Co1 Co 0.30186(6) 0.33210(6) 0.19869(3)
O1 O 0.1914(4) 0.5548(3) 0.11237(18)
O2 O 0.5463(3) 0.3747(3) 0.18413(18)
N1 N 0.0404(4) 0.3244(4) 0.2026(2)
H1 H -0.03390 0.42420 0.16170
N2 N 0.4361(4) 0.1125(4) 0.2853(2)
H2 H 0.34730 0.06000 0.30650
O3 O 0.6661(4) 0.5750(4) 0.1038(2)
N3 N 0.2375(4) 0.4249(4) 0.3184(2)
H3 H 0.27230 0.52010 0.31180
O4 O 0.2865(4) 0.7653(3) 0.02340(19)
N4 N 0.3517(4) 0.1944(4) 0.0957(2)
H4 H 0.40660 0.24430 0.04350
C1 C 0.5311(5) 0.5192(5) 0.1256(2)
C2 C 0.1552(5) 0.1952(5) 0.0654(3)
H5 H 0.17450 0.09740 0.03500
H6 H 0.08700 0.30150 0.01890
C3 C 0.3184(5) 0.6286(4) 0.0815(2)
C4 C 0.0343(5) 0.1827(5) 0.1573(3)
H7 H -0.10060 0.19950 0.14110
H8 H 0.09270 0.07060 0.20070
C5 C 0.4901(5) 0.0109(5) 0.1345(3)
H9 H 0.58940 -0.02620 0.08660
H10 H 0.41640 -0.06670 0.14640
C6 C -0.0460(5) 0.3405(5) 0.3007(3)
H11 H 0.00620 0.23100 0.34710
H12 H -0.18890 0.37700 0.29740
C7 C 0.5898(5) 0.0022(5) 0.2286(3)
H13 H 0.64230 -0.11670 0.26500
H14 H 0.69760 0.04520 0.21480
C8 C 0.0169(5) 0.4787(5) 0.3292(3)
H15 H -0.04920 0.59080 0.28700
H16 H -0.01820 0.48800 0.39610
C9 C 0.5156(5) 0.1486(5) 0.3705(3)
H17 H 0.62590 0.18660 0.35150
H18 H 0.56070 0.04500 0.42170
C10 C 0.3479(6) 0.2903(5) 0.4058(3)
H19 H 0.39970 0.34430 0.44700
H20 H 0.25860 0.24110 0.44400
Cl1 Cl 0.18354(14) -0.19944(12) 0.40701(7)
O5 O 0.2285(5) -0.0626(4) 0.4352(2)
O6 O 0.2311(6) -0.3488(5) 0.4851(3)
O7 O 0.3030(6) -0.2450(5) 0.3241(3)
O8 O -0.0212(6) -0.1404(6) 0.3801(4)
#END
