
#######################################################################
#
#                 Cambridge Crystallographic Data Centre
#                                CCDC
#
#######################################################################
#
# If this CIF has been generated from an entry in the Cambridge
# Structural Database, then it will include bibliographic, chemical,
# crystal, experimental, refinement or atomic coordinate data resulting
# from the CCDC's data processing and validation procedures.
#
#######################################################################

data_CSD_CIF_XEZYIM
_audit_creation_date 2013-05-21
_audit_creation_method CSD-ConQuest-V1
_database_code_CSD XEZYIM
_database_code_depnum_ccdc_archive 'CCDC 916189'
_chemical_formula_sum 'C14 H24 Cl2 Fe1 N1 P1'
_chemical_formula_moiety
;
C14 H24 Cl2 Fe1 N1 P1
;
_journal_coden_Cambridge 179
_journal_volume 52
_journal_year 2013
_journal_page_first 3676
_journal_name_full 'Angew.Chem.,Int.Ed. '
loop_
_publ_author_name
"Lei Zhang"
"Dongjie Peng"
"Xuebing Leng"
"Zheng Huang"
_chemical_name_systematic
;
Dichloro(2-((di-t-butylphosphino)methyl)pyridine)iron(ii)
;
_cell_volume    913.043
_exptl_crystal_colour 'colorless'
_exptl_crystal_density_diffrn 1.324
_exptl_crystal_description 'block'
_diffrn_ambient_temperature 140
#These two values have been output from a single CSD field.
_refine_ls_R_factor_gt 0.036
_refine_ls_wR_factor_gt 0.036
_symmetry_cell_setting triclinic
_symmetry_space_group_name_H-M 'P -1'
_symmetry_Int_Tables_number 2
loop_
_symmetry_equiv_pos_site_id
_symmetry_equiv_pos_as_xyz
1 x,y,z
2 -x,-y,-z
_cell_length_a 7.692(5)
_cell_length_b 9.129(6)
_cell_length_c 14.631(9)
_cell_angle_alpha 84.992(10)
_cell_angle_beta 76.763(9)
_cell_angle_gamma 65.920(9)
_cell_formula_units_Z 2
loop_
_atom_type_symbol
_atom_type_radius_bond
C 0.68
H 0.23
Cl 0.99
Fe 1.52
N 0.68
P 1.05
loop_
_atom_site_label
_atom_site_type_symbol
_atom_site_fract_x
_atom_site_fract_y
_atom_site_fract_z
Fe1 Fe 0.50042(3) 0.34621(3) 0.305542(15)
Cl1 Cl 0.63137(6) 0.50451(5) 0.21501(3)
Cl2 Cl 0.65473(6) 0.20200(6) 0.41763(3)
N1 N 0.21339(19) 0.50752(17) 0.36651(9)
P1 P 0.31819(6) 0.24652(5) 0.22934(2)
C1 C 0.0773(2) 0.3406(2) 0.30875(10)
H1 H -0.02550 0.36750 0.27240
H2 H 0.06030 0.26240 0.35760
C2 C 0.0521(2) 0.49100(19) 0.35589(10)
C3 C -0.1338(2) 0.6078(2) 0.38931(11)
H3 H -0.24590 0.59350 0.38260
C4 C -0.1537(3) 0.7450(2) 0.43249(11)
H4 H -0.27930 0.82610 0.45480
C5 C 0.0123(3) 0.7621(2) 0.44261(11)
H5 H 0.00250 0.85530 0.47140
C6 C 0.1919(3) 0.6405(2) 0.40988(11)
H6 H 0.30530 0.65080 0.41820
C7 C 0.2837(2) 0.3394(2) 0.1112(1)
C8 C 0.1831(3) 0.5225(2) 0.12658(12)
H7 H 0.17610 0.57620 0.06570
H8 H 0.25810 0.55710 0.15910
H9 H 0.05110 0.55070 0.16470
C9 C 0.1587(3) 0.2867(2) 0.06454(11)
H10 H 0.03210 0.30890 0.10710
H11 H 0.22520 0.17140 0.05070
H12 H 0.13900 0.34600 0.00600
C10 C 0.4868(3) 0.2999(2) 0.04568(11)
H13 H 0.55560 0.18330 0.03720
H14 H 0.56240 0.34060 0.07380
H15 H 0.47070 0.35060 -0.01540
C11 C 0.3655(3) 0.0281(2) 0.23394(11)
C12 C 0.1929(3) -0.0101(3) 0.22467(14)
H16 H 0.16180 0.02410 0.16290
H17 H 0.07920 0.04720 0.27390
H18 H 0.22790 -0.12590 0.23130
C13 C 0.5449(3) -0.0608(2) 0.15760(15)
H19 H 0.58140 -0.17670 0.16450
H20 H 0.65340 -0.03500 0.16390
H21 H 0.51450 -0.02740 0.09560
C14 C 0.4137(3) -0.0305(2) 0.33084(13)
H22 H 0.44910 -0.14650 0.33550
H23 H 0.29960 0.02470 0.38030
H24 H 0.52320 -0.00690 0.33830
#END
