
#######################################################################
#
#                 Cambridge Crystallographic Data Centre
#                                CCDC
#
#######################################################################
#
# If this CIF has been generated from an entry in the Cambridge
# Structural Database, then it will include bibliographic, chemical,
# crystal, experimental, refinement or atomic coordinate data resulting
# from the CCDC's data processing and validation procedures.
#
#######################################################################

data_CSD_CIF_XIBBIW
_audit_creation_date 2018-04-10
_audit_creation_method CSD-ConQuest-V1
_database_code_CSD XIBBIW
_database_code_depnum_ccdc_archive 'CCDC 1574509'
_chemical_formula_sum 'C16 H18 Co1 N12 O16'
_chemical_formula_moiety
;
C16 H18 Co1 N12 O16
;
_journal_coden_Cambridge 1220
_journal_volume 24
_journal_year 2018
_journal_page_first 2687
_journal_name_full 'Chem.-Eur.J. '
loop_
_publ_author_name
"N.Szimhardt"
"J.Stierstorfer"
_chemical_name_systematic
;
bis(1-methylhydrazine-1-carboxamide)-bis(2,4,6-trinitrophenolato)-cobalt(ii)
;
_chemical_name_common
;
bis(methylsemicarbazide)-bis(picrato)-cobalt(ii)
;
_cell_volume    617.104
_exptl_crystal_colour 'orange'
_exptl_crystal_density_diffrn 1.866
_exptl_crystal_description 'block'
_diffrn_ambient_temperature 143
#These two values have been output from a single CSD field.
_refine_ls_R_factor_gt 0.0323
_refine_ls_wR_factor_gt 0.0323
_symmetry_cell_setting triclinic
_symmetry_space_group_name_H-M 'P -1'
_symmetry_Int_Tables_number 2
loop_
_symmetry_equiv_pos_site_id
_symmetry_equiv_pos_as_xyz
1 x,y,z
2 -x,-y,-z
_cell_length_a 7.3600(5)
_cell_length_b 7.4180(6)
_cell_length_c 11.9640(12)
_cell_angle_alpha 99.672(8)
_cell_angle_beta 92.327(7)
_cell_angle_gamma 105.770(6)
_cell_formula_units_Z 1
loop_
_atom_type_symbol
_atom_type_radius_bond
C 0.68
H 0.23
Co 1.26
N 0.68
O 0.68
loop_
_atom_site_label
_atom_site_type_symbol
_atom_site_fract_x
_atom_site_fract_y
_atom_site_fract_z
Co1 Co 0.50000 0.50000 0.00000
O1 O 0.23640(19) 0.3503(2) -0.08211(12)
O2 O 0.39187(18) 0.4774(2) 0.15963(11)
O3 O 0.3059(2) 0.0839(2) 0.13459(13)
O4 O 0.2102(2) 0.0384(2) 0.29882(14)
O5 O 0.7648(2) 0.2755(3) 0.58104(15)
O6 O 0.9082(2) 0.5774(2) 0.60756(13)
O7 O 0.8008(2) 0.9430(2) 0.33160(16)
O8 O 0.5265(2) 0.8571(2) 0.23722(14)
N1 N -0.0343(3) 0.3717(3) -0.16753(17)
N2 N 0.2014(2) 0.6444(3) -0.08660(15)
N3 N 0.3704(3) 0.7187(3) -0.01231(17)
N4 N 0.3152(2) 0.1297(2) 0.23889(15)
N5 N 0.7964(2) 0.4312(3) 0.55265(15)
N6 N 0.6522(2) 0.8238(2) 0.29367(15)
C1 C 0.1371(3) 0.4517(3) -0.11113(17)
C2 C 0.0982(3) 0.7768(3) -0.1132(2)
H1 H 0.03480 0.73190 -0.19050
H2 H 0.18720 0.90360 -0.10820
H3 H 0.00330 0.78370 -0.05870
C3 C 0.4849(3) 0.4727(3) 0.25024(17)
C4 C 0.4604(3) 0.3011(3) 0.29583(17)
C5 C 0.5583(3) 0.2853(3) 0.39193(17)
H4 H 0.53370 0.16770 0.41810
C6 C 0.6937(3) 0.4456(3) 0.44952(17)
C7 C 0.7257(3) 0.6194(3) 0.41548(17)
H5 H 0.81850 0.72840 0.45690
C8 C 0.6210(3) 0.6327(3) 0.32047(17)
H6 H -0.062(3) 0.257(4) -0.197(2)
H7 H 0.343(4) 0.767(4) 0.052(3)
H8 H -0.101(4) 0.438(4) -0.189(3)
H9 H 0.442(4) 0.807(4) -0.042(2)
O1A O 0.76360(19) 0.6497(2) 0.08211(12)
O2A O 0.60813(18) 0.5226(2) -0.15963(11)
O3A O 0.6941(2) 0.9161(2) -0.13459(13)
O4A O 0.7898(2) 0.9616(2) -0.29882(14)
O5A O 0.2352(2) 0.7245(3) -0.58104(15)
O6A O 0.0918(2) 0.4226(2) -0.60756(13)
O7A O 0.1992(2) 0.0570(2) -0.33160(16)
O8A O 0.4735(2) 0.1429(2) -0.23722(14)
N1A N 1.0343(3) 0.6283(3) 0.16753(17)
N2A N 0.7986(2) 0.3556(3) 0.08660(15)
N3A N 0.6296(3) 0.2813(3) 0.01231(17)
N4A N 0.6848(2) 0.8703(2) -0.23889(15)
N5A N 0.2036(2) 0.5688(3) -0.55265(15)
N6A N 0.3478(2) 0.1762(2) -0.29367(15)
C1A C 0.8629(3) 0.5483(3) 0.11113(17)
C2A C 0.9018(3) 0.2232(3) 0.1132(2)
H1A H 0.96520 0.26810 0.19050
H2A H 0.81280 0.09640 0.10820
H3A H 0.99670 0.21630 0.05870
C3A C 0.5151(3) 0.5273(3) -0.25024(17)
C4A C 0.5396(3) 0.6989(3) -0.29583(17)
C5A C 0.4417(3) 0.7147(3) -0.39193(17)
H4A H 0.46630 0.83230 -0.41810
C6A C 0.3063(3) 0.5544(3) -0.44952(17)
C7A C 0.2743(3) 0.3806(3) -0.41548(17)
H5A H 0.18150 0.27160 -0.45690
C8A C 0.3790(3) 0.3673(3) -0.32047(17)
H6A H 1.062(3) 0.743(4) 0.197(2)
H7A H 0.657(4) 0.233(4) -0.052(3)
H8A H 1.101(4) 0.562(4) 0.189(3)
H9A H 0.558(4) 0.193(4) 0.042(2)
#END
