
#######################################################################
#
#                 Cambridge Crystallographic Data Centre
#                                CCDC
#
#######################################################################
#
# If this CIF has been generated from an entry in the Cambridge
# Structural Database, then it will include bibliographic, chemical,
# crystal, experimental, refinement or atomic coordinate data resulting
# from the CCDC's data processing and validation procedures.
#
#######################################################################

data_CSD_CIF_XIBBOC
_audit_creation_date 2018-04-10
_audit_creation_method CSD-ConQuest-V1
_database_code_CSD XIBBOC
_database_code_depnum_ccdc_archive 'CCDC 1534440'
_chemical_formula_sum 'C4 H14 Mn1 N8 O8'
_chemical_formula_moiety
;
C4 H14 Mn1 N8 O8
;
_journal_coden_Cambridge 1220
_journal_volume 24
_journal_year 2018
_journal_page_first 2687
_journal_name_full 'Chem.-Eur.J. '
loop_
_publ_author_name
"N.Szimhardt"
"J.Stierstorfer"
_chemical_name_systematic
;
bis(1-methylhydrazine-1-carboxamide)-bis(nitrato)-manganese(ii)
;
_chemical_name_common
;
bis(methylsemicarbazide)-bis(nitrato)-manganese(ii)
;
_cell_volume    338.454
_exptl_crystal_colour 'colorless'
_exptl_crystal_density_diffrn 1.752
_exptl_crystal_description 'block'
_diffrn_ambient_temperature 173
#These two values have been output from a single CSD field.
_refine_ls_R_factor_gt 0.0335
_refine_ls_wR_factor_gt 0.0335
_symmetry_cell_setting triclinic
_symmetry_space_group_name_H-M 'P -1'
_symmetry_Int_Tables_number 2
loop_
_symmetry_equiv_pos_site_id
_symmetry_equiv_pos_as_xyz
1 x,y,z
2 -x,-y,-z
_cell_length_a 6.0133(5)
_cell_length_b 7.6877(10)
_cell_length_c 7.7664(7)
_cell_angle_alpha 92.222(9)
_cell_angle_beta 101.938(8)
_cell_angle_gamma 104.538(10)
_cell_formula_units_Z 1
loop_
_atom_type_symbol
_atom_type_radius_bond
C 0.68
H 0.23
Mn 1.61
N 0.68
O 0.68
loop_
_atom_site_label
_atom_site_type_symbol
_atom_site_fract_x
_atom_site_fract_y
_atom_site_fract_z
Mn1 Mn 1.00000 0.00000 1.00000
O1 O 0.7713(3) 0.1876(2) 0.9635(2)
O2 O 1.0113(3) 0.3669(2) 0.8346(2)
O3 O 0.6597(3) 0.3978(2) 0.8212(2)
O4 O 0.9486(2) -0.0434(2) 0.71918(19)
N1 N 0.8170(3) 0.3191(3) 0.8724(2)
N2 N 0.6987(4) -0.1522(3) 0.4573(3)
N3 N 0.5826(3) -0.2179(3) 0.7170(2)
N4 N 0.6551(3) -0.2155(3) 0.9031(2)
C1 C 0.7497(4) -0.1361(3) 0.6332(3)
C2 C 0.3465(4) -0.3266(4) 0.6291(3)
H1 H 0.28000 -0.26380 0.53220
H2 H 0.24530 -0.34480 0.71450
H3 H 0.35600 -0.44390 0.58190
H4 H 0.568(5) -0.226(4) 0.397(3)
H5 H 0.803(4) -0.098(3) 0.404(3)
H6 H 0.664(4) -0.327(4) 0.923(3)
H7 H 0.532(5) -0.200(4) 0.944(4)
O1A O 1.2287(3) -0.1876(2) 1.0365(2)
O2A O 0.9887(3) -0.3669(2) 1.1654(2)
O3A O 1.3403(3) -0.3978(2) 1.1788(2)
O4A O 1.0514(2) 0.0434(2) 1.28082(19)
N1A N 1.1830(3) -0.3191(3) 1.1276(2)
N2A N 1.3013(4) 0.1522(3) 1.5427(3)
N3A N 1.4174(3) 0.2179(3) 1.2830(2)
N4A N 1.3449(3) 0.2155(3) 1.0969(2)
C1A C 1.2503(4) 0.1361(3) 1.3668(3)
C2A C 1.6535(4) 0.3266(4) 1.3709(3)
H1A H 1.72000 0.26380 1.46780
H2A H 1.75470 0.34480 1.28550
H3A H 1.64400 0.44390 1.41810
H4A H 1.432(5) 0.226(4) 1.603(3)
H5A H 1.197(4) 0.098(3) 1.596(3)
H6A H 1.336(4) 0.327(4) 1.077(3)
H7A H 1.468(5) 0.200(4) 1.056(4)
#END
