
#######################################################################
#
#                 Cambridge Crystallographic Data Centre
#                                CCDC
#
#######################################################################
#
# If this CIF has been generated from an entry in the Cambridge
# Structural Database, then it will include bibliographic, chemical,
# crystal, experimental, refinement or atomic coordinate data resulting
# from the CCDC's data processing and validation procedures.
#
#######################################################################

data_CSD_CIF_XIBCIX
_audit_creation_date 2018-04-10
_audit_creation_method CSD-ConQuest-V1
_database_code_CSD XIBCIX
_database_code_depnum_ccdc_archive 'CCDC 1534437'
_chemical_formula_sum 'C16 H18 Mn1 N12 O18'
_chemical_formula_moiety
;
C16 H18 Mn1 N12 O18
;
_journal_coden_Cambridge 1220
_journal_volume 24
_journal_year 2018
_journal_page_first 2687
_journal_name_full 'Chem.-Eur.J. '
loop_
_publ_author_name
"N.Szimhardt"
"J.Stierstorfer"
_chemical_name_systematic
;
bis(3-hydroxy-2,4,6-trinitrophenolato)-bis(1-methylhydrazine-1-carboxamide)-ma
nganese(ii)
;
_cell_volume    633.174
_exptl_crystal_colour 'yellow'
_exptl_crystal_density_diffrn 1.892
_exptl_crystal_description 'block'
_diffrn_ambient_temperature 123
#These two values have been output from a single CSD field.
_refine_ls_R_factor_gt 0.0387
_refine_ls_wR_factor_gt 0.0387
_symmetry_cell_setting triclinic
_symmetry_space_group_name_H-M 'P -1'
_symmetry_Int_Tables_number 2
loop_
_symmetry_equiv_pos_site_id
_symmetry_equiv_pos_as_xyz
1 x,y,z
2 -x,-y,-z
_cell_length_a 7.4180(5)
_cell_length_b 7.4770(5)
_cell_length_c 12.1030(8)
_cell_angle_alpha 92.578(5)
_cell_angle_beta 99.475(5)
_cell_angle_gamma 106.120(6)
_cell_formula_units_Z 1
loop_
_atom_type_symbol
_atom_type_radius_bond
C 0.68
H 0.23
Mn 1.61
N 0.68
O 0.68
loop_
_atom_site_label
_atom_site_type_symbol
_atom_site_fract_x
_atom_site_fract_y
_atom_site_fract_z
Mn1 Mn 0.50000 0.50000 0.00000
O1 O 0.3565(2) 0.2263(2) -0.08341(13)
O2 O 0.4712(2) 0.3932(2) 0.16414(13)
O3 O 0.8537(2) 0.5382(2) 0.22296(14)
O4 O 0.9469(3) 0.8066(2) 0.32012(16)
O5 O 0.6140(3) 0.9251(2) 0.60187(14)
O6 O 0.3145(3) 0.7836(2) 0.59226(15)
O7 O 0.1306(3) 0.5324(3) 0.43628(15)
O8 O 0.0417(3) 0.2138(2) 0.30181(15)
O9 O 0.0826(2) 0.3219(2) 0.14239(13)
N1 N 0.3726(4) -0.0442(3) -0.16373(18)
N2 N 0.6495(3) 0.1902(3) -0.08917(17)
N3 N 0.7286(3) 0.3590(3) -0.0184(2)
N4 N 0.8254(3) 0.6595(3) 0.28387(16)
N5 N 0.4654(3) 0.8095(3) 0.55407(16)
N6 N 0.1314(3) 0.3254(3) 0.24528(17)
C1 C 0.4561(3) 0.1276(3) -0.11105(18)
C2 C 0.7783(4) 0.0827(3) -0.1130(2)
H1 H 0.78420 -0.00640 -0.05650
H2 H 0.90620 0.16790 -0.11040
H3 H 0.73080 0.01450 -0.18790
C3 C 0.4734(3) 0.4882(3) 0.25367(19)
C4 C 0.6393(3) 0.6256(3) 0.31794(19)
C5 C 0.6341(3) 0.7300(3) 0.41218(19)
H4 H 0.74640 0.82200 0.44980
C6 C 0.4643(4) 0.7021(3) 0.45355(19)
C7 C 0.2956(3) 0.5659(3) 0.39903(19)
C8 C 0.3058(3) 0.4661(3) 0.30173(19)
H5 H 0.817(4) 0.432(4) -0.053(2)
H6 H 0.258(5) -0.083(5) -0.192(3)
H7 H 0.443(5) -0.107(4) -0.180(2)
H8 H 0.784(4) 0.338(4) 0.043(3)
H9 H 0.178(7) 0.646(7) 0.513(4)
O1A O 0.6435(2) 0.7737(2) 0.08341(13)
O2A O 0.5288(2) 0.6068(2) -0.16414(13)
O3A O 0.1463(2) 0.4618(2) -0.22296(14)
O4A O 0.0531(3) 0.1934(2) -0.32012(16)
O5A O 0.3860(3) 0.0749(2) -0.60187(14)
O6A O 0.6855(3) 0.2164(2) -0.59226(15)
O7A O 0.8694(3) 0.4676(3) -0.43628(15)
O8A O 0.9583(3) 0.7862(2) -0.30181(15)
O9A O 0.9174(2) 0.6781(2) -0.14239(13)
N1A N 0.6274(4) 1.0442(3) 0.16373(18)
N2A N 0.3505(3) 0.8098(3) 0.08917(17)
N3A N 0.2714(3) 0.6410(3) 0.0184(2)
N4A N 0.1746(3) 0.3405(3) -0.28387(16)
N5A N 0.5346(3) 0.1905(3) -0.55407(16)
N6A N 0.8686(3) 0.6746(3) -0.24528(17)
C1A C 0.5439(3) 0.8724(3) 0.11105(18)
C2A C 0.2217(4) 0.9173(3) 0.1130(2)
H1A H 0.21580 1.00640 0.05650
H2A H 0.09380 0.83210 0.11040
H3A H 0.26920 0.98550 0.18790
C3A C 0.5266(3) 0.5118(3) -0.25367(19)
C4A C 0.3607(3) 0.3744(3) -0.31794(19)
C5A C 0.3659(3) 0.2700(3) -0.41218(19)
H4A H 0.25360 0.17800 -0.44980
C6A C 0.5357(4) 0.2979(3) -0.45355(19)
C7A C 0.7044(3) 0.4341(3) -0.39903(19)
C8A C 0.6942(3) 0.5339(3) -0.30173(19)
H5A H 0.183(4) 0.568(4) 0.053(2)
H6A H 0.742(5) 1.083(5) 0.192(3)
H7A H 0.557(5) 1.107(4) 0.180(2)
H8A H 0.216(4) 0.662(4) -0.043(3)
H9A H 0.822(7) 0.354(7) -0.513(4)
#END
