
#######################################################################
#
#                 Cambridge Crystallographic Data Centre
#                                CCDC
#
#######################################################################
#
# If this CIF has been generated from an entry in the Cambridge
# Structural Database, then it will include bibliographic, chemical,
# crystal, experimental, refinement or atomic coordinate data resulting
# from the CCDC's data processing and validation procedures.
#
#######################################################################

data_CSD_CIF_XIBCOD
_audit_creation_date 2018-04-10
_audit_creation_method CSD-ConQuest-V1
_database_code_CSD XIBCOD
_database_code_depnum_ccdc_archive 'CCDC 1574511'
_chemical_formula_sum 'C16 H18 Mn1 N12 O16'
_chemical_formula_moiety
;
C16 H18 Mn1 N12 O16
;
_journal_coden_Cambridge 1220
_journal_volume 24
_journal_year 2018
_journal_page_first 2687
_journal_name_full 'Chem.-Eur.J. '
loop_
_publ_author_name
"N.Szimhardt"
"J.Stierstorfer"
_chemical_name_systematic
;
bis(1-methylhydrazine-1-carboxamide)-bis(2,4,6-trinitrophenolato)-manganese(ii
)
;
_chemical_name_common
;
bis(methylsemicarbazide)-bis(picryl)-manganese(ii)
;
_cell_volume    627.368
_exptl_crystal_colour 'yellow'
_exptl_crystal_density_diffrn 1.825
_exptl_crystal_description 'block'
_diffrn_ambient_temperature 143
#These two values have been output from a single CSD field.
_refine_ls_R_factor_gt 0.0763
_refine_ls_wR_factor_gt 0.0763
_symmetry_cell_setting triclinic
_symmetry_space_group_name_H-M 'P -1'
_symmetry_Int_Tables_number 2
loop_
_symmetry_equiv_pos_site_id
_symmetry_equiv_pos_as_xyz
1 x,y,z
2 -x,-y,-z
_cell_length_a 7.433(2)
_cell_length_b 7.446(2)
_cell_length_c 12.0324(15)
_cell_angle_alpha 99.826(18)
_cell_angle_beta 91.183(16)
_cell_angle_gamma 106.53(2)
_cell_formula_units_Z 1
loop_
_atom_type_symbol
_atom_type_radius_bond
C 0.68
H 0.23
Mn 1.61
N 0.68
O 0.68
loop_
_atom_site_label
_atom_site_type_symbol
_atom_site_fract_x
_atom_site_fract_y
_atom_site_fract_z
Mn1 Mn 0.00000 1.00000 0.00000
O1 O 0.2755(4) 1.1431(4) 0.0840(3)
O2 O -0.1102(4) 0.9729(4) 0.1647(2)
O3 O -0.2852(4) 0.5332(4) 0.3044(3)
O4 O -0.1901(5) 0.5823(4) 0.1398(3)
O5 O 0.2653(5) 0.7830(5) 0.5818(3)
O6 O 0.4087(4) 1.0846(5) 0.6049(3)
O7 O 0.2950(5) 1.4446(5) 0.3331(3)
O8 O 0.0320(5) 1.3518(4) 0.2337(3)
N1 N 0.5401(6) 1.1242(6) 0.1705(3)
N2 N 0.3069(5) 0.8504(5) 0.0890(3)
N3 N 0.1413(5) 0.7733(5) 0.0160(3)
N4 N -0.1810(5) 0.6260(5) 0.2438(3)
N5 N 0.2968(5) 0.9354(6) 0.5519(3)
N6 N 0.1520(5) 1.3210(5) 0.2931(3)
C1 C 0.3712(6) 1.0430(6) 0.1138(3)
C2 C 0.4085(7) 0.7190(7) 0.1157(4)
H1 H 0.49340 0.70080 0.05630
H2 H 0.31820 0.59600 0.12010
H3 H 0.48190 0.77230 0.18850
C3 C -0.0147(6) 0.9697(6) 0.2529(3)
C4 C -0.0386(6) 0.7996(6) 0.2989(4)
C5 C 0.0588(6) 0.7857(6) 0.3938(4)
H4 H 0.03360 0.66890 0.42080
C6 C 0.1947(6) 0.9467(6) 0.4488(4)
C7 C 0.2249(6) 1.1193(6) 0.4152(4)
H5 H 0.31580 1.22940 0.45590
C8 C 0.1203(6) 1.1306(6) 0.3207(4)
H6 H 0.628(10) 1.073(9) 0.182(7)
H7 H 0.549(8) 1.250(8) 0.209(6)
H8 H 0.171(6) 0.720(6) -0.056(3)
H9 H 0.055(7) 0.676(7) 0.048(5)
O1A O -0.2755(4) 0.8569(4) -0.0840(3)
O2A O 0.1102(4) 1.0271(4) -0.1647(2)
O3A O 0.2852(4) 1.4668(4) -0.3044(3)
O4A O 0.1901(5) 1.4177(4) -0.1398(3)
O5A O -0.2653(5) 1.2170(5) -0.5818(3)
O6A O -0.4087(4) 0.9154(5) -0.6049(3)
O7A O -0.2950(5) 0.5554(5) -0.3331(3)
O8A O -0.0320(5) 0.6482(4) -0.2337(3)
N1A N -0.5401(6) 0.8758(6) -0.1705(3)
N2A N -0.3069(5) 1.1496(5) -0.0890(3)
N3A N -0.1413(5) 1.2267(5) -0.0160(3)
N4A N 0.1810(5) 1.3740(5) -0.2438(3)
N5A N -0.2968(5) 1.0646(6) -0.5519(3)
N6A N -0.1520(5) 0.6790(5) -0.2931(3)
C1A C -0.3712(6) 0.9570(6) -0.1138(3)
C2A C -0.4085(7) 1.2810(7) -0.1157(4)
H1A H -0.49340 1.29920 -0.05630
H2A H -0.31820 1.40400 -0.12010
H3A H -0.48190 1.22770 -0.18850
C3A C 0.0147(6) 1.0303(6) -0.2529(3)
C4A C 0.0386(6) 1.2004(6) -0.2989(4)
C5A C -0.0588(6) 1.2143(6) -0.3938(4)
H4A H -0.03360 1.33110 -0.42080
C6A C -0.1947(6) 1.0533(6) -0.4488(4)
C7A C -0.2249(6) 0.8807(6) -0.4152(4)
H5A H -0.31580 0.77060 -0.45590
C8A C -0.1203(6) 0.8694(6) -0.3207(4)
H6A H -0.628(10) 0.927(9) -0.182(7)
H7A H -0.549(8) 0.750(8) -0.209(6)
H8A H -0.171(6) 1.280(6) 0.056(3)
H9A H -0.055(7) 1.324(7) -0.048(5)
#END
