
#######################################################################
#
#                 Cambridge Crystallographic Data Centre
#                                CCDC
#
#######################################################################
#
# If this CIF has been generated from an entry in the Cambridge
# Structural Database, then it will include bibliographic, chemical,
# crystal, experimental, refinement or atomic coordinate data resulting
# from the CCDC's data processing and validation procedures.
#
#######################################################################

data_CSD_CIF_XIBTEK
_audit_creation_date 2018-04-10
_audit_creation_method CSD-ConQuest-V1
_database_code_CSD XIBTEK
_database_code_depnum_ccdc_archive 'CCDC 1585613'
_chemical_formula_sum 'C15 H20 Fe1 N2 O4'
_chemical_formula_moiety
;
C15 H20 Fe1 N2 O4
;
_journal_coden_Cambridge 1220
_journal_volume 24
_journal_year 2018
_journal_page_first 2873
_journal_name_full 'Chem.-Eur.J. '
loop_
_publ_author_name
"D.Mandel"
"L.Klemmer"
"A.Maiti"
"D.Dhara"
"V.Huch"
"M.Zimmer"
"H.S.Rzepa"
"D.Scheschkewitz"
"Anukul Jana"
_chemical_name_systematic
;
tetracarbonyl-(1,3-di-isopropyl-4,5-tetramethyl-2,3-dihydro-1H-imidazol-2-ylid
ene)-iron
;
_cell_volume    828.350
_exptl_crystal_colour 'yellow'
_exptl_crystal_density_diffrn 1.396
_exptl_special_details
;
Air-sensitive,Moisture-sensitive

;
_exptl_crystal_description 'block'
_diffrn_ambient_temperature 172
#These two values have been output from a single CSD field.
_refine_ls_R_factor_gt 0.0279
_refine_ls_wR_factor_gt 0.0279
_symmetry_cell_setting triclinic
_symmetry_space_group_name_H-M 'P -1'
_symmetry_Int_Tables_number 2
loop_
_symmetry_equiv_pos_site_id
_symmetry_equiv_pos_as_xyz
1 x,y,z
2 -x,-y,-z
_cell_length_a 8.5379(6)
_cell_length_b 9.5006(7)
_cell_length_c 12.0441(8)
_cell_angle_alpha 105.157(2)
_cell_angle_beta 99.489(2)
_cell_angle_gamma 112.942(2)
_cell_formula_units_Z 2
loop_
_atom_type_symbol
_atom_type_radius_bond
C 0.68
H 0.23
Fe 1.52
N 0.68
O 0.68
loop_
_atom_site_label
_atom_site_type_symbol
_atom_site_fract_x
_atom_site_fract_y
_atom_site_fract_z
Fe1 Fe 0.57236(2) 0.22839(2) 0.23973(2)
N1 N 0.35043(12) 0.40852(11) 0.20319(8)
N2 N 0.60323(12) 0.57438(11) 0.33951(8)
O1 O 0.78994(16) 0.33171(16) 0.48944(10)
O2 O 0.68822(18) 0.31991(16) 0.04161(12)
O3 O 0.22121(13) -0.01370(12) 0.22959(10)
O4 O 0.67398(19) -0.03598(16) 0.17883(14)
C1 C 0.50652(14) 0.41608(13) 0.26205(9)
C2 C 0.34757(15) 0.55853(13) 0.2474(1)
C3 C 0.50559(15) 0.66238(13) 0.33274(10)
C4 C 0.21526(14) 0.26701(13) 0.09583(9)
C5 C 0.2118(2) 0.31002(17) -0.01780(11)
C6 C 0.03335(17) 0.19596(17) 0.11544(13)
C7 C 0.1941(2) 0.59182(18) 0.21000(13)
C8 C 0.56388(19) 0.83540(15) 0.41164(12)
C9 C 0.79411(14) 0.64769(14) 0.40832(9)
C10 C 0.91037(18) 0.77651(18) 0.36409(14)
C11 C 0.8257(2) 0.7099(2) 0.54417(11)
C12 C 0.70784(16) 0.30041(16) 0.39272(12)
C13 C 0.64270(17) 0.28454(16) 0.11908(12)
C14 C 0.35394(16) 0.08400(14) 0.23067(10)
C15 C 0.63326(19) 0.06743(17) 0.20226(13)
H1 H 0.2608(18) 0.1824(17) 0.0839(12)
H2 H 0.329(3) 0.352(3) -0.0232(18)
H3 H 0.135(2) 0.213(2) -0.0846(15)
H4 H 0.172(3) 0.399(2) -0.0156(17)
H5 H 0.030(3) 0.156(3) 0.170(2)
H6 H -0.038(3) 0.100(3) 0.0526(19)
H7 H -0.012(3) 0.270(2) 0.1221(17)
H8 H 0.107(3) 0.544(3) 0.2348(19)
H9 H 0.143(3) 0.557(2) 0.1177(18)
H10 H 0.223(3) 0.696(3) 0.239(2)
H11 H 0.578(3) 0.844(3) 0.499(2)
H12 H 0.475(3) 0.873(2) 0.3872(17)
H13 H 0.681(3) 0.918(3) 0.407(2)
H14 H 0.8262(19) 0.5618(18) 0.3865(13)
H15 H 1.030(3) 0.801(3) 0.4021(19)
H16 H 0.890(3) 0.867(2) 0.3806(17)
H17 H 0.888(4) 0.723(4) 0.262(2)
H18 H 0.750(3) 0.635(3) 0.566(2)
H19 H 0.944(4) 0.730(3) 0.590(2)
H20 H 0.817(3) 0.808(3) 0.578(2)
#END
