
#######################################################################
#
#                 Cambridge Crystallographic Data Centre
#                                CCDC
#
#######################################################################
#
# If this CIF has been generated from an entry in the Cambridge
# Structural Database, then it will include bibliographic, chemical,
# crystal, experimental, refinement or atomic coordinate data resulting
# from the CCDC's data processing and validation procedures.
#
#######################################################################

data_CSD_CIF_XIFNUX
_audit_creation_date 2013-05-21
_audit_creation_method CSD-ConQuest-V1
_database_code_CSD XIFNUX
_database_code_depnum_ccdc_archive 'CCDC 890438'
_chemical_formula_sum 'C16 H20 Mn1 N8 O6'
_chemical_formula_moiety
;
(C16 H20 Mn1 N8 O6)n
;
_journal_coden_Cambridge 222
_journal_volume 42
_journal_year 2013
_journal_page_first 4533
_journal_name_full 'Dalton Trans. '
loop_
_publ_author_name
"Kun Wang"
"Yan-Qin Wang"
"Xiu-Mei Zhang"
"En-Qing Gao"
_chemical_name_systematic
;
catena-((\m~2~-1,4-bis(4-Carboxylatopyridinium)butane)-diaqua-diazido-manganes
e(ii))
;
_cell_volume    495.662
_exptl_crystal_colour 'yellow'
_exptl_crystal_density_diffrn 1.592
_exptl_crystal_description 'prismatic'
_diffrn_ambient_temperature 296
#These two values have been output from a single CSD field.
_refine_ls_R_factor_gt 0.0254
_refine_ls_wR_factor_gt 0.0254
_symmetry_cell_setting triclinic
_symmetry_space_group_name_H-M 'P -1'
_symmetry_Int_Tables_number 2
loop_
_symmetry_equiv_pos_site_id
_symmetry_equiv_pos_as_xyz
1 x,y,z
2 -x,-y,-z
_cell_length_a 5.4755(4)
_cell_length_b 9.7344(7)
_cell_length_c 10.4118(7)
_cell_angle_alpha 66.600(2)
_cell_angle_beta 76.852(2)
_cell_angle_gamma 83.026(2)
_cell_formula_units_Z 1
loop_
_atom_type_symbol
_atom_type_radius_bond
C 0.68
H 0.23
Mn 1.61
N 0.68
O 0.68
loop_
_atom_site_label
_atom_site_type_symbol
_atom_site_fract_x
_atom_site_fract_y
_atom_site_fract_z
Mn1 Mn 0.50000 0.00000 0.50000
O1 O 0.7089(2) 0.09175(16) 0.28603(12)
O2 O 0.4654(2) 0.06270(17) 0.15319(14)
O3 O 0.2407(2) -0.09509(14) 0.42463(13)
H1 H 0.26640 -0.04050 0.33220
H2 H 0.07920 -0.11990 0.46060
N1 N 0.7500(3) -0.20759(18) 0.54345(17)
N2 N 0.7392(3) -0.30920(18) 0.65557(18)
N3 N 0.7296(5) -0.4097(2) 0.7641(2)
N4 N 1.2247(2) 0.30549(14) -0.19153(14)
C1 C 0.6521(3) 0.10871(18) 0.17040(17)
C2 C 0.8439(3) 0.18910(17) 0.03782(16)
C3 C 1.0149(3) 0.28143(19) 0.04033(17)
H3 H 1.00210 0.30390 0.12050
C4 C 1.2035(3) 0.33950(19) -0.07625(18)
H4 H 1.31710 0.40270 -0.07540
C5 C 1.0550(3) 0.22123(18) -0.19893(16)
H5 H 1.06880 0.20270 -0.28130
C6 C 0.8615(3) 0.16245(18) -0.08549(17)
H6 H 0.74330 0.10520 -0.09120
C7 C 1.4442(3) 0.35429(19) -0.31076(17)
H7 H 1.50950 0.27050 -0.33800
H8 H 1.57490 0.38260 -0.27770
C8 C 1.3836(3) 0.48402(19) -0.44001(17)
H9 H 1.33420 0.57190 -0.41680
H10 H 1.24540 0.45990 -0.47050
O1A O 2.2911(2) 0.90825(16) -1.28603(12)
O2A O 2.5346(2) 0.93730(17) -1.15319(14)
N4A N 1.7753(2) 0.69451(14) -0.80847(14)
C1A C 2.3479(3) 0.89129(18) -1.17040(17)
C2A C 2.1561(3) 0.81090(17) -1.03782(16)
C3A C 1.9851(3) 0.71857(19) -1.04033(17)
H3A H 1.99790 0.69610 -1.12050
C4A C 1.7965(3) 0.66050(19) -0.92375(18)
H4A H 1.68290 0.59730 -0.92460
C5A C 1.9450(3) 0.77877(18) -0.80107(16)
H5A H 1.93120 0.79730 -0.71870
C6A C 2.1385(3) 0.83755(18) -0.91451(17)
H6A H 2.25670 0.89480 -0.90880
C7A C 1.5558(3) 0.64571(19) -0.68924(17)
H7A H 1.49050 0.72950 -0.66200
H8A H 1.42510 0.61740 -0.72230
C8A C 1.6164(3) 0.51598(19) -0.55999(17)
H9A H 1.66580 0.42810 -0.58320
H10A H 1.75460 0.54010 -0.52950
O3A O 0.7593(2) 0.09509(14) 0.57537(13)
H1A H 0.73360 0.04050 0.66780
H2A H 0.92080 0.11990 0.53940
N1A N 0.2500(3) 0.20759(18) 0.45655(17)
N2A N 0.2608(3) 0.30920(18) 0.34443(18)
N3A N 0.2704(5) 0.4097(2) 0.2359(2)
Mn1* Mn 2.50000 1.00000 -1.50000
O1A* O 0.2911(2) -0.09175(16) 0.71397(12)
#END
