
#######################################################################
#
#                 Cambridge Crystallographic Data Centre
#                                CCDC
#
#######################################################################
#
# If this CIF has been generated from an entry in the Cambridge
# Structural Database, then it will include bibliographic, chemical,
# crystal, experimental, refinement or atomic coordinate data resulting
# from the CCDC's data processing and validation procedures.
#
#######################################################################

data_CSD_CIF_XIKKAE
_audit_creation_date 2007-11-23
_audit_creation_method CSD-ConQuest-V1
_database_code_CSD XIKKAE
_database_code_depnum_ccdc_archive 'CCDC 642178'
_chemical_formula_sum 'C18 H28 B1 Cr1 N1 Si2'
_chemical_formula_moiety
;
C18 H28 B1 Cr1 N1 Si2
;
_journal_coden_Cambridge 4
_journal_volume 129
_journal_year 2007
_journal_page_first 8893
_journal_name_full 'J.Am.Chem.Soc. '
loop_
_publ_author_name
"H.Braunschweig"
"T.Kupfer"
"M.Lutz"
"K.Radacki"
_chemical_name_systematic
;
(\h^7^,\h^5^-Cycloheptatrienyl(cyclopentadienyl)(bis(trimethylsilyl)imino)bora
te)-chromium
;
_chemical_name_common
;
(Trochrocene-1,1'-diyl)(bis(trimethylsilyl)imino)borate
;
_cell_volume    946.525
_exptl_crystal_colour 'brown'
_exptl_crystal_density_diffrn 1.324
_exptl_crystal_description 'plate'
_exptl_crystal_preparation 'hexane'
_diffrn_ambient_temperature 100
#These two values have been output from a single CSD field.
_refine_ls_R_factor_gt 0.0417
_refine_ls_wR_factor_gt 0.0417
_symmetry_cell_setting triclinic
_symmetry_space_group_name_H-M 'P -1'
_symmetry_Int_Tables_number 2
loop_
_symmetry_equiv_pos_site_id
_symmetry_equiv_pos_as_xyz
1 x,y,z
2 -x,-y,-z
_cell_length_a 6.4925(3)
_cell_length_b 9.8498(4)
_cell_length_c 15.5959(7)
_cell_angle_alpha 104.538(2)
_cell_angle_beta 99.734(2)
_cell_angle_gamma 93.165(2)
_cell_formula_units_Z 2
loop_
_atom_type_symbol
_atom_type_radius_bond
C 0.68
H 0.23
B 0.83
Cr 1.35
N 0.68
Si 1.20
loop_
_atom_site_label
_atom_site_type_symbol
_atom_site_fract_x
_atom_site_fract_y
_atom_site_fract_z
Cr1 Cr 0.46511(7) 0.35744(5) 0.63305(3)
B1 B 0.3274(5) 0.2226(3) 0.7484(2)
N1 N 0.2468(3) 0.1521(2) 0.80494(15)
Si1 Si 0.23462(12) -0.03678(8) 0.76996(5)
Si2 Si 0.19312(12) 0.24438(8) 0.91117(5)
C1 C 0.4155(4) 0.1559(3) 0.65670(18)
C2 C 0.6316(4) 0.1803(3) 0.65142(18)
H1 H 0.74480 0.18630 0.69800
C3 C 0.6469(5) 0.1941(3) 0.56451(18)
H2 H 0.77050 0.21210 0.54480
C4 C 0.4419(4) 0.1757(3) 0.51303(18)
H3 H 0.40620 0.17920 0.45340
C5 C 0.3001(5) 0.1508(3) 0.56843(18)
H4 H 0.15490 0.13390 0.55060
C6 C 0.3520(4) 0.3886(3) 0.75212(18)
C7 C 0.5635(5) 0.4523(3) 0.77405(18)
H5 H 0.64300 0.43920 0.82630
C8 C 0.6711(5) 0.5324(3) 0.72851(19)
H6 H 0.81090 0.56300 0.75480
C9 C 0.5972(5) 0.5723(3) 0.6493(2)
H7 H 0.69750 0.61650 0.62650
C10 C 0.3900(5) 0.5537(3) 0.6002(2)
H8 H 0.36940 0.58630 0.54870
C11 C 0.2113(5) 0.4915(3) 0.6206(2)
H9 H 0.08490 0.49870 0.58460
C12 C 0.1926(5) 0.4197(3) 0.68707(19)
H10 H 0.05610 0.38790 0.68860
C13 C 0.1072(5) -0.1245(3) 0.8440(2)
H11 H 0.18450 -0.09300 0.90470
H12 H 0.10610 -0.22480 0.82260
H13 H -0.03450 -0.10050 0.84240
C14 C 0.5060(4) -0.0878(3) 0.7755(2)
H14 H 0.57620 -0.04450 0.73820
H15 H 0.50150 -0.18850 0.75450
H16 H 0.58090 -0.05700 0.83670
C15 C 0.0731(5) -0.1050(3) 0.65466(19)
H17 H 0.13160 -0.06330 0.61360
H18 H -0.06820 -0.08140 0.65530
H19 H 0.07270 -0.20560 0.63560
C16 C 0.2175(5) 0.4392(3) 0.93014(19)
H20 H 0.35680 0.47120 0.92590
H21 H 0.19100 0.48290 0.98900
H22 H 0.11720 0.46400 0.88530
C17 C -0.0820(4) 0.1934(3) 0.92090(19)
H23 H -0.17870 0.21490 0.87350
H24 H -0.10820 0.24490 0.97830
H25 H -0.10030 0.09410 0.91580
C18 C 0.3831(5) 0.2033(3) 1.00263(19)
H26 H 0.52380 0.22980 0.99710
H27 H 0.36560 0.10400 0.99770
H28 H 0.35780 0.25480 1.06020
#END
