
#######################################################################
#
#                 Cambridge Crystallographic Data Centre
#                                CCDC
#
#######################################################################
#
# If this CIF has been generated from an entry in the Cambridge
# Structural Database, then it will include bibliographic, chemical,
# crystal, experimental, refinement or atomic coordinate data resulting
# from the CCDC's data processing and validation procedures.
#
#######################################################################

data_CSD_CIF_XIRMOB
_audit_creation_date 2008-02-21
_audit_creation_method CSD-ConQuest-V1
_database_code_CSD XIRMOB
_database_code_depnum_ccdc_archive 'CCDC 674059'
_chemical_formula_sum 'C6 H18 Cl2 Mn1 N2 O4'
_chemical_formula_moiety
;
C6 H18 Cl2 Mn1 N2 O4
;
_journal_coeditor_code "IUCr CV2357"
_journal_coden_Cambridge 1370
_journal_volume 63
_journal_year 2007
_journal_page_first m3095
_journal_name_full 'Acta Crystallogr.,Sect.E:Struct.Rep.Online '
loop_
_publ_author_name
"I.M.Sluch"
"L.M.Slaughter"
_chemical_name_systematic
;
trans-Diaqua-dichlorido-bis(N,N-dimethylformamide-O)-manganese(ii)
;
_chemical_melting_point 362
_cell_volume    320.992
_exptl_crystal_colour 'light pink'
_exptl_crystal_density_diffrn 1.594
_exptl_special_details
;
Melting point range 362-364K

;
_exptl_crystal_description 'block'
_exptl_crystal_preparation 'dmf/hexanes'
_diffrn_ambient_temperature 298
#These two values have been output from a single CSD field.
_refine_ls_R_factor_gt 0.017
_refine_ls_wR_factor_gt 0.017
_symmetry_cell_setting triclinic
_symmetry_space_group_name_H-M 'P -1'
_symmetry_Int_Tables_number 2
loop_
_symmetry_equiv_pos_site_id
_symmetry_equiv_pos_as_xyz
1 x,y,z
2 -x,-y,-z
_cell_length_a 6.1224(1)
_cell_length_b 6.8021(1)
_cell_length_c 8.7056(1)
_cell_angle_alpha 110.539(1)
_cell_angle_beta 105.431(1)
_cell_angle_gamma 94.732(1)
_cell_formula_units_Z 1
loop_
_atom_type_symbol
_atom_type_radius_bond
C 0.68
H 0.23
Cl 0.99
Mn 1.35
N 0.68
O 0.68
loop_
_atom_site_label
_atom_site_type_symbol
_atom_site_fract_x
_atom_site_fract_y
_atom_site_fract_z
Mn1 Mn 0.50000 0.50000 0.50000
Cl1 Cl 0.73368(3) 0.20741(3) 0.43902(2)
O1 O 0.72383(10) 0.71285(10) 0.43607(9)
H1 H 0.8667(15) 0.729(2) 0.4685(17)
H2 H 0.691(2) 0.8319(16) 0.4380(17)
O2 O 0.71479(10) 0.63553(10) 0.77117(7)
C1 C 0.92887(12) 0.66040(12) 0.82274(9)
H3 H 1.00430 0.61940 0.74020
N1 N 1.05599(11) 0.74139(10) 0.98734(8)
C2 C 0.94941(19) 0.80913(15) 1.12328(10)
H4? H 0.81880 0.86970 1.08680
H5? H 1.05970 0.91450 1.22640
H6? H 0.89940 0.68790 1.14630
H7 H 1.03320 0.77830 1.21960
H8 H 0.79220 0.73360 1.08000
H9 H 0.95250 0.96020 1.16000
C3 C 1.30653(16) 0.76926(19) 1.03786(14)
H10 H 1.35370 0.72070 0.93620
H11 H 1.35730 0.68750 1.10620
H12 H 1.37390 0.91790 1.10450
Cl1A Cl 0.26632(3) 0.79259(3) 0.56098(2)
O1A O 0.27617(10) 0.28715(10) 0.56393(9)
H1A H 0.1333(15) 0.271(2) 0.5315(17)
H2A H 0.309(2) 0.1681(16) 0.5620(17)
O2A O 0.28521(10) 0.36447(10) 0.22883(7)
C1A C 0.07113(12) 0.33960(12) 0.17726(9)
H3A H -0.00430 0.38060 0.25980
N1A N -0.05599(11) 0.25861(10) 0.01266(8)
C2A C 0.05059(19) 0.19087(15) -0.12328(10)
H7A H -0.03320 0.22170 -0.21960
H8A H 0.20780 0.26640 -0.08000
H9A H 0.04750 0.03980 -0.16000
C3A C -0.30653(16) 0.23074(19) -0.03786(14)
H10A H -0.35370 0.27930 0.06380
H11A H -0.35730 0.31250 -0.10620
H12A H -0.37390 0.08210 -0.10450
#END
