
#######################################################################
#
#                 Cambridge Crystallographic Data Centre
#                                CCDC
#
#######################################################################
#
# If this CIF has been generated from an entry in the Cambridge
# Structural Database, then it will include bibliographic, chemical,
# crystal, experimental, refinement or atomic coordinate data resulting
# from the CCDC's data processing and validation procedures.
#
#######################################################################

data_CSD_CIF_XIWBEK
_audit_creation_date 2002-06-28
_audit_creation_method CSD-ConQuest-V1
_database_code_CSD XIWBEK
_database_code_depnum_ccdc_archive 'CCDC 143281'
_chemical_formula_sum 'C8 H22 Cl1 Cr1 N4 O6'
_chemical_formula_moiety
;
C8 H18 Cr1 N4 O4 1+,Cl1 1-,2(H2 O1)
;
_journal_coden_Cambridge 211
_journal_volume 55
_journal_year 2002
_journal_page_first 619
_journal_name_full 'J.Coord.Chem. '
loop_
_publ_author_name
"S.S.Massoud"
"Hyungphil Chun"
"I.Bernal"
_chemical_name_systematic
;
cis-\b-Oxalato-(1,8-diamino-3,6-diazaoctane)-chromium(iii) chloride dihydrate
;
_cell_volume    741.335
_exptl_crystal_colour 'reddish brown'
_exptl_crystal_density_diffrn 1.603
_exptl_crystal_description 'rod'
_diffrn_ambient_temperature 293
#These two values have been output from a single CSD field.
_refine_ls_R_factor_gt 0.0338
_refine_ls_wR_factor_gt 0.0338
_symmetry_cell_setting monoclinic
_symmetry_space_group_name_H-M 'P n'
_symmetry_Int_Tables_number 7
loop_
_symmetry_equiv_pos_site_id
_symmetry_equiv_pos_as_xyz
1 x,y,z
2 1/2+x,-y,1/2+z
_cell_length_a 7.193(2)
_cell_length_b 9.1545(12)
_cell_length_c 11.4687(15)
_cell_angle_alpha 90
_cell_angle_beta 100.994(13)
_cell_angle_gamma 90
_cell_formula_units_Z 2
loop_
_atom_type_symbol
_atom_type_radius_bond
C 0.68
H 0.23
Cl 0.99
Cr 1.35
N 0.68
O 0.68
loop_
_atom_site_label
_atom_site_type_symbol
_atom_site_fract_x
_atom_site_fract_y
_atom_site_fract_z
Cr1 Cr 0.46716(6) 0.72380(7) 0.80984(5)
Cl1 Cl 0.1891(2) 0.61250(14) 1.09812(10)
O1 O 0.7211(4) 0.7274(3) 0.7724(3)
O2 O 0.3920(4) 0.7693(4) 0.6410(3)
O3 O 0.8698(4) 0.7697(4) 0.6215(3)
O4 O 0.5092(5) 0.7870(4) 0.4749(3)
N1 N 0.1886(5) 0.7498(4) 0.8315(4)
H1 H 0.1105(5) 0.7402(4) 0.7606(4)
H2 H 0.1599(5) 0.6793(4) 0.8797(4)
N2 N 0.4916(5) 0.9361(4) 0.8753(3)
H3 H 0.5675(5) 0.9876(4) 0.8351(3)
N3 N 0.5749(5) 0.6756(4) 0.9851(3)
H4 H 0.4760(5) 0.6685(4) 1.0239(3)
N4 N 0.4538(6) 0.4966(4) 0.7976(4)
H5 H 0.3327(6) 0.4687(4) 0.7730(4)
H6 H 0.5209(6) 0.4660(4) 0.7435(4)
C1 C 0.7283(6) 0.7551(4) 0.6637(4)
C2 C 0.5279(6) 0.7712(5) 0.5826(4)
C3 C 0.1582(6) 0.8938(5) 0.8822(4)
H7 H 0.1737(6) 0.8862(5) 0.9679(4)
H8 H 0.0304(6) 0.9272(5) 0.8511(4)
C4 C 0.2994(7) 1.0017(5) 0.8504(4)
H9 H 0.2652(7) 1.0270(5) 0.7669(4)
H10 H 0.2982(7) 1.0904(5) 0.8966(4)
C5 C 0.5796(7) 0.9367(5) 1.0050(4)
H11 H 0.6614(7) 1.0211(5) 1.0231(4)
H12 H 0.4813(7) 0.9427(5) 1.0522(4)
C6 C 0.6922(7) 0.7999(5) 1.0352(4)
H13 H 0.8067(7) 0.8036(5) 1.0023(4)
H14 H 0.7279(7) 0.7896(5) 1.1208(4)
C7 C 0.6660(7) 0.5298(5) 0.9880(4)
H15 H 0.6975(7) 0.4944(5) 1.0691(4)
H16 H 0.7818(7) 0.5363(5) 0.9566(4)
C8 C 0.5305(7) 0.4281(5) 0.9142(4)
H17 H 0.5946(7) 0.3377(5) 0.9022(4)
H18 H 0.4276(7) 0.4055(5) 0.9550(4)
O5 O 0.0709(6) 0.4114(6) 0.7902(4)
H19 H 0.078(12) 0.3467(67) 0.8420(56)
H20 H -0.0345(66) 0.4196(94) 0.7441(61)
O6 O 0.7458(7) 1.1138(5) 0.7726(5)
H21 H 0.7257(80) 1.1812(48) 0.7241(42)
H22 H 0.849(14) 1.156(18) 0.800(14)
#END
