
#######################################################################
#
#                 Cambridge Crystallographic Data Centre
#                                CCDC
#
#######################################################################
#
# If this CIF has been generated from an entry in the Cambridge
# Structural Database, then it will include bibliographic, chemical,
# crystal, experimental, refinement or atomic coordinate data resulting
# from the CCDC's data processing and validation procedures.
#
#######################################################################

data_CSD_CIF_XIWMAS
_audit_creation_date 2008-06-10
_audit_creation_method CSD-ConQuest-V1
_database_code_CSD XIWMAS
_database_code_depnum_ccdc_archive 'CCDC 298949'
_chemical_formula_sum 'C12 H14 Cl3 Fe1 N2 O1 S1'
_chemical_formula_moiety
;
C12 H14 Cl3 Fe1 N2 O1 S1
;
_journal_coden_Cambridge 580
_journal_volume 26
_journal_year 2007
_journal_page_first 4908
_journal_name_full 'Polyhedron '
loop_
_publ_author_name
"V.Amani"
"N.Safari"
"H.R.Khavasi"
"P.Mirzaei"
_chemical_name_systematic
;
(2,2'-bipyridine)-trichloro-(dimethyl sulfoxide)-iron(iii)
;
_chemical_melting_point 559.15
_cell_volume    807.158
_exptl_crystal_colour 'yellow'
_exptl_crystal_density_diffrn 1.631
_exptl_crystal_description 'prism'
_diffrn_ambient_temperature 293
#These two values have been output from a single CSD field.
_refine_ls_R_factor_gt 0.0245
_refine_ls_wR_factor_gt 0.0245
_symmetry_cell_setting triclinic
_symmetry_space_group_name_H-M 'P -1'
_symmetry_Int_Tables_number 2
loop_
_symmetry_equiv_pos_site_id
_symmetry_equiv_pos_as_xyz
1 x,y,z
2 -x,-y,-z
_cell_length_a 7.4982(13)
_cell_length_b 9.9823(18)
_cell_length_c 11.4917(18)
_cell_angle_alpha 89.303(14)
_cell_angle_beta 82.615(13)
_cell_angle_gamma 71.210(13)
_cell_formula_units_Z 2
loop_
_atom_type_symbol
_atom_type_radius_bond
C 0.68
H 0.23
Cl 0.99
Fe 1.34
N 0.68
O 0.68
S 1.02
loop_
_atom_site_label
_atom_site_type_symbol
_atom_site_fract_x
_atom_site_fract_y
_atom_site_fract_z
Fe1 Fe 0.68511(3) 0.72364(2) 0.74916(2)
C1 C 0.7111(3) 0.57327(19) 0.50556(16)
H1 H 0.81780 0.50700 0.52950
C2 C 0.6558(3) 0.5494(2) 0.40037(17)
H2 H 0.72470 0.46960 0.35370
C3 C 0.4965(3) 0.6461(2) 0.36570(17)
H3 H 0.45310 0.63060 0.29650
C4 C 0.4010(3) 0.7671(2) 0.43498(17)
H4 H 0.29430 0.83440 0.41200
C5 C 0.4666(2) 0.78618(18) 0.53873(15)
C6 C 0.3818(2) 0.91546(18) 0.61513(15)
C7 C 0.2252(3) 1.0266(2) 0.59048(18)
H5 H 0.16700 1.02150 0.52470
C8 C 0.1569(3) 1.1451(2) 0.6651(2)
H6 H 0.05170 1.22040 0.65030
C9 C 0.2467(3) 1.1500(2) 0.76132(19)
H7 H 0.20290 1.22830 0.81280
C10 C 0.4031(3) 1.03653(19) 0.78030(17)
H8 H 0.46450 1.04060 0.84490
C11 C 0.2073(3) 0.5576(3) 0.9168(2)
H9 H 0.27930 0.46890 0.87710
H10 H 0.10820 0.60870 0.87220
H11 H 0.15200 0.54030 0.99330
C12 C 0.1820(4) 0.8248(3) 0.9745(3)
H12 H 0.08490 0.84410 0.92380
H13 H 0.23880 0.89850 0.96860
H14 H 0.12680 0.82100 1.05410
N1 N 0.6178(2) 0.68828(15) 0.57546(12)
N2 N 0.4698(2) 0.92066(14) 0.70898(13)
Cl1 Cl 0.69191(7) 0.80140(5) 0.93646(4)
Cl2 Cl 0.85528(7) 0.48679(5) 0.76596(4)
Cl3 Cl 0.93434(7) 0.79444(6) 0.66411(5)
S1 S 0.35942(6) 0.65903(5) 0.93140(4)
O1 O 0.43567(18) 0.67720(14) 0.80472(11)
#END
