
#######################################################################
#
#                 Cambridge Crystallographic Data Centre
#                                CCDC
#
#######################################################################
#
# If this CIF has been generated from an entry in the Cambridge
# Structural Database, then it will include bibliographic, chemical,
# crystal, experimental, refinement or atomic coordinate data resulting
# from the CCDC's data processing and validation procedures.
#
#######################################################################

data_CSD_CIF_XOFXAR
_audit_creation_date 2002-09-13
_audit_creation_method CSD-ConQuest-V1
_database_code_CSD XOFXAR
_database_code_depnum_ccdc_archive 'CCDC 190181'
_chemical_formula_sum 'C17 H22 Cr1 O5 Si1'
_chemical_formula_moiety
;
C17 H22 Cr1 O5 Si1
;
_journal_coden_Cambridge 1336
_journal_volume 4
_journal_year 2002
_journal_page_first 1981
_journal_name_full 'Org.Lett. '
loop_
_publ_author_name
"W.H.Moser"
"Jian Zhang"
"C.S.Lecher"
"T.L.Frazier"
"M.Pink"
_chemical_name_systematic
;
(\h^6^-2,2-dimethyl-3-[(trimethylsilyl)oxy]indan-1-ol)-tricarbonyl-chromium
;
_chemical_melting_point 420.15
_cell_volume    918.826
_exptl_crystal_colour 'yellow'
_exptl_crystal_density_diffrn 1.397
_exptl_special_details
;
Melting point range 420.15-421.15K

;
_exptl_crystal_description 'needle'
_diffrn_ambient_temperature 120
#These two values have been output from a single CSD field.
_refine_ls_R_factor_gt 0.0353
_refine_ls_wR_factor_gt 0.0353
_symmetry_cell_setting triclinic
_symmetry_space_group_name_H-M 'P -1'
_symmetry_Int_Tables_number 2
loop_
_symmetry_equiv_pos_site_id
_symmetry_equiv_pos_as_xyz
1 x,y,z
2 -x,-y,-z
_cell_length_a 6.4814(2)
_cell_length_b 10.6477(4)
_cell_length_c 13.9211(5)
_cell_angle_alpha 98.761(1)
_cell_angle_beta 91.012(1)
_cell_angle_gamma 104.237(1)
_cell_formula_units_Z 2
loop_
_atom_type_symbol
_atom_type_radius_bond
C 0.68
H 0.23
Cr 1.35
O 0.68
Si 1.20
loop_
_atom_site_label
_atom_site_type_symbol
_atom_site_fract_x
_atom_site_fract_y
_atom_site_fract_z
Cr1 Cr 0.89227(4) 0.45678(2) 0.687774(17)
Si1 Si 0.87639(8) 0.96077(4) 0.72039(4)
O1 O 0.90151(19) 0.82336(11) 0.75577(8)
O2 O 0.7904(2) 0.48995(12) 0.95077(8)
H1 H 0.82070 0.52880 1.00830
O3 O 1.0585(2) 0.27698(14) 0.54061(10)
O4 O 1.2643(2) 0.67383(13) 0.65585(10)
O5 O 1.1583(2) 0.38733(13) 0.83921(8)
C1 C 0.7425(3) 0.73229(15) 0.79429(11)
H2 H 0.60960 0.76410 0.79690
C2 C 0.8028(3) 0.71028(16) 0.89865(11)
C3 C 0.6853(3) 0.56307(16) 0.89885(11)
H3 H 0.54180 0.55930 0.92530
C4 C 0.6553(2) 0.50172(15) 0.79339(10)
C5 C 0.5929(2) 0.36683(15) 0.75328(11)
H4 H 0.56880 0.30160 0.79420
C6 C 0.5674(3) 0.33149(16) 0.65188(12)
H5 H 0.52200 0.24140 0.62370
C7 C 0.6086(3) 0.42884(16) 0.59088(11)
H6 H 0.59140 0.40350 0.52220
C8 C 0.6746(3) 0.56228(16) 0.63115(11)
H7 H 0.70650 0.62770 0.59050
C9 C 0.6927(2) 0.59738(15) 0.73372(11)
C10 C 0.6992(3) 0.92752(19) 0.60853(14)
H8 H 0.75980 0.87920 0.55540
H9 H 0.68620 1.01080 0.59050
H10 H 0.55800 0.87500 0.62050
C11 C 1.1521(4) 1.0454(2) 0.6984(2)
H11 H 1.20700 0.99070 0.64700
H12 H 1.24230 1.06050 0.75840
H13 H 1.15340 1.12970 0.67810
C12 C 0.7653(4) 1.0595(2) 0.81839(16)
H14 H 0.85780 1.07780 0.87800
H15 H 0.62210 1.01030 0.83080
H16 H 0.75750 1.14240 0.79810
C13 C 0.7198(3) 0.79919(18) 0.97717(13)
H17 H 0.74820 0.77760 1.04130
H18 H 0.56590 0.78590 0.96520
H19 H 0.79200 0.89110 0.97540
C14 C 1.0437(3) 0.73395(17) 0.91506(12)
H20 H 1.07700 0.71770 0.98030
H21 H 1.11320 0.82500 0.90920
H22 H 1.09560 0.67430 0.86620
C15 C 0.9952(3) 0.34665(17) 0.59738(11)
C16 C 1.1206(3) 0.59148(17) 0.66881(12)
C17 C 1.0540(3) 0.41496(16) 0.78188(11)
#END
