
#######################################################################
#
#                 Cambridge Crystallographic Data Centre
#                                CCDC
#
#######################################################################
#
# If this CIF has been generated from an entry in the Cambridge
# Structural Database, then it will include bibliographic, chemical,
# crystal, experimental, refinement or atomic coordinate data resulting
# from the CCDC's data processing and validation procedures.
#
#######################################################################

data_CSD_CIF_XOJJEL
_audit_creation_date 2002-09-13
_audit_creation_method CSD-ConQuest-V1
_database_code_CSD XOJJEL
_database_code_depnum_ccdc_archive 'CCDC 175712'
_chemical_formula_sum 'C19 H17 Fe1 N1 O2'
_chemical_formula_moiety
;
C19 H17 Fe1 N1 O2
;
_journal_coden_Cambridge 36
_journal_volume 649
_journal_year 2002
_journal_page_first 161
_journal_name_full 'J.Organomet.Chem. '
loop_
_publ_author_name
"O.Kadkin"
"C.Nather"
"W.Friedrichsen"
_chemical_name_systematic
;
(+-)-3-(p-Nitrophenyl)(3)ferrocenophane
;
_chemical_melting_point 397.15
_cell_volume    777.758
_exptl_crystal_colour 'red'
_exptl_crystal_density_diffrn 1.483
_exptl_crystal_description 'block'
_diffrn_ambient_temperature 293
#These two values have been output from a single CSD field.
_refine_ls_R_factor_gt 0.0488
_refine_ls_wR_factor_gt 0.0488
_symmetry_cell_setting monoclinic
_symmetry_space_group_name_H-M 'P 21'
_symmetry_Int_Tables_number 4
loop_
_symmetry_equiv_pos_site_id
_symmetry_equiv_pos_as_xyz
1 x,y,z
2 -x,1/2+y,-z
_cell_length_a 8.3342(6)
_cell_length_b 8.3281(9)
_cell_length_c 11.3198(8)
_cell_angle_alpha 90
_cell_angle_beta 98.146(8)
_cell_angle_gamma 90
_cell_formula_units_Z 2
loop_
_atom_type_symbol
_atom_type_radius_bond
C 0.68
H 0.23
Fe 1.34
N 0.68
O 0.68
loop_
_atom_site_label
_atom_site_type_symbol
_atom_site_fract_x
_atom_site_fract_y
_atom_site_fract_z
Fe1 Fe 0.43790(16) 0.59100(14) 0.18901(11)
O1 O 1.0770(11) 0.6108(17) 0.7582(8)
O2 O 1.2024(16) 0.4966(13) 0.6266(13)
N1 N 1.0817(17) 0.5432(10) 0.6645(12)
C1 C 0.9291(15) 0.5209(11) 0.5826(12)
C2 C 0.9307(15) 0.4341(11) 0.4803(12)
H1 H 1.02570 0.38740 0.46240
C3 C 0.7851(16) 0.4178(12) 0.4037(12)
H2 H 0.78550 0.36140 0.33280
C4 C 0.6376(12) 0.4830(8) 0.4286(9)
C5 C 0.6459(13) 0.5706(16) 0.5347(9)
H3 H 0.55300 0.62050 0.55380
C6 C 0.7898(14) 0.585(2) 0.6121(9)
H4 H 0.79110 0.63760 0.68450
C7 C 0.4909(13) 0.4675(9) 0.3463(9)
C8 C 0.4635(16) 0.3591(12) 0.2460(11)
H5 H 0.53630 0.28270 0.22570
C9 C 0.3061(15) 0.3896(11) 0.1835(12)
H6 H 0.25880 0.33660 0.11500
C10 C 0.2315(15) 0.5165(12) 0.2440(11)
C11 C 0.3450(12) 0.5623(15) 0.3448(9)
H7 H 0.32800 0.64040 0.40050
C12 C 0.0706(12) 0.589(2) 0.1990(11)
H8 H 0.04310 0.66440 0.25800
H9 H -0.01010 0.50400 0.19200
C13 C 0.0594(18) 0.6740(19) 0.0804(19)
H10 H 0.07660 0.59490 0.02060
H11 H -0.05070 0.71320 0.06040
C14 C 0.1701(14) 0.8099(13) 0.0690(12)
H12 H 0.15390 0.88950 0.12870
H13 H 0.13920 0.85890 -0.00860
C15 C 0.5833(13) 0.6444(9) 0.0626(10)
H14 H 0.65850 0.57700 0.03460
C16 C 0.6151(13) 0.752(1) 0.1605(11)
H15 H 0.71500 0.76790 0.20720
C17 C 0.4669(12) 0.8316(10) 0.175(1)
H16 H 0.45190 0.90720 0.23290
C18 C 0.3450(13) 0.7714(10) 0.0819(10)
C19 C 0.4174(13) 0.6576(10) 0.0151(10)
H17 H 0.36510 0.60030 -0.04960
#END
