
#######################################################################
#
#                 Cambridge Crystallographic Data Centre
#                                CCDC
#
#######################################################################
#
# If this CIF has been generated from an entry in the Cambridge
# Structural Database, then it will include bibliographic, chemical,
# crystal, experimental, refinement or atomic coordinate data resulting
# from the CCDC's data processing and validation procedures.
#
#######################################################################

data_CSD_CIF_XOLYII
_audit_creation_date 2014-06-27
_audit_creation_method CSD-ConQuest-V1
_database_code_CSD XOLYII
_database_code_depnum_ccdc_archive 'CCDC 1001232'
_chemical_formula_sum 'C17 H37 Fe1 N1 O1 P2'
_chemical_formula_moiety
;
C17 H37 Fe1 N1 O1 P2
;
_journal_coden_Cambridge 4
_journal_volume 136
_journal_year 2014
_journal_page_first 8564
_journal_name_full 'J.Am.Chem.Soc. '
loop_
_publ_author_name
"S.Chakraborty"
"W.W.Brennessel"
"W.D.Jones"
_chemical_name_systematic
;
carbonyl-(2-(diisopropylphosphino)-N-(2-(diisopropylphosphino)ethyl)ethanamina
to)-hydrido-iron
;
_cell_volume   1042.518
_exptl_crystal_colour 'red'
_exptl_crystal_density_diffrn 1.24
_exptl_special_details
;
Air-sensitive, Moisture-sensitive, Oxygen-sensitive

;
_exptl_crystal_description 'block'
_exptl_crystal_preparation 'hexane'
_diffrn_ambient_temperature 100
#These two values have been output from a single CSD field.
_refine_ls_R_factor_gt 0.0319
_refine_ls_wR_factor_gt 0.0319
_symmetry_cell_setting triclinic
_symmetry_space_group_name_H-M 'P -1'
_symmetry_Int_Tables_number 2
loop_
_symmetry_equiv_pos_site_id
_symmetry_equiv_pos_as_xyz
1 x,y,z
2 -x,-y,-z
_cell_length_a 7.6270(8)
_cell_length_b 8.8684(9)
_cell_length_c 17.4002(17)
_cell_angle_alpha 76.1095(19)
_cell_angle_beta 85.395(2)
_cell_angle_gamma 65.8753(18)
_cell_formula_units_Z 2
loop_
_atom_type_symbol
_atom_type_radius_bond
C 0.68
H 0.23
Fe 1.52
N 0.68
O 0.68
P 1.05
loop_
_atom_site_label
_atom_site_type_symbol
_atom_site_fract_x
_atom_site_fract_y
_atom_site_fract_z
Fe1 Fe 0.98785(2) 0.68869(2) 0.75552(2)
H1 H 1.146(2) 0.706(2) 0.7830(9)
P1 P 0.80769(3) 0.80796(3) 0.84679(2)
P2 P 1.15172(3) 0.61829(3) 0.65213(2)
O1 O 1.15854(13) 0.34999(10) 0.85600(5)
N1 N 0.80964(11) 0.86467(9) 0.68368(4)
C1 C 1.09020(13) 0.48722(11) 0.81608(5)
C2 C 0.59165(13) 0.96923(12) 0.79038(6)
H2 H 0.49090 0.92480 0.79340
H3 H 0.54030 1.07210 0.81220
C3 C 0.65084(13) 1.01157(11) 0.70454(5)
H4 H 0.53920 1.04790 0.66880
H5 H 0.69100 1.10710 0.69690
C4 C 0.83680(14) 0.90699(11) 0.59780(5)
H6 H 0.88310 0.99920 0.58470
H7 H 0.71200 0.94830 0.56980
C5 C 0.98170(14) 0.75244(11) 0.56932(5)
H8 H 1.05070 0.78880 0.52290
H9 H 0.91490 0.68880 0.55390
C6 C 0.89251(13) 0.92632(11) 0.89818(5)
H10 H 0.78420 0.99020 0.92980
C7 C 0.95050(19) 1.05486(14) 0.83833(7)
H11 H 0.99510 1.11600 0.86670
H12 H 0.83940 1.13570 0.80440
H13 H 1.05410 0.99500 0.80560
C8 C 1.05913(14) 0.80282(13) 0.95541(6)
H14 H 1.11160 0.86700 0.97820
H15 H 1.15990 0.72810 0.92670
H16 H 1.01250 0.73440 0.99790
C9 C 0.71779(13) 0.68110(11) 0.92752(5)
H17 H 0.83100 0.59810 0.96210
C10 C 0.63580(16) 0.57782(13) 0.89401(6)
H18 H 0.60620 0.49930 0.93770
H19 H 0.73060 0.51330 0.85980
H20 H 0.51820 0.65490 0.86310
C11 C 0.57222(15) 0.78644(14) 0.98011(6)
H21 H 0.53170 0.71180 1.02180
H22 H 0.46010 0.87140 0.94790
H23 H 0.63170 0.84360 1.00430
C12 C 1.36701(14) 0.66602(13) 0.62844(6)
H24 H 1.40970 0.64700 0.57440
C13 C 1.31922(18) 0.85170(15) 0.62749(7)
H25 H 1.43400 0.87540 0.61380
H26 H 1.27620 0.87300 0.67990
H27 H 1.21690 0.92560 0.58810
C14 C 1.53081(15) 0.54651(16) 0.68765(8)
H28 H 1.63660 0.58400 0.67950
H29 H 1.57650 0.43090 0.67960
H30 H 1.48420 0.54810 0.74170
C15 C 1.23365(13) 0.39909(11) 0.63834(5)
H31 H 1.33160 0.32400 0.68110
C16 C 1.06921(15) 0.33926(12) 0.65022(6)
H32 H 1.12030 0.21810 0.65080
H33 H 0.97460 0.40340 0.60680
H34 H 1.00750 0.35800 0.70070
C17 C 1.33283(15) 0.37426(12) 0.55938(6)
H35 H 1.36100 0.25940 0.55370
H36 H 1.45290 0.39010 0.55830
H37 H 1.24790 0.45740 0.51570
#END
