
#######################################################################
#
#                 Cambridge Crystallographic Data Centre
#                                CCDC
#
#######################################################################
#
# If this CIF has been generated from an entry in the Cambridge
# Structural Database, then it will include bibliographic, chemical,
# crystal, experimental, refinement or atomic coordinate data resulting
# from the CCDC's data processing and validation procedures.
#
#######################################################################

data_CSD_CIF_XORGUG
_audit_creation_date 2002-10-24
_audit_creation_method CSD-ConQuest-V1
_database_code_CSD XORGUG
_chemical_formula_sum 'C9 H5 Mn1 O5'
_chemical_formula_moiety
;
C9 H5 Mn1 O5
;
_journal_coden_Cambridge 579
_journal_volume 21
_journal_year 2002
_journal_page_first 1290
_journal_name_full 'Organometallics '
loop_
_publ_author_name
"Moonhyun Oh"
"G.B.Carpenter"
"D.A.Sweigart"
_chemical_name_systematic
;
Tricarbonyl-(\h^5^-p-benzosemiquinone)-manganese
;
_cell_volume    461.448
_exptl_crystal_colour 'yellow'
_exptl_crystal_density_diffrn 1.785
_diffrn_ambient_temperature ?
_diffrn_special_details
;
The study was carried out at room temperature,in the range 283-303K

;
#These two values have been output from a single CSD field.
_refine_ls_R_factor_gt 0.0544
_refine_ls_wR_factor_gt 0.0544
_symmetry_cell_setting triclinic
_symmetry_space_group_name_H-M 'P -1'
_symmetry_Int_Tables_number 2
loop_
_symmetry_equiv_pos_site_id
_symmetry_equiv_pos_as_xyz
1 x,y,z
2 -x,-y,-z
_cell_length_a 6.3941(19)
_cell_length_b 6.5547(19)
_cell_length_c 12.346(3)
_cell_angle_alpha 92.175(6)
_cell_angle_beta 95.337(6)
_cell_angle_gamma 115.953(4)
_cell_formula_units_Z 2
loop_
_atom_type_symbol
_atom_type_radius_bond
C 0.68
H 0.23
Mn 1.25
O 0.68
loop_
_atom_site_label
_atom_site_type_symbol
_atom_site_fract_x
_atom_site_fract_y
_atom_site_fract_z
Mn1 Mn 0.1280(1) 0.2702(1) 0.7694(1)
C1 C -0.0831(5) 0.0747(5) 0.8495(3)
O1 O -0.2195(5) -0.0543(4) 0.8976(3)
C2 C 0.1216(5) 0.5179(5) 0.8359(3)
O2 O 0.1174(6) 0.6743(4) 0.8764(3)
C3 C 0.3737(5) 0.3022(5) 0.8659(3)
O3 O 0.5351(5) 0.3231(5) 0.9224(3)
O4 O 0.3958(3) 0.6606(2) 0.6028(2)
O5 O -0.1825(3) -0.2442(2) 0.6290(2)
C4 C -0.0448(3) -0.0300(3) 0.6315(2)
C5 C -0.1309(3) 0.1392(3) 0.6240(2)
C6 C 0.0180(4) 0.3683(3) 0.6154(2)
C7 C 0.2624(3) 0.4451(3) 0.6189(2)
C8 C 0.3516(4) 0.2890(3) 0.6451(2)
C9 C 0.2017(4) 0.0574(3) 0.6539(2)
H1 H 0.583(7) 0.698(6) 0.620(4)
H2 H -0.294(4) 0.095(3) 0.621(2)
H3 H -0.039(5) 0.476(4) 0.607(3)
H4 H 0.510(4) 0.335(3) 0.659(2)
H5 H 0.262(4) -0.049(4) 0.666(2)
#END
