
#######################################################################
#
#                 Cambridge Crystallographic Data Centre
#                                CCDC
#
#######################################################################
#
# If this CIF has been generated from an entry in the Cambridge
# Structural Database, then it will include bibliographic, chemical,
# crystal, experimental, refinement or atomic coordinate data resulting
# from the CCDC's data processing and validation procedures.
#
#######################################################################

data_CSD_CIF_XORHAN
_audit_creation_date 2002-10-24
_audit_creation_method CSD-ConQuest-V1
_database_code_CSD XORHAN
_chemical_formula_sum 'C9 H5 Mn1 O5'
_chemical_formula_moiety
;
C9 H5 Mn1 O5
;
_journal_coden_Cambridge 579
_journal_volume 21
_journal_year 2002
_journal_page_first 1290
_journal_name_full 'Organometallics '
loop_
_publ_author_name
"Moonhyun Oh"
"G.B.Carpenter"
"D.A.Sweigart"
_chemical_name_systematic
;
Tricarbonyl-(\h^5^-o-benzosemiquinone)-manganese
;
_cell_volume    457.881
_exptl_crystal_density_diffrn 1.799
_diffrn_ambient_temperature ?
_diffrn_special_details
;
The study was carried out at room temperature,in the range 283-303K

;
#These two values have been output from a single CSD field.
_refine_ls_R_factor_gt 0.0257
_refine_ls_wR_factor_gt 0.0257
_symmetry_cell_setting triclinic
_symmetry_space_group_name_H-M 'P -1'
_symmetry_Int_Tables_number 2
loop_
_symmetry_equiv_pos_site_id
_symmetry_equiv_pos_as_xyz
1 x,y,z
2 -x,-y,-z
_cell_length_a 6.8655(6)
_cell_length_b 6.9081(6)
_cell_length_c 10.3711(9)
_cell_angle_alpha 91.617(2)
_cell_angle_beta 94.366(2)
_cell_angle_gamma 110.734(2)
_cell_formula_units_Z 2
loop_
_atom_type_symbol
_atom_type_radius_bond
C 0.68
H 0.23
Mn 1.35
O 0.68
loop_
_atom_site_label
_atom_site_type_symbol
_atom_site_fract_x
_atom_site_fract_y
_atom_site_fract_z
Mn1 Mn 0.2536(1) 0.2051(1) 0.2142(1)
C1 C 0.2042(3) 0.3094(3) 0.4354(2)
O1 O 0.0532(2) 0.2948(2) 0.4993(2)
C2 C 0.2933(3) 0.4845(3) 0.3572(2)
O2 O 0.2119(3) 0.6347(2) 0.3531(2)
C3 C 0.4714(3) 0.5086(3) 0.2930(2)
C4 C 0.5676(3) 0.3601(3) 0.2979(2)
C5 C 0.4757(3) 0.1799(3) 0.3633(2)
C6 C 0.2899(3) 0.1480(3) 0.4211(2)
C7 C 0.2797(3) -0.0160(3) 0.1307(2)
O3 O 0.2991(3) -0.1534(3) 0.0765(2)
C8 C -0.0263(3) 0.0852(3) 0.2099(2)
O4 O -0.2030(3) 0.0098(3) 0.2121(2)
C9 C 0.2405(3) 0.3212(3) 0.0614(2)
O5 O 0.2312(4) 0.3930(3) -0.0353(2)
H1 H 0.124(4) 0.617(4) 0.399(3)
H2 H 0.514(4) 0.614(4) 0.243(2)
H3 H 0.678(4) 0.379(4) 0.257(2)
H4 H 0.535(4) 0.076(4) 0.362(2)
H5 H 0.231(4) 0.027(4) 0.457(2)
#END
