
#######################################################################
#
#                 Cambridge Crystallographic Data Centre
#                                CCDC
#
#######################################################################
#
# If this CIF has been generated from an entry in the Cambridge
# Structural Database, then it will include bibliographic, chemical,
# crystal, experimental, refinement or atomic coordinate data resulting
# from the CCDC's data processing and validation procedures.
#
#######################################################################

data_CSD_CIF_YAXHOX
_audit_creation_date 2017-05-11
_audit_creation_method CSD-ConQuest-V1
_database_code_CSD YAXHOX
_database_code_depnum_ccdc_archive 'CCDC 1546482'
_chemical_formula_sum 'C16 H54 Hg4 Mn2 N14 Te12'
_chemical_formula_moiety
;
2(C8 H27 Mn1 N7 2+),Hg4 Te12 4-
;
_journal_coden_Cambridge 9
_journal_volume 56
_journal_year 2017
_journal_page_first 6152
_journal_name_full 'Inorg.Chem. '
loop_
_publ_author_name
"Peipei Sun"
"Shuzhen Liu"
"Shufen Li"
"Limei Zhang"
"Hui Sun"
"Dingxian Jia"
_chemical_name_systematic
;
bis((bis(2-((2-aminoethyl)amino)ethyl)amine)-hydrazine-manganese(ii)) 
bis(\m-tritellane-1,3-diyl)-bis(\m-ditellane-1,2-diyl)-bis(\m-tellurido)-tetra
-mercury(ii)
;
_cell_volume   1308.738
_exptl_crystal_colour 'dark black'
_exptl_crystal_density_diffrn 3.662
_exptl_crystal_description 'cube'
_diffrn_ambient_temperature 293
#These two values have been output from a single CSD field.
_refine_ls_R_factor_gt 0.0447
_refine_ls_wR_factor_gt 0.0447
_symmetry_cell_setting triclinic
_symmetry_space_group_name_H-M 'P -1'
_symmetry_Int_Tables_number 2
loop_
_symmetry_equiv_pos_site_id
_symmetry_equiv_pos_as_xyz
1 x,y,z
2 -x,-y,-z
_cell_length_a 9.9951(4)
_cell_length_b 10.8781(6)
_cell_length_c 13.5035(6)
_cell_angle_alpha 100.359(4)
_cell_angle_beta 95.983(4)
_cell_angle_gamma 112.611(4)
_cell_formula_units_Z 1
loop_
_atom_type_symbol
_atom_type_radius_bond
C 0.68
H 0.23
Hg 1.32
Mn 1.61
N 0.68
Te 1.47
loop_
_atom_site_label
_atom_site_type_symbol
_atom_site_fract_x
_atom_site_fract_y
_atom_site_fract_z
Hg1 Hg 1.16808(5) 0.63013(5) 0.18244(4)
Hg2 Hg 0.73547(5) 0.48835(6) 0.07170(4)
Te1 Te 1.42190(8) 0.64930(8) 0.11739(7)
Te2 Te 1.15244(8) 0.73568(8) 0.38296(7)
Te3 Te 0.89210(8) 0.52754(9) 0.38335(7)
Te4 Te 0.68564(8) 0.57676(9) 0.26197(6)
Te5 Te 0.93225(8) 0.35010(8) 0.13512(6)
Te6 Te 0.99982(8) 0.26956(7) -0.05169(6)
Mn1 Mn 0.2707(2) 0.1821(2) 0.25976(17)
N1 N 0.024(1) 0.0694(10) 0.1901(9)
H1 H -0.00710 0.12720 0.16510
H2 H 0.01010 -0.00080 0.13740
N2 N 0.1617(13) 0.0926(14) 0.3849(10)
H3 H 0.14960 0.00360 0.37290
N3 N 0.4692(14) 0.2289(12) 0.3912(10)
H4 H 0.51910 0.32150 0.41350
N4 N 0.3665(11) 0.0317(11) 0.2003(8)
H5 H 0.29180 -0.05370 0.18440
N5 N 0.3245(13) 0.2335(13) 0.1094(10)
H6 H 0.25750 0.25910 0.08000
H7 H 0.41450 0.30270 0.11990
N6 N 0.2821(16) 0.3949(13) 0.3051(13)
H8 H 0.33170 0.44040 0.26180
H9 H 0.18880 0.38650 0.28940
N7 N 0.3394(19) 0.4832(15) 0.4009(11)
H10 H 0.29230 0.44230 0.44630
H11 H 0.32520 0.55890 0.40000
C1 C -0.0635(17) 0.0168(17) 0.2642(16)
H12 H -0.08460 -0.07960 0.25600
H13 H -0.15680 0.02480 0.25130
C2 C 0.0141(18) 0.092(2) 0.3717(15)
H14 H 0.02180 0.18580 0.38420
H15 H -0.04060 0.04780 0.41990
C3 C 0.263(2) 0.1648(17) 0.4823(13)
H16 H 0.22800 0.11610 0.53450
H17 H 0.26550 0.25590 0.50280
C4 C 0.416(2) 0.1760(19) 0.4748(14)
H18 H 0.48350 0.23510 0.53800
H19 H 0.41690 0.08590 0.46810
C5 C 0.5674(16) 0.1741(16) 0.3444(14)
H20 H 0.63840 0.17140 0.39780
H21 H 0.62150 0.23390 0.30350
C6 C 0.4802(15) 0.0328(15) 0.2779(14)
H22 H 0.54580 0.00030 0.24460
H23 H 0.43420 -0.02890 0.32010
C7 C 0.4190(19) 0.0579(17) 0.1036(14)
H24 H 0.41400 -0.02630 0.06120
H25 H 0.52090 0.12470 0.11950
C8 C 0.3211(17) 0.113(2) 0.0449(13)
H26 H 0.35730 0.13340 -0.01670
H27 H 0.22040 0.04330 0.02480
Hg1A Hg 0.83192(5) 0.36987(5) -0.18244(4)
Hg2A Hg 1.26453(5) 0.51165(6) -0.07170(4)
Te1A Te 0.57810(8) 0.35070(8) -0.11739(7)
Te2A Te 0.84756(8) 0.26432(8) -0.38296(7)
Te3A Te 1.10790(8) 0.47246(9) -0.38335(7)
Te4A Te 1.31436(8) 0.42324(9) -0.26197(6)
Te5A Te 1.06775(8) 0.64990(8) -0.13512(6)
Te6A Te 1.00018(8) 0.73044(7) 0.05169(6)
#END
