
#######################################################################
#
#                 Cambridge Crystallographic Data Centre
#                                CCDC
#
#######################################################################
#
# If this CIF has been generated from an entry in the Cambridge
# Structural Database, then it will include bibliographic, chemical,
# crystal, experimental, refinement or atomic coordinate data resulting
# from the CCDC's data processing and validation procedures.
#
#######################################################################

data_CSD_CIF_YEDCUG
_audit_creation_date 2006-04-19
_audit_creation_method CSD-ConQuest-V1
_database_code_CSD YEDCUG
_database_code_depnum_ccdc_archive 'CCDC 280635'
_chemical_formula_sum 'C16 H13 Fe1 N1 O2'
_chemical_formula_moiety
;
C16 H13 Fe1 N1 O2
;
_journal_coden_Cambridge 155
_journal_volume 359
_journal_year 2006
_journal_page_first 1012
_journal_name_full 'Inorg.Chim.Acta '
loop_
_publ_author_name
"M.Auzias"
"B.Therrien"
"G.Labat"
"H.Stoeckli-Evans"
"G.Suss-Fink"
_chemical_name_systematic
;
4-(Ferrocenoyloxy)pyridine
;
_cell_volume    641.972
_exptl_crystal_colour 'orange'
_exptl_crystal_density_diffrn 1.589
_exptl_crystal_description 'plate'
_exptl_crystal_preparation 'hexane/chloroform'
_diffrn_ambient_temperature 173
#These two values have been output from a single CSD field.
_refine_ls_R_factor_gt 0.0329
_refine_ls_wR_factor_gt 0.0329
_symmetry_cell_setting triclinic
_symmetry_space_group_name_H-M 'P -1'
_symmetry_Int_Tables_number 2
loop_
_symmetry_equiv_pos_site_id
_symmetry_equiv_pos_as_xyz
1 x,y,z
2 -x,-y,-z
_cell_length_a 5.802(1)
_cell_length_b 10.242(2)
_cell_length_c 11.288(2)
_cell_angle_alpha 93.14(3)
_cell_angle_beta 103.98(3)
_cell_angle_gamma 97.93(3)
_cell_formula_units_Z 2
loop_
_atom_type_symbol
_atom_type_radius_bond
C 0.68
H 0.23
Fe 1.34
N 0.68
O 0.68
loop_
_atom_site_label
_atom_site_type_symbol
_atom_site_fract_x
_atom_site_fract_y
_atom_site_fract_z
C1 C 0.2952(5) 0.1335(2) 0.3585(2)
C2 C 0.3869(5) 0.1530(2) 0.2524(2)
H1 H 0.54620 0.18110 0.25210
C3 C 0.1898(5) 0.1212(2) 0.1485(2)
H2 H 0.19720 0.12540 0.06740
C4 C -0.0213(5) 0.0821(2) 0.1881(2)
H3 H -0.17490 0.05580 0.13740
C5 C 0.0406(5) 0.0896(2) 0.3179(2)
H4 H -0.06400 0.06980 0.36750
C6 C 0.1955(5) 0.4396(2) 0.3782(2)
H5 H 0.27760 0.44940 0.46060
C7 C 0.3001(6) 0.4641(2) 0.2791(3)
H6 H 0.46180 0.49270 0.28450
C8 C 0.1107(6) 0.4368(2) 0.1691(3)
H7 H 0.12740 0.44440 0.08980
C9 C -0.1073(5) 0.3959(2) 0.2024(3)
H8 H -0.25850 0.37210 0.14860
C10 C -0.0539(5) 0.3979(2) 0.3315(2)
H9 H -0.16400 0.37560 0.37760
C11 C 0.4359(5) 0.1694(2) 0.4853(2)
C12 C 0.3657(5) 0.1979(2) 0.6857(2)
C13 C 0.2098(5) 0.2616(2) 0.7338(2)
H10 H 0.06650 0.27900 0.68390
C14 C 0.2725(5) 0.2987(3) 0.8576(2)
H11 H 0.16630 0.34090 0.89000
C15 C 0.6225(6) 0.2168(3) 0.8841(2)
H12 H 0.76550 0.20160 0.93570
C16 C 0.5784(5) 0.1746(2) 0.7620(2)
H13 H 0.68710 0.13220 0.73180
N1 N 0.4757(5) 0.2781(2) 0.9345(2)
O1 O 0.6469(4) 0.2097(2) 0.51872(17)
O2 O 0.2862(3) 0.15365(18) 0.56263(15)
Fe1 Fe 0.13471(7) 0.27130(3) 0.26201(3)
#END
