
#######################################################################
#
#                 Cambridge Crystallographic Data Centre
#                                CCDC
#
#######################################################################
#
# If this CIF has been generated from an entry in the Cambridge
# Structural Database, then it will include bibliographic, chemical,
# crystal, experimental, refinement or atomic coordinate data resulting
# from the CCDC's data processing and validation procedures.
#
#######################################################################

data_CSD_CIF_YEDJEW
_audit_creation_date 1995-01-12
_audit_creation_method CSD-ConQuest-V1
_database_code_CSD YEDJEW
_database_code_depnum_ccdc_archive 'CCDC 1300664'
_chemical_formula_sum 'C8 H23 Cl1 Co1 N5 O9'
_chemical_formula_moiety
;
C8 H21 Co1 N5 O4 1+,Cl1 O4 1-,H2 O1
;
_journal_coden_Cambridge 367
_journal_volume 19
_journal_year 1993
_journal_page_first 139
_journal_name_full 'Koord.Khim.(Russ.)(Coord.Chem.) '
loop_
_publ_author_name
"I.V.Kuz'menko"
"T.N.Polynova"
"M.A.Porai-Koshits"
"A.L.Poznyak"
_chemical_name_systematic
;
bis(Ethylenediamine)-(iminodiacetato-N,O)-cobalt(iii) perchlorate monohydrate
;
_cell_volume    849.291
_exptl_crystal_colour 'dark red'
_exptl_crystal_density_diffrn 1.641
_diffrn_ambient_temperature ?
_diffrn_special_details
;
The study was carried out at room temperature,in the range 283-303K

;
#These two values have been output from a single CSD field.
_refine_ls_R_factor_gt 0.046
_refine_ls_wR_factor_gt 0.046
_symmetry_cell_setting triclinic
_symmetry_space_group_name_H-M 'P -1'
_symmetry_Int_Tables_number 2
loop_
_symmetry_equiv_pos_site_id
_symmetry_equiv_pos_as_xyz
1 x,y,z
2 -x,-y,-z
_cell_length_a 7.032(2)
_cell_length_b 8.823(3)
_cell_length_c 14.887(6)
_cell_angle_alpha 90.91(3)
_cell_angle_beta 91.07(2)
_cell_angle_gamma 113.08(3)
_cell_formula_units_Z 2
loop_
_atom_type_symbol
_atom_type_radius_bond
C 0.68
H 0.23
Cl 0.99
Co 1.33
N 0.68
O 0.68
loop_
_atom_site_label
_atom_site_type_symbol
_atom_site_fract_x
_atom_site_fract_y
_atom_site_fract_z
Co1 Co 0.0115(1) 0.2328(1) 0.2867(1)
O1 O 0.3000(5) 0.2796(4) 0.2964(2)
O2 O 0.5966(6) 0.4452(4) 0.3636(2)
O3 O 0.0624(6) 0.6925(4) 0.4632(2)
O4 O 0.1017(6) 0.8587(4) 0.3478(2)
N1 N 0.0773(5) 0.4403(4) 0.3610(2)
N2 N -0.0449(6) 0.0998(4) 0.3952(2)
N3 N -0.2877(6) 0.1817(5) 0.2806(3)
N4 N -0.0134(6) 0.0355(4) 0.2140(2)
N5 N 0.0600(6) 0.3480(5) 0.1707(2)
C1 C 0.4090(7) 0.4010(6) 0.3504(3)
C2 C 0.2904(7) 0.4845(6) 0.4007(3)
C3 C 0.0638(7) 0.5841(5) 0.3148(3)
C4 C 0.0783(6) 0.7249(5) 0.3822(3)
C5 C -0.2679(8) -0.0117(6) 0.3935(4)
C6 C -0.3869(8) 0.0894(7) 0.3626(4)
C7 C 0.0963(9) 0.0939(6) 0.1277(3)
C8 C 0.0258(9) 0.2264(6) 0.0937(3)
H1 H 0.37400 0.61600 0.39800
H2 H 0.27700 0.44700 0.46900
H3 H 0.06900 0.59700 0.24200
H4 H -0.10300 0.53100 0.31300
H5 H -0.29600 -0.11300 0.34600
H6 H -0.31300 -0.05800 0.45900
H7 H -0.38200 0.17600 0.41500
H8 H -0.54500 0.00900 0.34600
H9 H 0.21100 0.14600 0.14000
H10 H 0.05600 -0.00700 0.07900
H11 H -0.13600 0.17100 0.07400
H12 H 0.01140 0.28700 0.03600
H13 H -0.01400 0.41800 0.40900
H14 H 0.03100 0.03900 0.39600
H15 H -0.01600 0.16300 0.44500
H16 H -0.31100 0.27600 0.27800
H17 H -0.34100 0.13600 0.22500
H18 H -0.15500 -0.03600 0.20000
H19 H 0.02900 -0.03800 0.24400
H20 H -0.02500 0.40900 0.15700
H21 H 0.20200 0.42300 0.17000
Cl1 Cl 0.5361(2) 0.2345(2) 0.8933(1)
O5 O 0.7358(9) 0.3114(9) 0.9239(5)
O6 O 0.3970(8) 0.2139(9) 0.9576(6)
O7 O 0.5041(8) 0.0794(9) 0.8633(7)
O8 O 0.4976(9) 0.3243(9) 0.8209(4)
O9 O -0.3041(8) 0.4299(7) 0.1312(3)
#END
