
#######################################################################
#
#                 Cambridge Crystallographic Data Centre
#                                CCDC
#
#######################################################################
#
# If this CIF has been generated from an entry in the Cambridge
# Structural Database, then it will include bibliographic, chemical,
# crystal, experimental, refinement or atomic coordinate data resulting
# from the CCDC's data processing and validation procedures.
#
#######################################################################

data_CSD_CIF_YEDKIB
_audit_creation_date 1995-01-12
_audit_creation_method CSD-ConQuest-V1
_database_code_CSD YEDKIB
_chemical_formula_sum 'C16 H20 Co1 N6 O6 S2'
_chemical_formula_moiety
;
C16 H20 Co1 N6 O6 S2
;
_journal_coden_Cambridge 367
_journal_volume 19
_journal_year 1993
_journal_page_first 209
_journal_name_full 'Koord.Khim.(Russ.)(Coord.Chem.) '
loop_
_publ_author_name
"E.B.Shamuratov"
"A.S.Batsanov"
"T.V.Timofeeva"
"Kh.T.Sharipov"
"Yu.T.Struchkov"
"A.N.Yunuskhodzhaev"
"A.F.Dusmatov"
_chemical_name_systematic
;
Diaqua-bis(N-(hydroxymethyl)-nicotinamide-N)-bis(thiocyanato-N)-cobalt(ii)
;
_chemical_melting_point 376.15
_cell_volume    539.375
_exptl_crystal_colour 'yellow'
_exptl_crystal_density_diffrn 1.588
_exptl_special_details
;
Melting point range 376.15-378.15K

;
_diffrn_ambient_temperature ?
_diffrn_special_details
;
The study was carried out at room temperature,in the range 283-303K

;
#These two values have been output from a single CSD field.
_refine_ls_R_factor_gt 0.041
_refine_ls_wR_factor_gt 0.041
_symmetry_cell_setting triclinic
_symmetry_space_group_name_H-M 'P -1'
_symmetry_Int_Tables_number 2
loop_
_symmetry_equiv_pos_site_id
_symmetry_equiv_pos_as_xyz
1 x,y,z
2 -x,-y,-z
_cell_length_a 7.464(2)
_cell_length_b 8.841(3)
_cell_length_c 9.198(4)
_cell_angle_alpha 95.68(2)
_cell_angle_beta 97.99(2)
_cell_angle_gamma 114.34(2)
_cell_formula_units_Z 1
loop_
_atom_type_symbol
_atom_type_radius_bond
C 0.68
H 0.23
Co 1.33
N 0.68
O 0.68
S 1.02
loop_
_atom_site_label
_atom_site_type_symbol
_atom_site_fract_x
_atom_site_fract_y
_atom_site_fract_z
Co1 Co 0.00000 0.00000 0.00000
S1 S 0.1189(1) -0.2371(1) -0.4530(1)
O1 O 0.2810(3) 0.0448(2) 0.1286(2)
O2 O 0.4070(3) 0.8267(2) 0.2377(2)
O3 O 0.5130(3) 0.7039(2) 0.6080(2)
N1 N 0.1249(3) 0.2645(2) -0.0200(2)
N2 N 0.4971(3) 0.6455(2) 0.3480(2)
N3 N 0.0878(3) -0.0655(3) -0.1935(2)
C1 C 0.1053(3) -0.1349(3) -0.3001(2)
C2 C 0.2233(3) 0.3853(2) 0.1005(2)
C3 C 0.3036(3) 0.5563(2) 0.0951(2)
C4 C 0.2769(3) 0.6047(3) -0.0434(2)
C5 C 0.1765(4) 0.4809(3) -0.1678(2)
C6 C 0.1055(3) 0.3132(3) -0.1526(2)
C7 C 0.4065(3) 0.6879(2) 0.2322(2)
C8 C 0.6040(3) 0.7602(3) 0.4864(2)
H1 H 0.332(5) 0.120(4) 0.207(4)
H2 H 0.306(5) -0.023(5) 0.143(4)
H3 H 0.228(4) 0.342(3) 0.196(3)
H4 H 0.326(4) 0.719(3) -0.054(3)
H5 H 0.158(5) 0.501(4) -0.255(4)
H6 H 0.030(4) 0.229(3) -0.238(3)
H7 H 0.617(4) 0.868(4) 0.474(3)
H8 H 0.734(5) 0.772(4) 0.507(3)
H9 H 0.505(4) 0.566(4) 0.340(3)
H10 H 0.406(4) 0.713(3) 0.602(3)
O1A O -0.2810(3) -0.0448(2) -0.1286(2)
N1A N -0.1249(3) -0.2645(2) 0.0200(2)
N3A N -0.0878(3) 0.0655(3) 0.1935(2)
H1A H -0.332(5) -0.120(4) -0.207(4)
H2A H -0.306(5) 0.023(5) -0.143(4)
C2A C -0.2233(3) -0.3853(2) -0.1005(2)
C6A C -0.1055(3) -0.3132(3) 0.1526(2)
C1A C -0.1053(3) 0.1349(3) 0.3001(2)
C3A C -0.3036(3) -0.5563(2) -0.0951(2)
H3A H -0.228(4) -0.342(3) -0.196(3)
C5A C -0.1765(4) -0.4809(3) 0.1678(2)
H6A H -0.030(4) -0.229(3) 0.238(3)
S1A S -0.1189(1) 0.2371(1) 0.4530(1)
C4A C -0.2769(3) -0.6047(3) 0.0434(2)
C7A C -0.4065(3) -0.6879(2) -0.2322(2)
H5A H -0.158(5) -0.501(4) 0.255(4)
H4A H -0.326(4) -0.719(3) 0.054(3)
O2A O -0.4070(3) -0.8267(2) -0.2377(2)
N2A N -0.4971(3) -0.6455(2) -0.3480(2)
C8A C -0.6040(3) -0.7602(3) -0.4864(2)
H9A H -0.505(4) -0.566(4) -0.340(3)
O3A O -0.5130(3) -0.7039(2) -0.6080(2)
H7A H -0.617(4) -0.868(4) -0.474(3)
H8A H -0.734(5) -0.772(4) -0.507(3)
H10A H -0.406(4) -0.713(3) -0.602(3)
#END
