
#######################################################################
#
#                 Cambridge Crystallographic Data Centre
#                                CCDC
#
#######################################################################
#
# If this CIF has been generated from an entry in the Cambridge
# Structural Database, then it will include bibliographic, chemical,
# crystal, experimental, refinement or atomic coordinate data resulting
# from the CCDC's data processing and validation procedures.
#
#######################################################################

data_CSD_CIF_YENFON
_audit_creation_date 2006-12-18
_audit_creation_method CSD-ConQuest-V1
_database_code_CSD YENFON
_database_code_depnum_ccdc_archive 'CCDC 604015'
_chemical_formula_sum 'C14 H16 B2 Fe1 O4'
_chemical_formula_moiety
;
C14 H16 B2 Fe1 O4
;
_journal_coden_Cambridge 222
_journal_year 2006
_journal_page_first 3660
_journal_name_full 'Dalton Trans. '
loop_
_publ_author_name
"C.Bresner"
"J.K.Day"
"N.D.Coombs"
"I.A.Fallis"
"S.Aldridge"
"S.J.Coles"
"M.B.Hursthouse"
_chemical_name_systematic
;
1,1'-bis(1,3,2-Dioxaborolan-2-yl)ferrocene
;
_cell_volume    675.824
_exptl_crystal_colour 'yellow'
_exptl_crystal_density_diffrn 1.601
_exptl_crystal_description 'plate'
_exptl_crystal_preparation 'hexanes'
_diffrn_ambient_temperature 150
#These two values have been output from a single CSD field.
_refine_ls_R_factor_gt 0.0449
_refine_ls_wR_factor_gt 0.0449
_symmetry_cell_setting monoclinic
_symmetry_space_group_name_H-M 'C 2/m'
_symmetry_Int_Tables_number 12
loop_
_symmetry_equiv_pos_site_id
_symmetry_equiv_pos_as_xyz
1 x,y,z
2 1/2+x,1/2+y,z
3 -x,y,-z
4 1/2-x,1/2+y,-z
5 -x,-y,-z
6 -1/2-x,-1/2-y,-z
7 x,-y,z
8 -1/2+x,-1/2-y,z
_cell_length_a 7.0116(4)
_cell_length_b 10.0523(7)
_cell_length_c 9.8912(7)
_cell_angle_alpha 90
_cell_angle_beta 104.211(3)
_cell_angle_gamma 90
_cell_formula_units_Z 2
loop_
_atom_type_symbol
_atom_type_radius_bond
C 0.68
H 0.23
B 0.83
Fe 1.34
O 0.68
loop_
_atom_site_label
_atom_site_type_symbol
_atom_site_fract_x
_atom_site_fract_y
_atom_site_fract_z
C1 C 0.2773(4) 0.0698(4) 0.0803(3)
H1 H 0.34970 0.12520 0.03300
C2 C 0.1514(4) 0.1140(3) 0.1625(3)
H2 H 0.12590 0.20420 0.18070
C3 C 0.0683(5) 0.00000 0.2141(4)
C4 C -0.3129(5) -0.0755(4) 0.4109(3)
H3 H -0.27640 -0.11040 0.50740
H4 H -0.44430 -0.11040 0.36340
B1 B -0.0923(6) 0.00000 0.2957(5)
Fe1 Fe 0.00000 0.00000 0.00000
O1 O -0.1682(3) -0.1128(2) 0.3362(2)
C1F C 0.2773(4) -0.0698(4) 0.0803(3)
C1D C -0.2773(4) -0.0698(4) -0.0803(3)
C1B C -0.2773(4) 0.0698(4) -0.0803(3)
H1F H 0.34970 -0.12520 0.03300
H1B H -0.34970 0.12520 -0.03300
H1D H -0.34970 -0.12520 -0.03300
C2F C 0.1514(4) -0.1140(3) 0.1625(3)
C2B C -0.1514(4) 0.1140(3) -0.1625(3)
C2D C -0.1514(4) -0.1140(3) -0.1625(3)
H2F H 0.12590 -0.20420 0.18070
H2B H -0.12590 0.20420 -0.18070
H2D H -0.12590 -0.20420 -0.18070
C3D C -0.0683(5) 0.00000 -0.2141(4)
C4F C -0.3129(5) 0.0755(4) 0.4109(3)
C4B C 0.3129(5) -0.0755(4) -0.4109(3)
C4D C 0.3129(5) 0.0755(4) -0.4109(3)
H3F H -0.27640 0.11040 0.50740
H3B H 0.27640 -0.11040 -0.50740
H3D H 0.27640 0.11040 -0.50740
H4F H -0.44430 0.11040 0.36340
H4B H 0.44430 -0.11040 -0.36340
H4D H 0.44430 0.11040 -0.36340
B1D B 0.0923(6) 0.00000 -0.2957(5)
O1F O -0.1682(3) 0.1128(2) 0.3362(2)
O1B O 0.1682(3) -0.1128(2) -0.3362(2)
O1D O 0.1682(3) 0.1128(2) -0.3362(2)
#END
