
#######################################################################
#
#                 Cambridge Crystallographic Data Centre
#                                CCDC
#
#######################################################################
#
# If this CIF has been generated from an entry in the Cambridge
# Structural Database, then it will include bibliographic, chemical,
# crystal, experimental, refinement or atomic coordinate data resulting
# from the CCDC's data processing and validation procedures.
#
#######################################################################

data_CSD_CIF_YEQKUD
_audit_creation_date 2018-01-29
_audit_creation_method CSD-ConQuest-V1
_database_code_CSD YEQKUD
_database_code_depnum_ccdc_archive 'CCDC 1479585'
_chemical_formula_sum 'C18 H32 Fe1 N18 S2'
_chemical_formula_moiety
;
C18 H32 Fe1 N18 S2
;
_journal_coden_Cambridge 1290
_journal_year 2018
_journal_page_first 394
_journal_name_full 'Eur.J.Inorg.Chem. '
loop_
_publ_author_name
"V.Smeets"
"M.Wolff"
"J.A.Wolny"
"V.Schunemann"
"M.M.Dirtu"
"Jun-Yi Ge"
"J.Vanacken"
"V.Moshchalkov"
"Yann Garcia"
_chemical_name_systematic
;
tetrakis(1-isopropyl-1H-tetrazole)-bis(isothiocyanato)-iron(ii)
;
_cell_volume    763.636
_exptl_crystal_colour 'red'
_exptl_crystal_density_diffrn 1.349
_exptl_special_details
;
triclinic P-1 polymorph

;
_exptl_crystal_description 'block'
_diffrn_ambient_temperature 293
#These two values have been output from a single CSD field.
_refine_ls_R_factor_gt 0.045
_refine_ls_wR_factor_gt 0.045
_symmetry_cell_setting triclinic
_symmetry_space_group_name_H-M 'P -1'
_symmetry_Int_Tables_number 2
loop_
_symmetry_equiv_pos_site_id
_symmetry_equiv_pos_as_xyz
1 x,y,z
2 -x,-y,-z
_cell_length_a 6.7647(4)
_cell_length_b 10.7337(15)
_cell_length_c 10.7872(16)
_cell_angle_alpha 90.311(12)
_cell_angle_beta 102.65(1)
_cell_angle_gamma 92.149(9)
_cell_formula_units_Z 1
loop_
_atom_type_symbol
_atom_type_radius_bond
C 0.68
H 0.23
Fe 1.52
N 0.68
S 1.02
loop_
_atom_site_label
_atom_site_type_symbol
_atom_site_fract_x
_atom_site_fract_y
_atom_site_fract_z
Fe1 Fe 0.50000 0.50000 0.50000
N1 N 0.2856(3) 0.4208(2) 0.3297(2)
N2 N 0.3285(3) 0.3564(2) 0.2307(2)
N3 N 0.1626(4) 0.3175(3) 0.1529(2)
N4 N 0.0077(3) 0.3581(2) 0.2013(2)
C1 C 0.0858(4) 0.4198(3) 0.3078(3)
H1 H 0.01120 0.45700 0.35970
C2 C -0.2069(4) 0.3337(3) 0.1345(3)
H2 H -0.29250 0.37120 0.18590
C3 C -0.2569(5) 0.1957(3) 0.1258(4)
H3 H -0.17200 0.15600 0.07800
H4 H -0.39660 0.18120 0.08400
H5 H -0.23400 0.16190 0.20970
C4 C -0.2466(5) 0.3976(4) 0.0077(4)
H6 H -0.21790 0.48560 0.02060
H7 H -0.38610 0.38320 -0.03440
H8 H -0.16100 0.36480 -0.04370
N5 N 0.6708(3) 0.3243(2) 0.5322(2)
N6 N 0.7678(4) 0.2727(2) 0.4489(3)
N7 N 0.8327(4) 0.1647(2) 0.4885(3)
N8 N 0.7781(3) 0.1449(2) 0.5990(2)
C5 C 0.6806(4) 0.2431(3) 0.6239(3)
H9 H 0.62700 0.25330 0.69560
C6 C 0.8331(5) 0.0278(3) 0.6691(3)
H10 H 0.97990 0.01950 0.68160
C7 C 0.7283(5) -0.0824(3) 0.5902(4)
H11 H 0.58570 -0.08300 0.58810
H12 H 0.78350 -0.15820 0.62710
H13 H 0.74930 -0.07590 0.50520
C8 C 0.7818(7) 0.0365(4) 0.7974(4)
H14 H 0.85620 0.10610 0.84420
H15 H 0.81740 -0.03890 0.84300
H16 H 0.63910 0.04780 0.78710
N9 N 0.3097(4) 0.4248(2) 0.6128(3)
C9 C 0.2740(4) 0.3582(3) 0.6906(3)
S1 S 0.22629(16) 0.26669(12) 0.7987(1)
N1A N 0.7144(3) 0.5792(2) 0.6703(2)
N2A N 0.6715(3) 0.6436(2) 0.7693(2)
N3A N 0.8374(4) 0.6825(3) 0.8471(2)
N4A N 0.9923(3) 0.6419(2) 0.7987(2)
C1A C 0.9142(4) 0.5802(3) 0.6922(3)
H1A H 0.98880 0.54300 0.64030
C2A C 1.2069(4) 0.6663(3) 0.8655(3)
H2A H 1.29250 0.62880 0.81410
C3A C 1.2569(5) 0.8043(3) 0.8742(4)
H3A H 1.17200 0.84400 0.92200
H4A H 1.39660 0.81880 0.91600
H5A H 1.23400 0.83810 0.79030
C4A C 1.2466(5) 0.6024(4) 0.9923(4)
H6A H 1.21790 0.51440 0.97940
H7A H 1.38610 0.61680 1.03440
H8A H 1.16100 0.63520 1.04370
N5A N 0.3292(3) 0.6757(2) 0.4678(2)
N6A N 0.2322(4) 0.7273(2) 0.5511(3)
N7A N 0.1673(4) 0.8353(2) 0.5115(3)
N8A N 0.2219(3) 0.8551(2) 0.4010(2)
C5A C 0.3194(4) 0.7569(3) 0.3761(3)
H9A H 0.37300 0.74670 0.30440
C6A C 0.1669(5) 0.9722(3) 0.3309(3)
H10A H 0.02010 0.98050 0.31840
C7A C 0.2717(5) 1.0824(3) 0.4098(4)
H11A H 0.41430 1.08300 0.41190
H12A H 0.21650 1.15820 0.37290
H13A H 0.25070 1.07590 0.49480
C8A C 0.2182(7) 0.9635(4) 0.2026(4)
H14A H 0.14380 0.89390 0.15580
H15A H 0.18260 1.03890 0.15700
H16A H 0.36090 0.95220 0.21290
N9A N 0.6903(4) 0.5752(2) 0.3872(3)
C9A C 0.7260(4) 0.6418(3) 0.3094(3)
S1A S 0.77371(16) 0.73331(12) 0.2013(1)
#END
