
#######################################################################
#
#                 Cambridge Crystallographic Data Centre
#                                CCDC
#
#######################################################################
#
# If this CIF has been generated from an entry in the Cambridge
# Structural Database, then it will include bibliographic, chemical,
# crystal, experimental, refinement or atomic coordinate data resulting
# from the CCDC's data processing and validation procedures.
#
#######################################################################

data_CSD_CIF_YEQPEQ
_audit_creation_date 2006-12-18
_audit_creation_method CSD-ConQuest-V1
_database_code_CSD YEQPEQ
_database_code_depnum_ccdc_archive 'CCDC 623611'
_chemical_formula_sum 'C38 H44 Fe1 N4 O2'
_chemical_formula_moiety
;
C38 H44 Fe1 N4 O2
;
_journal_coden_Cambridge 9
_journal_volume 45
_journal_year 2006
_journal_page_first 7050
_journal_name_full 'Inorg.Chem. '
loop_
_publ_author_name
"N.J.Silvernail"
"B.C.Noll"
"C.E.Schulz"
"W.R.Scheidt"
_chemical_name_systematic
;
dicarbonyl-(2,3,7,8,12,13,17,18-octaethylporphyrinato)-iron(iii)
;
_cell_volume    789.503
_exptl_crystal_colour 'dark red'
_exptl_crystal_density_diffrn 1.356
_exptl_crystal_description 'block'
_exptl_crystal_preparation 'benzene/hexane'
_diffrn_ambient_temperature 100
#These two values have been output from a single CSD field.
_refine_ls_R_factor_gt 0.0329
_refine_ls_wR_factor_gt 0.0329
_symmetry_cell_setting triclinic
_symmetry_space_group_name_H-M 'P -1'
_symmetry_Int_Tables_number 2
loop_
_symmetry_equiv_pos_site_id
_symmetry_equiv_pos_as_xyz
1 x,y,z
2 -x,-y,-z
_cell_length_a 8.6165(2)
_cell_length_b 10.1648(2)
_cell_length_c 10.4369(2)
_cell_angle_alpha 81.245(1)
_cell_angle_beta 67.287(1)
_cell_angle_gamma 69.466(1)
_cell_formula_units_Z 1
loop_
_atom_type_symbol
_atom_type_radius_bond
C 0.68
H 0.23
Fe 1.34
N 0.68
O 0.68
loop_
_atom_site_label
_atom_site_type_symbol
_atom_site_fract_x
_atom_site_fract_y
_atom_site_fract_z
Fe1 Fe 0.50000 0.50000 0.50000
N1 N 0.56919(10) 0.29160(8) 0.53950(8)
N2 N 0.39155(10) 0.53624(8) 0.70538(8)
C1 C 0.70407(12) 0.20635(9) 0.30187(9)
H1 H 0.75990 0.12480 0.24660
C2 C 0.45048(12) 0.29399(9) 0.79390(9)
H2 H 0.43510 0.23650 0.87560
C3 C 0.65303(11) 0.18543(9) 0.44469(9)
C4 C 0.53363(11) 0.22598(9) 0.66770(9)
C5 C 0.38776(11) 0.43807(9) 0.81170(9)
C6 C 0.31886(11) 0.66471(9) 0.76766(9)
C7 C 0.67248(11) 0.04901(9) 0.51488(9)
C8 C 0.59642(12) 0.07481(9) 0.65371(9)
C9 C 0.31163(11) 0.50607(9) 0.94506(9)
C10 C 0.27025(11) 0.64699(9) 0.91684(9)
C11 C 0.76016(12) -0.09150(9) 0.44663(10)
H3 H 0.74420 -0.08190 0.35630
H4 H 0.70020 -0.15830 0.50560
C12 C 0.95845(14) -0.15239(11) 0.42214(12)
H5 H 1.00800 -0.24280 0.37600
H6 H 0.97530 -0.16610 0.51150
H7 H 1.01920 -0.08730 0.36330
C13 C 0.57875(13) -0.02948(10) 0.77189(10)
H8 H 0.59100 -0.11970 0.73790
H9 H 0.45870 0.00490 0.84350
C14 C 0.71750(15) -0.05488(11) 0.83804(11)
H10 H 0.69710 -0.12050 0.91710
H11 H 0.70780 0.03440 0.87010
H12 H 0.83650 -0.09480 0.76920
C15 C 0.28627(12) 0.43414(10) 1.08481(9)
H13 H 0.31420 0.48480 1.14260
H14 H 0.37120 0.33740 1.07270
C16 C 0.09782(14) 0.42709(12) 1.16169(11)
H15 H 0.09070 0.37670 1.25060
H16 H 0.06880 0.37740 1.10510
H17 H 0.01330 0.52260 1.17860
C17 C 0.19253(13) 0.76396(10) 1.01757(9)
H18 H 0.24900 0.83760 0.97550
H19 H 0.22080 0.72720 1.10220
C18 C -0.00884(14) 0.83026(11) 1.05916(11)
H20 H -0.05100 0.90810 1.12190
H21 H -0.06640 0.75940 1.10640
H22 H -0.03820 0.86570 0.97580
C19 C 0.70700(13) 0.51143(10) 0.50671(10)
O1 O 0.82292(12) 0.52755(11) 0.51872(11)
N1A N 0.43081(10) 0.70840(8) 0.46050(8)
N2A N 0.60845(10) 0.46376(8) 0.29462(8)
C1A C 0.29593(12) 0.79365(9) 0.69813(9)
H1A H 0.24010 0.87520 0.75340
C2A C 0.54952(12) 0.70601(9) 0.20610(9)
H2A H 0.56490 0.76350 0.12440
C3A C 0.34697(11) 0.81457(9) 0.55531(9)
C4A C 0.46637(11) 0.77402(9) 0.33230(9)
C5A C 0.61224(11) 0.56193(9) 0.18830(9)
C6A C 0.68114(11) 0.33529(9) 0.23234(9)
C7A C 0.32752(11) 0.95099(9) 0.48512(9)
C8A C 0.40358(12) 0.92519(9) 0.34629(9)
C9A C 0.68837(11) 0.49393(9) 0.05494(9)
C10A C 0.72975(11) 0.35301(9) 0.08316(9)
C11A C 0.23984(12) 1.09150(9) 0.55337(10)
H3A H 0.25580 1.08190 0.64370
H4A H 0.29980 1.15830 0.49440
C12A C 0.04155(14) 1.15239(11) 0.57786(12)
H5A H -0.00800 1.24280 0.62400
H6A H 0.02470 1.16610 0.48850
H7A H -0.01920 1.08730 0.63670
C13A C 0.42125(13) 1.02948(10) 0.22811(10)
H8A H 0.40900 1.11970 0.26210
H9A H 0.54130 0.99510 0.15650
C14A C 0.28250(15) 1.05488(11) 0.16196(11)
H10A H 0.30290 1.12050 0.08290
H11A H 0.29220 0.96560 0.12990
H12A H 0.16350 1.09480 0.23080
C15A C 0.71373(12) 0.56586(10) -0.08481(9)
H13A H 0.68580 0.51520 -0.14260
H14A H 0.62880 0.66260 -0.07270
C16A C 0.90218(14) 0.57291(12) -0.16169(11)
H15A H 0.90930 0.62330 -0.25060
H16A H 0.93120 0.62260 -0.10510
H17A H 0.98670 0.47740 -0.17860
C17A C 0.80747(13) 0.23604(10) -0.01757(9)
H18A H 0.75100 0.16240 0.02450
H19A H 0.77920 0.27280 -0.10220
C18A C 1.00884(14) 0.16974(11) -0.05916(11)
H20A H 1.05100 0.09190 -0.12190
H21A H 1.06640 0.24060 -0.10640
H22A H 1.03820 0.13430 0.02420
C19A C 0.29300(13) 0.48857(10) 0.49329(10)
O1A O 0.17708(12) 0.47245(11) 0.48128(11)
#END
