
#######################################################################
#
#                 Cambridge Crystallographic Data Centre
#                                CCDC
#
#######################################################################
#
# If this CIF has been generated from an entry in the Cambridge
# Structural Database, then it will include bibliographic, chemical,
# crystal, experimental, refinement or atomic coordinate data resulting
# from the CCDC's data processing and validation procedures.
#
#######################################################################

data_CSD_CIF_YIBQIK
_audit_creation_date 2007-07-26
_audit_creation_method CSD-ConQuest-V1
_database_code_CSD YIBQIK
_database_code_depnum_ccdc_archive 'CCDC 622111'
_chemical_formula_sum 'C32 H54 Cl1 Co1 N6 O7'
_chemical_formula_moiety
;
C32 H48 Co1 N6 O4 1+,Cl1 1-,3(H2 O1)
;
_journal_coden_Cambridge 580
_journal_volume 26
_journal_year 2007
_journal_page_first 1693
_journal_name_full 'Polyhedron '
loop_
_publ_author_name
"Ki-Young Choi"
"Hee-Kune Lee"
"Haiil Ryu"
_chemical_name_systematic
;
(trans-(R,R,S,S)-3,14-Dimethyl-2,6,13,17-tetra-azatricyclo(16.4.0.0^7,12^)doco
sane)-bis(isonicotinato)-cobalt(iii) chloride trihydrate
;
_cell_volume    851.208
_exptl_crystal_colour 'pink'
_exptl_crystal_density_diffrn 1.423
_exptl_crystal_description 'block'
_exptl_crystal_preparation 'water/acetonitrile'
_diffrn_ambient_temperature 293
#These two values have been output from a single CSD field.
_refine_ls_R_factor_gt 0.0357
_refine_ls_wR_factor_gt 0.0357
_symmetry_cell_setting triclinic
_symmetry_space_group_name_H-M 'P 1'
_symmetry_Int_Tables_number 1
loop_
_symmetry_equiv_pos_site_id
_symmetry_equiv_pos_as_xyz
1 x,y,z
_cell_length_a 9.5875(8)
_cell_length_b 10.2985(9)
_cell_length_c 10.9361(9)
_cell_angle_alpha 64.004(1)
_cell_angle_beta 66.314(1)
_cell_angle_gamma 65.613(1)
_cell_formula_units_Z 1
loop_
_atom_type_symbol
_atom_type_radius_bond
C 0.68
H 0.23
Cl 0.99
Co 1.33
N 0.68
O 0.68
loop_
_atom_site_label
_atom_site_type_symbol
_atom_site_fract_x
_atom_site_fract_y
_atom_site_fract_z
Co1 Co 0.8610(1) 0.39927(9) 0.74538(9)
Cl1 Cl 0.5983(2) 0.2765(2) 0.19852(19)
O1 O 0.9364(4) 0.5716(4) 0.6187(3)
O2 O 0.7565(5) 0.7256(5) 0.4947(4)
O3 O 0.7850(4) 0.2266(3) 0.8735(3)
O4 O 0.9660(5) 0.0708(4) 0.9977(4)
O5 O 1.4330(7) 0.5187(6) 0.3375(5)
H1 H 1.345(6) 0.538(5) 0.316(5)
H2 H 1.474(7) 0.575(7) 0.325(6)
O6 O 1.2923(7) 0.2819(6) 0.1512(6)
H3 H 1.270(7) 0.201(7) 0.207(6)
H4 H 1.242(6) 0.340(6) 0.184(6)
O7 O 1.1209(2) 0.5271(2) 0.2848(2)
N1 N 0.6678(5) 0.4740(4) 0.6807(4)
H5 H 0.67470 0.56160 0.60810
N2 N 0.7204(4) 0.4989(4) 0.8912(4)
H6 H 0.68840 0.42250 0.96750
N3 N 1.0527(4) 0.3247(4) 0.8126(4)
H7 H 1.04450 0.23710 0.88500
N4 N 1.0020(4) 0.2993(4) 0.5989(4)
H8 H 1.03430 0.37560 0.52260
N5 N 1.1498(6) 1.0159(5) 0.3111(5)
N6 N 0.5712(6) -0.2154(6) 1.1784(5)
C1 C 0.5270(5) 0.5167(5) 0.7936(5)
H9 H 0.50520 0.42490 0.86930
C2 C 0.3779(6) 0.6156(6) 0.7407(6)
H10 H 0.40020 0.70420 0.66240
H11 H 0.34920 0.55960 0.70720
C3 C 0.2413(6) 0.6634(6) 0.8583(6)
H12 H 0.21120 0.57520 0.93110
H13 H 0.15060 0.73130 0.82140
C4 C 0.2838(6) 0.7433(6) 0.9248(6)
H14 H 0.29750 0.83980 0.85650
H15 H 0.19730 0.76200 1.00610
C5 C 0.4364(6) 0.6466(6) 0.9705(6)
H16 H 0.46620 0.70270 1.00300
H17 H 0.41740 0.55680 1.04870
C6 C 0.5718(5) 0.6006(5) 0.8511(5)
H18 H 0.59400 0.69190 0.77480
C7 C 0.7846(6) 0.5649(6) 0.9495(5)
H19 H 0.70510 0.57680 1.03760
C8 C 0.8018(6) 0.7193(6) 0.8569(5)
H20 H 0.70240 0.78480 0.83630
H21 H 0.88240 0.71320 0.77030
H22 H 0.83150 0.75880 0.90470
C9 C 0.9330(6) 0.4528(5) 0.9907(5)
H23 H 0.96290 0.49080 1.04070
H24 H 0.90860 0.35930 1.05610
C10 C 1.0719(6) 0.4188(6) 0.8720(5)
H25 H 1.08590 0.51270 0.79810
H26 H 1.16690 0.36660 0.90510
C11 C 1.1963(6) 0.2796(5) 0.7000(5)
H27 H 1.21910 0.37090 0.62430
C12 C 1.3451(6) 0.1788(6) 0.7499(6)
H28 H 1.32330 0.08900 0.82650
H29 H 1.37550 0.23200 0.78510
C13 C 1.4828(6) 0.1334(7) 0.6267(6)
H30 H 1.50800 0.22320 0.55240
H31 H 1.57670 0.06880 0.66000
C14 C 1.4403(6) 0.0525(6) 0.5683(6)
H32 H 1.42470 -0.04200 0.63990
H33 H 1.52690 0.02950 0.48870
C15 C 1.2889(6) 0.1480(6) 0.5206(6)
H34 H 1.25880 0.09030 0.49000
H35 H 1.30850 0.23670 0.44090
C16 C 1.1516(5) 0.1972(5) 0.6421(5)
H36 H 1.12820 0.10650 0.71860
C17 C 0.9437(5) 0.2307(5) 0.5401(5)
H37 H 1.02420 0.21700 0.45300
C18 C 0.9187(6) 0.0747(5) 0.6386(5)
H38 H 1.01550 0.00710 0.66310
H39 H 0.88930 0.03480 0.59080
H40 H 0.83560 0.08520 0.72280
C19 C 0.7915(6) 0.3451(6) 0.4992(5)
H41 H 0.76160 0.30800 0.44840
H42 H 0.81500 0.43930 0.43490
C20 C 0.6480(5) 0.3779(5) 0.6235(5)
H43 H 0.55190 0.42830 0.59190
H44 H 0.63650 0.28350 0.69770
C21 C 0.8819(6) 0.6931(5) 0.5240(5)
C22 C 0.9777(6) 0.8034(5) 0.4500(5)
C23 C 0.9180(7) 0.9464(6) 0.3584(6)
H45 H 0.81970 0.97390 0.34260
C24 C 1.0110(8) 1.0462(7) 0.2914(6)
H46 H 0.97250 1.13990 0.22900
C25 C 1.2067(7) 0.8826(6) 0.3947(6)
H47 H 1.30550 0.86120 0.40680
C26 C 1.1273(6) 0.7657(6) 0.4700(6)
H48 H 1.17240 0.67160 0.52800
C27 C 0.8430(5) 0.1065(5) 0.9668(4)
C28 C 0.7434(6) -0.0036(5) 1.0423(5)
C29 C 0.5991(6) 0.0261(6) 1.0219(5)
H49 H 0.55720 0.11890 0.96030
C30 C 0.5181(6) -0.0759(6) 1.0889(5)
H50 H 0.42000 -0.05000 1.07350
C31 C 0.7138(7) -0.2442(6) 1.1958(6)
H51 H 0.75620 -0.33910 1.25450
C32 C 0.8008(7) -0.1424(6) 1.1325(6)
H52 H 0.89710 -0.16770 1.15080
#END
