
#######################################################################
#
#                 Cambridge Crystallographic Data Centre
#                                CCDC
#
#######################################################################
#
# If this CIF has been generated from an entry in the Cambridge
# Structural Database, then it will include bibliographic, chemical,
# crystal, experimental, refinement or atomic coordinate data resulting
# from the CCDC's data processing and validation procedures.
#
#######################################################################

data_CSD_CIF_YICNII
_audit_creation_date 2007-07-26
_audit_creation_method CSD-ConQuest-V1
_database_code_CSD YICNII
_database_code_depnum_ccdc_archive 'CCDC 646740'
_chemical_formula_sum 'C26 H24 Cl2 Co1 N4 O8'
_chemical_formula_moiety
;
C26 H24 Cl2 Co1 N4 O8
;
_journal_coeditor_code "IUCr BI2184"
_journal_coden_Cambridge 1370
_journal_volume 63
_journal_year 2007
_journal_page_first m1344
_journal_name_full 'Acta Crystallogr.,Sect.E:Struct.Rep.Online '
loop_
_publ_author_name
"N.Caylak"
"T.Hokelek"
"F.E.Ozturkkan"
"H.Necefoglu"
_chemical_name_systematic
;
Diaqua-bis(4-chlorobenzoato-O)-bis(nicotinamide-N)-cobalt(ii)
;
_cell_volume    707.131
_exptl_crystal_colour 'pink'
_exptl_crystal_density_diffrn 1.527
_exptl_crystal_description 'block'
_exptl_crystal_preparation 'water'
_diffrn_ambient_temperature 294
#These two values have been output from a single CSD field.
_refine_ls_R_factor_gt 0.0463
_refine_ls_wR_factor_gt 0.0463
_symmetry_cell_setting triclinic
_symmetry_space_group_name_H-M 'P -1'
_symmetry_Int_Tables_number 2
loop_
_symmetry_equiv_pos_site_id
_symmetry_equiv_pos_as_xyz
1 x,y,z
2 -x,-y,-z
_cell_length_a 7.5945(2)
_cell_length_b 9.9333(2)
_cell_length_c 10.0701(3)
_cell_angle_alpha 78.90(1)
_cell_angle_beta 86.84(1)
_cell_angle_gamma 71.55(2)
_cell_formula_units_Z 1
loop_
_atom_type_symbol
_atom_type_radius_bond
C 0.68
H 0.23
Cl 0.99
Co 1.33
N 0.68
O 0.68
loop_
_atom_site_label
_atom_site_type_symbol
_atom_site_fract_x
_atom_site_fract_y
_atom_site_fract_z
Co1 Co 0.00000 0.00000 0.00000
Cl1 Cl 0.5134(2) 0.28058(17) 0.59966(15)
O1 O 0.1221(3) 0.0178(2) 0.1724(2)
O2 O -0.1240(3) 0.1524(3) 0.2693(3)
O3 O 0.4335(3) 0.3400(3) -0.0097(3)
O4 O 0.2730(3) -0.0739(3) -0.0791(3)
H1 H 0.365(5) -0.159(3) -0.038(4)
H2 H 0.233(7) -0.095(5) -0.153(4)
N1 N -0.0034(3) 0.2141(3) -0.0932(3)
N2 N 0.3289(5) 0.5587(3) -0.1394(4)
H3 H 0.247(4) 0.635(3) -0.192(4)
H4 H 0.419(4) 0.585(4) -0.110(4)
C1 C 0.0477(4) 0.0947(3) 0.2576(3)
C2 C 0.1703(4) 0.1280(3) 0.3502(3)
C3 C 0.3526(5) 0.1185(4) 0.3151(3)
H5 H 0.40390 0.08030 0.23930
C4 C 0.4580(5) 0.1653(4) 0.3917(4)
H6 H 0.57910 0.16110 0.36680
C5 C 0.3828(5) 0.2177(4) 0.5045(4)
C6 C 0.2054(6) 0.2217(5) 0.5455(4)
H7 H 0.15820 0.25350 0.62510
C7 C 0.0995(5) 0.1782(5) 0.4672(4)
H8 H -0.02140 0.18250 0.49300
C8 C -0.1421(5) 0.3068(4) -0.1721(4)
H9 H -0.24210 0.27720 -0.18850
C9 C -0.1427(5) 0.4436(4) -0.2297(4)
H10 H -0.24180 0.50570 -0.28380
C10 C 0.0049(5) 0.4880(4) -0.2067(4)
H11 H 0.00690 0.58050 -0.24500
C11 C 0.1499(4) 0.3941(3) -0.1261(3)
C12 C 0.1394(4) 0.2579(3) -0.0716(3)
H12 H 0.23690 0.19370 -0.01730
C13 C 0.3163(5) 0.4294(4) -0.0881(4)
Cl1A Cl -0.5134(2) -0.28058(17) -0.59966(15)
O1A O -0.1221(3) -0.0178(2) -0.1724(2)
O2A O 0.1240(3) -0.1524(3) -0.2693(3)
O3A O -0.4335(3) -0.3400(3) 0.0097(3)
O4A O -0.2730(3) 0.0739(3) 0.0791(3)
H1A H -0.365(5) 0.159(3) 0.038(4)
H2A H -0.233(7) 0.095(5) 0.153(4)
N1A N 0.0034(3) -0.2141(3) 0.0932(3)
N2A N -0.3289(5) -0.5587(3) 0.1394(4)
H3A H -0.247(4) -0.635(3) 0.192(4)
H4A H -0.419(4) -0.585(4) 0.110(4)
C1A C -0.0477(4) -0.0947(3) -0.2576(3)
C2A C -0.1703(4) -0.1280(3) -0.3502(3)
C3A C -0.3526(5) -0.1185(4) -0.3151(3)
H5A H -0.40390 -0.08030 -0.23930
C4A C -0.4580(5) -0.1653(4) -0.3917(4)
H6A H -0.57910 -0.16110 -0.36680
C5A C -0.3828(5) -0.2177(4) -0.5045(4)
C6A C -0.2054(6) -0.2217(5) -0.5455(4)
H7A H -0.15820 -0.25350 -0.62510
C7A C -0.0995(5) -0.1782(5) -0.4672(4)
H8A H 0.02140 -0.18250 -0.49300
C8A C 0.1421(5) -0.3068(4) 0.1721(4)
H9A H 0.24210 -0.27720 0.18850
C9A C 0.1427(5) -0.4436(4) 0.2297(4)
H10A H 0.24180 -0.50570 0.28380
C10A C -0.0049(5) -0.4880(4) 0.2067(4)
H11A H -0.00690 -0.58050 0.24500
C11A C -0.1499(4) -0.3941(3) 0.1261(3)
C12A C -0.1394(4) -0.2579(3) 0.0716(3)
H12A H -0.23690 -0.19370 0.01730
C13A C -0.3163(5) -0.4294(4) 0.0881(4)
#END
