
#######################################################################
#
#                 Cambridge Crystallographic Data Centre
#                                CCDC
#
#######################################################################
#
# If this CIF has been generated from an entry in the Cambridge
# Structural Database, then it will include bibliographic, chemical,
# crystal, experimental, refinement or atomic coordinate data resulting
# from the CCDC's data processing and validation procedures.
#
#######################################################################

data_CSD_CIF_YIJQIT
_audit_creation_date 2013-10-31
_audit_creation_method CSD-ConQuest-V1
_database_code_CSD YIJQIT
_database_code_depnum_ccdc_archive 'CCDC 866526'
_chemical_formula_sum 'C16 H22 Cl2 Fe1 N2 S2'
_chemical_formula_moiety
;
C16 H22 Cl2 Fe1 N2 S2
;
_journal_coden_Cambridge 702
_journal_volume 29
_journal_year 2013
_journal_page_first 2205
_journal_name_full 'Wuji Huaxue Xuebao(Chin.)(Chin.J.Inorg.Chem.) '
loop_
_publ_author_name
"Jian Liu"
"Zhen-Hong Wei"
"Wei Zhong"
"Wen-Ming Liu"
"Xiao Liu"
"Xiao-Ming Liu"
_chemical_name_systematic
;
Dichloro-bis(2-((ethylsulfanyl)methyl)pyridine)-iron(ii)
;
_cell_volume   1004.815
_exptl_crystal_density_diffrn 1.432
_exptl_crystal_description 'block'
_diffrn_ambient_temperature 296
#These two values have been output from a single CSD field.
_refine_ls_R_factor_gt 0.0265
_refine_ls_wR_factor_gt 0.0265
_symmetry_cell_setting triclinic
_symmetry_space_group_name_H-M 'P -1'
_symmetry_Int_Tables_number 2
loop_
_symmetry_equiv_pos_site_id
_symmetry_equiv_pos_as_xyz
1 x,y,z
2 -x,-y,-z
_cell_length_a 8.377(3)
_cell_length_b 8.875(3)
_cell_length_c 15.620(5)
_cell_angle_alpha 75.357(4)
_cell_angle_beta 87.436(4)
_cell_angle_gamma 63.765(3)
_cell_formula_units_Z 2
loop_
_atom_type_symbol
_atom_type_radius_bond
C 0.68
H 0.23
Cl 0.99
Fe 1.52
N 0.68
S 1.02
loop_
_atom_site_label
_atom_site_type_symbol
_atom_site_fract_x
_atom_site_fract_y
_atom_site_fract_z
Fe1 Fe 1.00000 0.50000 0.50000
S1 S 1.24364(5) 0.34546(5) 0.40293(3)
Cl1 Cl 0.81095(5) 0.46246(5) 0.40378(3)
N1 N 1.00677(16) 0.72408(16) 0.39928(8)
C1 C 0.9505(2) 0.8802(2) 0.41606(11)
H1 H 0.89670 0.89630 0.46860
C2 C 0.9684(3) 1.0179(2) 0.35925(14)
H2 H 0.92760 1.12430 0.37300
C3 C 1.0482(3) 0.9936(3) 0.28168(15)
H3 H 1.06230 1.08380 0.24200
C4 C 1.1068(3) 0.8349(3) 0.26342(13)
H4 H 1.16080 0.81670 0.21120
C5 C 1.0846(2) 0.7016(2) 0.3236(1)
C6 C 1.1471(3) 0.5263(2) 0.30574(11)
H5 H 1.23510 0.51370 0.26210
H6 H 1.04660 0.52150 0.28020
C7 C 1.4475(2) 0.3573(3) 0.42522(14)
H7 H 1.51760 0.34720 0.37400
H8 H 1.41890 0.46880 0.43640
C8 C 1.5538(3) 0.2123(3) 0.50500(17)
H9 H 1.48470 0.22410 0.55580
H10 H 1.66220 0.21830 0.51640
H11 H 1.58200 0.10230 0.49360
Fe2 Fe 0.50000 1.00000 0.00000
S2 S 0.70058(6) 0.82244(6) 0.14530(3)
Cl2 Cl 0.76375(6) 0.83211(6) -0.06910(3)
N2 N 0.42942(19) 0.78441(18) 0.04121(9)
C9 C 0.2757(2) 0.7989(3) 0.00871(12)
H12 H 0.20060 0.90250 -0.03130
C10 C 0.2248(3) 0.6670(3) 0.03213(14)
H13 H 0.11790 0.68090 0.00820
C11 C 0.3355(3) 0.5144(3) 0.09164(14)
H14 H 0.30560 0.42230 0.10780
C12 C 0.4899(3) 0.4994(2) 0.12677(13)
H15 H 0.56470 0.39770 0.16800
C13 C 0.5348(2) 0.6366(2) 0.10066(11)
C14 C 0.7070(3) 0.6208(2) 0.13699(13)
H16 H 0.80040 0.57100 0.09920
H17 H 0.73900 0.54030 0.19550
C15 C 0.5592(3) 0.8659(3) 0.23618(12)
H18 H 0.44070 0.88400 0.21950
H19 H 0.60830 0.76720 0.28780
C16 C 0.5483(4) 1.0256(3) 0.25815(17)
H20 H 0.66520 1.00510 0.27730
H21 H 0.47010 1.05130 0.30480
H22 H 0.50280 1.12220 0.20640
S1A S 0.75636(5) 0.65454(5) 0.59707(3)
Cl1A Cl 1.18905(5) 0.53754(5) 0.59622(3)
N1A N 0.99323(16) 0.27592(16) 0.60072(8)
C1A C 1.0495(2) 0.1198(2) 0.58394(11)
H1A H 1.10330 0.10370 0.53140
C2A C 1.0316(3) -0.0179(2) 0.64075(14)
H2A H 1.07240 -0.12430 0.62700
C3A C 0.9518(3) 0.0064(3) 0.71832(15)
H3A H 0.93770 -0.08380 0.75800
C4A C 0.8932(3) 0.1651(3) 0.73658(13)
H4A H 0.83920 0.18330 0.78880
C5A C 0.9154(2) 0.2984(2) 0.6764(1)
C6A C 0.8529(3) 0.4737(2) 0.69426(11)
H5A H 0.76490 0.48630 0.73790
H6A H 0.95340 0.47850 0.71980
C7A C 0.5525(2) 0.6427(3) 0.57478(14)
H7A H 0.48240 0.65280 0.62600
H8A H 0.58110 0.53120 0.56360
C8A C 0.4462(3) 0.7877(3) 0.49500(17)
H9A H 0.51530 0.77590 0.44420
H10A H 0.33780 0.78170 0.48360
H11A H 0.41800 0.89770 0.50640
S2A S 0.29942(6) 1.17756(6) -0.14530(3)
Cl2A Cl 0.23625(6) 1.16789(6) 0.06910(3)
N2A N 0.57058(19) 1.21559(18) -0.04121(9)
C9A C 0.7243(2) 1.2011(3) -0.00871(12)
H12A H 0.79940 1.09750 0.03130
C10A C 0.7752(3) 1.3330(3) -0.03213(14)
H13A H 0.88210 1.31910 -0.00820
C11A C 0.6645(3) 1.4856(3) -0.09164(14)
H14A H 0.69440 1.57770 -0.10780
C12A C 0.5101(3) 1.5006(2) -0.12677(13)
H15A H 0.43530 1.60230 -0.16800
C13A C 0.4652(2) 1.3634(2) -0.10066(11)
C14A C 0.2930(3) 1.3792(2) -0.13699(13)
H16A H 0.19960 1.42900 -0.09920
H17A H 0.26100 1.45970 -0.19550
C15A C 0.4408(3) 1.1341(3) -0.23618(12)
H18A H 0.55930 1.11600 -0.21950
H19A H 0.39170 1.23280 -0.28780
C16A C 0.4517(4) 0.9744(3) -0.25815(17)
H20A H 0.33480 0.99490 -0.27730
H21A H 0.52990 0.94870 -0.30480
H22A H 0.49720 0.87780 -0.20640
#END
