
#######################################################################
#
#                 Cambridge Crystallographic Data Centre
#                                CCDC
#
#######################################################################
#
# If this CIF has been generated from an entry in the Cambridge
# Structural Database, then it will include bibliographic, chemical,
# crystal, experimental, refinement or atomic coordinate data resulting
# from the CCDC's data processing and validation procedures.
#
#######################################################################

data_CSD_CIF_YIKBEA
_audit_creation_date 2007-11-27
_audit_creation_method CSD-ConQuest-V1
_database_code_CSD YIKBEA
_database_code_depnum_ccdc_archive 'CCDC 637222'
_chemical_formula_sum 'C13 H12 Br1 Mn1 N2 O5'
_chemical_formula_moiety
;
C13 H12 Br1 Mn1 N2 O5
;
_journal_coden_Cambridge 222
_journal_year 2007
_journal_page_first 3546
_journal_name_full 'Dalton Trans. '
loop_
_publ_author_name
"C.M.Alvarez"
"R.Garcia-Rodriguez"
"D.Miguel"
_chemical_name_systematic
;
fac-Bromo-tricarbonyl-(2-(ethoxycarbonylmethyliminomethyl)pyridine-N,N')-manga
nese
;
_cell_volume    812.683
_exptl_crystal_colour 'orange red'
_exptl_crystal_density_diffrn 1.68
_exptl_crystal_description 'needle'
_exptl_crystal_preparation 'dichloromethane/hexane'
_diffrn_ambient_temperature 293
#These two values have been output from a single CSD field.
_refine_ls_R_factor_gt 0.0581
_refine_ls_wR_factor_gt 0.0581
_symmetry_cell_setting triclinic
_symmetry_space_group_name_H-M 'P -1'
_symmetry_Int_Tables_number 2
loop_
_symmetry_equiv_pos_site_id
_symmetry_equiv_pos_as_xyz
1 x,y,z
2 -x,-y,-z
_cell_length_a 6.9586(17)
_cell_length_b 7.8730(19)
_cell_length_c 15.422(4)
_cell_angle_alpha 94.524(5)
_cell_angle_beta 102.427(5)
_cell_angle_gamma 97.655(5)
_cell_formula_units_Z 2
loop_
_atom_type_symbol
_atom_type_radius_bond
C 0.68
H 0.23
Br 1.21
Mn 1.35
N 0.68
O 0.68
loop_
_atom_site_label
_atom_site_type_symbol
_atom_site_fract_x
_atom_site_fract_y
_atom_site_fract_z
Mn1 Mn -0.15894(18) 0.28165(15) 0.71545(8)
Br1 Br -0.36535(16) -0.00998(13) 0.66769(8)
N1 N -0.0972(10) 0.2719(8) 0.5894(4)
N2 N 0.083(1) 0.1559(8) 0.7323(5)
C1 C -0.0060(15) 0.4894(13) 0.7530(6)
O1 O 0.0842(11) 0.6227(9) 0.7778(5)
C2 C -0.3702(16) 0.3913(12) 0.6865(6)
O2 O -0.5011(11) 0.4627(9) 0.6697(5)
C3 C -0.1994(16) 0.2650(12) 0.8254(8)
O3 O -0.2257(14) 0.2554(12) 0.8954(6)
C4 C 0.1669(14) 0.0781(11) 0.8125(6)
H1 H 0.26070 0.00510 0.79890
H2 H 0.06080 0.00600 0.83020
C5 C 0.2702(15) 0.2112(15) 0.8883(7)
O4 O 0.3051(14) 0.1399(10) 0.9620(5)
O5 O 0.3161(14) 0.3585(11) 0.8814(5)
C6 C 0.425(3) 0.251(2) 1.0420(9)
H3 H 0.54820 0.20810 1.06360
H4 H 0.45670 0.36760 1.02700
C7 C 0.326(4) 0.254(3) 1.1026(12)
H5 H 0.25440 0.14030 1.10240
H6 H 0.23280 0.33350 1.09130
H7 H 0.41520 0.28830 1.15980
C8 C -0.2042(14) 0.3172(11) 0.5154(7)
H8 H -0.32150 0.36010 0.51740
C9 C -0.1465(17) 0.3025(11) 0.4349(6)
H9 H -0.22660 0.33090 0.38320
C10 C 0.0285(16) 0.2461(11) 0.4325(7)
H10 H 0.07290 0.24070 0.37980
C11 C 0.1380(14) 0.1978(10) 0.5075(6)
H11 H 0.25730 0.15750 0.50650
C12 C 0.0714(12) 0.2088(10) 0.5857(6)
C13 C 0.1624(13) 0.1432(10) 0.6667(6)
H12 H 0.27700 0.09280 0.67030
#END
