
#######################################################################
#
#                 Cambridge Crystallographic Data Centre
#                                CCDC
#
#######################################################################
#
# If this CIF has been generated from an entry in the Cambridge
# Structural Database, then it will include bibliographic, chemical,
# crystal, experimental, refinement or atomic coordinate data resulting
# from the CCDC's data processing and validation procedures.
#
#######################################################################

data_CSD_CIF_YIKDEC
_audit_creation_date 2007-11-27
_audit_creation_method CSD-ConQuest-V1
_database_code_CSD YIKDEC
_database_code_depnum_ccdc_archive 'CCDC 610300'
_chemical_formula_sum 'C6 H16 Fe1 N2 O6 P2'
_chemical_formula_moiety
;
C6 H16 Fe1 N2 O6 P2
;
_journal_coden_Cambridge 222
_journal_year 2007
_journal_page_first 3562
_journal_name_full 'Dalton Trans. '
loop_
_publ_author_name
"S.A.T.Dillinger"
"H.W.Schmalle"
"T.Fox"
"H.Berke"
_chemical_name_systematic
;
Dinitrosyl-(1,2-bis(hydroxymethylphosphino)ethane-P,P')-iron(ii)
;
_cell_volume    651.109
_exptl_crystal_colour 'red'
_exptl_crystal_density_diffrn 1.683
_exptl_crystal_description 'block'
_exptl_crystal_preparation 'tetrahydrofuran/ether'
_diffrn_ambient_temperature 183
#These two values have been output from a single CSD field.
_refine_ls_R_factor_gt 0.0268
_refine_ls_wR_factor_gt 0.0268
_symmetry_cell_setting triclinic
_symmetry_space_group_name_H-M 'P -1'
_symmetry_Int_Tables_number 2
loop_
_symmetry_equiv_pos_site_id
_symmetry_equiv_pos_as_xyz
1 x,y,z
2 -x,-y,-z
_cell_length_a 7.6992(10)
_cell_length_b 8.5741(11)
_cell_length_c 11.2515(15)
_cell_angle_alpha 95.919(15)
_cell_angle_beta 106.994(15)
_cell_angle_gamma 109.827(14)
_cell_formula_units_Z 2
loop_
_atom_type_symbol
_atom_type_radius_bond
C 0.68
H 0.23
Fe 1.34
N 0.68
O 0.68
P 1.05
loop_
_atom_site_label
_atom_site_type_symbol
_atom_site_fract_x
_atom_site_fract_y
_atom_site_fract_z
Fe1 Fe 0.15588(3) 0.75961(3) 0.40203(2)
P1 P 0.18729(5) 0.91923(5) 0.25741(4)
P2 P -0.14151(5) 0.60141(5) 0.26103(4)
N1 N 0.1458(2) 0.87262(17) 0.52665(14)
O1 O 0.1409(2) 0.94500(19) 0.62114(15)
N2 N 0.26553(19) 0.62287(17) 0.41146(13)
O2 O 0.3260(2) 0.51375(18) 0.42513(15)
C1 C -0.0556(2) 0.85527(19) 0.13046(16)
H1 H -0.13130 0.91680 0.15640
H2 H -0.03750 0.88490 0.05100
C2 C -0.1695(2) 0.66227(19) 0.10687(16)
H3 H -0.11760 0.60040 0.05630
H4 H -0.31080 0.63180 0.05820
C3 C 0.3510(2) 0.9122(2) 0.16699(18)
H5 H 0.35150 0.99430 0.11120
H6 H 0.48720 0.94720 0.22740
O3 O 0.2903(2) 0.74676(17) 0.09088(13)
H7 H 0.33970 0.68880 0.13490
C4 C 0.2687(2) 1.15128(19) 0.31135(17)
H8 H 0.20220 1.17400 0.37030
H9 H 0.41230 1.20070 0.35920
O4 O 0.22705(18) 1.23332(14) 0.20824(13)
H10 H 0.137(4) 1.254(3) 0.203(3)
C5 C -0.3479(2) 0.6245(2) 0.30140(17)
H11 H -0.36040 0.57140 0.37420
H12 H -0.31840 0.74700 0.32870
O5 O -0.53160(16) 0.54812(16) 0.19692(13)
H13 H -0.586(4) 0.469(4) 0.210(3)
C6 C -0.2183(3) 0.3676(2) 0.22179(18)
H14 H -0.20800 0.32510 0.30110
H15 H -0.35800 0.31480 0.16470
O6 O -0.1008(2) 0.31782(17) 0.16125(13)
H16 H -0.15240 0.30220 0.08190
#END
