
#######################################################################
#
#                 Cambridge Crystallographic Data Centre
#                                CCDC
#
#######################################################################
#
# If this CIF has been generated from an entry in the Cambridge
# Structural Database, then it will include bibliographic, chemical,
# crystal, experimental, refinement or atomic coordinate data resulting
# from the CCDC's data processing and validation procedures.
#
#######################################################################

data_CSD_CIF_YIKQUF
_audit_creation_date 2007-11-27
_audit_creation_method CSD-ConQuest-V1
_database_code_CSD YIKQUF
_database_code_depnum_ccdc_archive 'CCDC 641594'
_chemical_formula_sum 'C12 H20 Fe1 N2 O6 Sn1'
_chemical_formula_moiety
;
C12 H20 Fe1 N2 O6 Sn1
;
_journal_coden_Cambridge 222
_journal_year 2007
_journal_page_first 3489
_journal_name_full 'Dalton Trans. '
loop_
_publ_author_name
"V.N.Khrustalev"
"I.A.Portnyagin"
"M.S.Nechaev"
"S.S.Bukalov"
"L.A.Leites"
_chemical_name_systematic
;
bis(2-(Dimethylamino)ethanolato-N,O)-tetracarbonyl-iron(0)-tin(ii)
;
_cell_volume   1703.590
_exptl_crystal_colour 'yellow'
_exptl_crystal_density_diffrn 1.805
_exptl_special_details
;
equatorial conformer
air- and moisture-sensitive

;
_exptl_crystal_description 'prism'
_exptl_crystal_preparation 'hexane/tetrahydrofuran'
_diffrn_ambient_temperature 100.0
#These two values have been output from a single CSD field.
_refine_ls_R_factor_gt 0.0141
_refine_ls_wR_factor_gt 0.0141
_symmetry_cell_setting monoclinic
_symmetry_space_group_name_H-M 'C 2/c'
_symmetry_Int_Tables_number 15
loop_
_symmetry_equiv_pos_site_id
_symmetry_equiv_pos_as_xyz
1 x,y,z
2 1/2+x,1/2+y,z
3 -x,y,1/2-z
4 1/2-x,1/2+y,1/2-z
5 -x,-y,-z
6 -1/2-x,-1/2-y,-z
7 x,-y,-1/2+z
8 -1/2+x,-1/2-y,-1/2+z
_cell_length_a 17.7298(14)
_cell_length_b 9.4920(7)
_cell_length_c 13.3902(10)
_cell_angle_alpha 90
_cell_angle_beta 130.888(5)
_cell_angle_gamma 90
_cell_formula_units_Z 4
loop_
_atom_type_symbol
_atom_type_radius_bond
C 0.68
H 0.23
Fe 1.34
N 0.68
O 0.68
Sn 1.46
loop_
_atom_site_label
_atom_site_type_symbol
_atom_site_fract_x
_atom_site_fract_y
_atom_site_fract_z
Sn1 Sn 0.00000 0.496647(8) 0.25000
Fe1 Fe 0.00000 0.758327(19) 0.25000
O1 O -0.05416(5) 0.36645(7) 0.09760(7)
O2 O 0.17645(6) 0.72048(9) 0.53043(8)
O3 O 0.10406(7) 0.92984(10) 0.19107(10)
N1 N 0.14600(6) 0.42819(9) 0.29125(8)
C1 C 0.01374(8) 0.28417(11) 0.10101(10)
H1 H 0.01810 0.32180 0.03600
H2 H -0.01150 0.18630 0.07510
C2 C 0.11778(7) 0.28321(10) 0.23777(10)
H3 H 0.11820 0.22140 0.29770
H4 H 0.16670 0.24570 0.23150
C3 C 0.23657(7) 0.42687(11) 0.43306(10)
H5 H 0.29150 0.38240 0.44410
H6 H 0.22320 0.37360 0.48270
H7 H 0.25500 0.52380 0.46630
C4 C 0.16394(9) 0.51715(11) 0.21776(12)
H8 H 0.21920 0.47770 0.22670
H9 H 0.18090 0.61300 0.25370
H10 H 0.10360 0.51960 0.12420
C5 C 0.10726(7) 0.73357(10) 0.42047(10)
C6 C 0.06442(8) 0.86031(10) 0.21437(11)
O1B O 0.05416(5) 0.36645(7) 0.40240(7)
O2B O -0.17645(6) 0.72048(9) -0.03043(8)
O3B O -0.10406(7) 0.92984(10) 0.30893(10)
N1B N -0.14600(6) 0.42819(9) 0.20875(8)
C1B C -0.01374(8) 0.28417(11) 0.39899(10)
H1B H -0.01810 0.32180 0.46400
H2B H 0.01150 0.18630 0.42490
C2B C -0.11778(7) 0.28321(10) 0.26223(10)
H3B H -0.11820 0.22140 0.20230
H4B H -0.16670 0.24570 0.26850
C3B C -0.23657(7) 0.42687(11) 0.06694(10)
H5B H -0.29150 0.38240 0.05590
H6B H -0.22320 0.37360 0.01730
H7B H -0.25500 0.52380 0.03370
C4B C -0.16394(9) 0.51715(11) 0.28224(12)
H8B H -0.21920 0.47770 0.27330
H9B H -0.18090 0.61300 0.24630
H10B H -0.10360 0.51960 0.37580
C5B C -0.10726(7) 0.73357(10) 0.07953(10)
C6B C -0.06442(8) 0.86031(10) 0.28563(11)
#END
