
#######################################################################
#
#                 Cambridge Crystallographic Data Centre
#                                CCDC
#
#######################################################################
#
# If this CIF has been generated from an entry in the Cambridge
# Structural Database, then it will include bibliographic, chemical,
# crystal, experimental, refinement or atomic coordinate data resulting
# from the CCDC's data processing and validation procedures.
#
#######################################################################

data_CSD_CIF_YIPGIQ
_audit_creation_date 2018-11-15
_audit_creation_method CSD-ConQuest-V1
_database_code_CSD YIPGIQ
_database_code_depnum_ccdc_archive 'CCDC 1879258'
_chemical_formula_sum 'C14 H17 Fe1 N1 O3'
_chemical_formula_moiety
;
C14 H17 Fe1 N1 O3
;
_journal_coden_Cambridge 1078
_journal_year 2018
_journal_name_full 'CSD Communication(Private Communication) '
loop_
_publ_author_name
"Anthony Linden"
"E.Meier"
"Wolfgang von Philipsborn"
_chemical_name_systematic
;
tricarbonyl-(1-(hepta-1,3,5-trien-2-yl)pyrrolidine)-iron
;
_cell_volume    724.063
_exptl_crystal_colour 'yellow'
_exptl_crystal_density_diffrn 1.39
_exptl_crystal_description 'prism'
_exptl_crystal_preparation 'Re-crystallisation from solvent'
_diffrn_ambient_temperature 213
#These two values have been output from a single CSD field.
_refine_ls_R_factor_gt 0.0387
_refine_ls_wR_factor_gt 0.0387
_symmetry_cell_setting triclinic
_symmetry_space_group_name_H-M 'P -1'
_symmetry_Int_Tables_number 2
loop_
_symmetry_equiv_pos_site_id
_symmetry_equiv_pos_as_xyz
1 x,y,z
2 -x,-y,-z
_cell_length_a 7.5302(11)
_cell_length_b 9.6207(12)
_cell_length_c 10.0843(14)
_cell_angle_alpha 84.853(11)
_cell_angle_beta 84.643(11)
_cell_angle_gamma 87.684(11)
_cell_formula_units_Z 2
loop_
_atom_type_symbol
_atom_type_radius_bond
C 0.68
H 0.23
Fe 1.52
N 0.68
O 0.68
loop_
_atom_site_label
_atom_site_type_symbol
_atom_site_fract_x
_atom_site_fract_y
_atom_site_fract_z
Fe1 Fe 0.18188(6) -0.11904(4) 0.24455(4)
O1 O 0.0571(4) -0.3238(3) 0.0796(3)
O2 O -0.1523(4) 0.0038(3) 0.3627(3)
O3 O 0.2338(4) -0.2969(3) 0.4907(2)
N1 N 0.2982(4) 0.1995(3) 0.2451(3)
C1 C 0.1923(4) 0.0419(3) 0.0901(3)
H1 H 0.24840 0.01784 0.00317
H2 H 0.08421 0.10143 0.08337
C2 C 0.3109(4) 0.0766(3) 0.1849(3)
C3 C 0.4329(4) -0.0336(3) 0.2229(3)
H3 H 0.50057 -0.02838 0.30181
C4 C 0.4439(4) -0.1561(3) 0.1537(3)
H4 H 0.45424 -0.13697 0.05524
C5 C 0.5480(4) -0.2795(3) 0.2002(3)
H5 H 0.58014 -0.28459 0.28838
C6 C 0.6006(4) -0.3846(3) 0.1283(4)
H6 H 0.57211 -0.37788 0.03916
C7 C 0.7015(5) -0.5129(4) 0.1769(4)
H7 H 0.81236 -0.52244 0.12084
H8 H 0.63023 -0.59400 0.17311
H9 H 0.72733 -0.50570 0.26847
C8 C 0.1486(5) 0.2994(3) 0.2297(4)
H10 H 0.03534 0.25786 0.26507
H11 H 0.14147 0.33315 0.13564
C9 C 0.1934(5) 0.4162(4) 0.3111(4)
H12 H 0.08537 0.46825 0.34246
H13 H 0.27541 0.48100 0.25863
C10 C 0.2817(6) 0.3399(4) 0.4278(4)
H14 H 0.19213 0.31309 0.50157
H15 H 0.36805 0.39925 0.46035
C11 C 0.3754(5) 0.2104(4) 0.3725(4)
H16 H 0.50466 0.22205 0.35783
H17 H 0.35178 0.12707 0.43394
C12 C 0.1010(4) -0.2426(3) 0.1460(3)
C13 C -0.0185(5) -0.0420(3) 0.3178(3)
C14 C 0.2145(4) -0.2271(3) 0.3941(3)
#END
