
#######################################################################
#
#                 Cambridge Crystallographic Data Centre
#                                CCDC
#
#######################################################################
#
# If this CIF has been generated from an entry in the Cambridge
# Structural Database, then it will include bibliographic, chemical,
# crystal, experimental, refinement or atomic coordinate data resulting
# from the CCDC's data processing and validation procedures.
#
#######################################################################

data_CSD_CIF_YIPYII
_audit_creation_date 2018-11-16
_audit_creation_method CSD-ConQuest-V1
_database_code_CSD YIPYII
_database_code_depnum_ccdc_archive 'CCDC 1879415'
_chemical_formula_sum 'C7 H4 Mn1 N1 O3'
_chemical_formula_moiety
;
C7 H4 Mn1 N1 O3
;
_journal_coden_Cambridge 1078
_journal_year 2018
_journal_name_full 'CSD Communication(Private Communication) '
loop_
_publ_author_name
"Anthony Linden"
"D.Rentsch"
"Wolfgang von Philipsborn"
_chemical_name_systematic
;
tricarbonyl-(pyrrolyl)-manganese
;
_cell_volume    765.671
_exptl_crystal_colour 'yellow'
_exptl_crystal_density_diffrn 1.779
_exptl_crystal_description 'prism'
_exptl_crystal_preparation 'Sublimation'
_diffrn_ambient_temperature 173
#These two values have been output from a single CSD field.
_refine_ls_R_factor_gt 0.0239
_refine_ls_wR_factor_gt 0.0239
_symmetry_cell_setting monoclinic
_symmetry_space_group_name_H-M 'P 21/n'
_symmetry_Int_Tables_number 14
loop_
_symmetry_equiv_pos_site_id
_symmetry_equiv_pos_as_xyz
1 x,y,z
2 1/2-x,1/2+y,1/2-z
3 -x,-y,-z
4 -1/2+x,-1/2-y,-1/2+z
_cell_length_a 10.7896(19)
_cell_length_b 7.007(2)
_cell_length_c 11.1332(16)
_cell_angle_alpha 90
_cell_angle_beta 114.540(9)
_cell_angle_gamma 90
_cell_formula_units_Z 4
loop_
_atom_type_symbol
_atom_type_radius_bond
C 0.68
H 0.23
Mn 1.61
N 0.68
O 0.68
loop_
_atom_site_label
_atom_site_type_symbol
_atom_site_fract_x
_atom_site_fract_y
_atom_site_fract_z
Mn1 Mn 0.47610(2) 0.07489(3) 0.22673(2)
O1 O 0.57713(12) 0.39022(16) 0.41850(11)
O2 O 0.36968(15) 0.3480(2) 0.00623(12)
O3 O 0.73853(13) 0.0448(2) 0.20513(14)
N1 N 0.48538(12) -0.15963(18) 0.35067(12)
C1 C 0.53853(13) 0.2684(2) 0.34351(13)
C2 C 0.41096(16) 0.2404(2) 0.09144(15)
C3 C 0.63619(16) 0.0582(2) 0.21309(15)
C4 C 0.37537(15) -0.0447(2) 0.33634(14)
H1 H 0.36462 0.02133 0.41109
C5 C 0.27965(14) -0.0353(2) 0.20395(14)
H2 H 0.19090 0.03477 0.16869
C6 C 0.33191(15) -0.1524(2) 0.13125(14)
H3 H 0.28740 -0.18153 0.03464
C7 C 0.45670(15) -0.2256(2) 0.22459(14)
H4 H 0.51609 -0.31594 0.20270
#END
