
#######################################################################
#
#                 Cambridge Crystallographic Data Centre
#                                CCDC
#
#######################################################################
#
# If this CIF has been generated from an entry in the Cambridge
# Structural Database, then it will include bibliographic, chemical,
# crystal, experimental, refinement or atomic coordinate data resulting
# from the CCDC's data processing and validation procedures.
#
#######################################################################

data_CSD_CIF_YISVAY
_audit_creation_date 2008-05-23
_audit_creation_method CSD-ConQuest-V1
_database_code_CSD YISVAY
_database_code_depnum_ccdc_archive 'CCDC 615492'
_chemical_formula_sum 'C11 H10 Co1 I2 N1'
_chemical_formula_moiety
;
C11 H10 Co1 I2 N1
;
_journal_coden_Cambridge 1290
_journal_year 2007
_journal_page_first 5127
_journal_name_full 'Eur.J.Inorg.Chem. '
loop_
_publ_author_name
"Longjin Li"
"Shuang Han"
"Qiang Li"
"Zhenxia Chen"
"Zhen Pang"
_chemical_name_systematic
;
Di-iodo-(\h^5^-2-pyridylmethyl-cyclopentadienyl-N)-cobalt(iii)
;
_cell_volume    620.395
_exptl_crystal_colour 'dark green'
_exptl_crystal_density_diffrn 2.51
_exptl_crystal_preparation 'dichloromethane/hexane'
_diffrn_ambient_temperature 293
#These two values have been output from a single CSD field.
_refine_ls_R_factor_gt 0.0456
_refine_ls_wR_factor_gt 0.0456
_symmetry_cell_setting triclinic
_symmetry_space_group_name_H-M 'P -1'
_symmetry_Int_Tables_number 2
loop_
_symmetry_equiv_pos_site_id
_symmetry_equiv_pos_as_xyz
1 x,y,z
2 -x,-y,-z
_cell_length_a 7.188(3)
_cell_length_b 8.157(4)
_cell_length_c 11.798(5)
_cell_angle_alpha 92.976(6)
_cell_angle_beta 91.282(6)
_cell_angle_gamma 115.947(4)
_cell_formula_units_Z 2
loop_
_atom_type_symbol
_atom_type_radius_bond
C 0.68
H 0.23
Co 1.33
I 1.40
N 0.68
loop_
_atom_site_label
_atom_site_type_symbol
_atom_site_fract_x
_atom_site_fract_y
_atom_site_fract_z
Co1 Co 0.20698(16) 0.80754(13) 0.80937(8)
I1 I 0.25304(9) 1.13946(7) 0.81239(5)
I2 I 0.56023(9) 0.86923(9) 0.72837(5)
C1 C 0.1718(15) 0.5742(12) 0.8776(9)
H1 H 0.22020 0.48710 0.84570
C2 C 0.2829(17) 0.7213(15) 0.9577(9)
H2 H 0.42350 0.75660 0.98930
C3 C 0.1609(17) 0.8087(13) 0.9829(7)
H3 H 0.20060 0.91770 1.03480
C4 C -0.0291(15) 0.7183(12) 0.9172(7)
H4 H -0.14610 0.74970 0.91820
C5 C -0.0190(14) 0.5725(11) 0.8517(7)
C6 C -0.1654(18) 0.4669(14) 0.7571(9)
H5 H -0.15750 0.35220 0.74160
H6 H -0.30540 0.43920 0.77790
C7 C -0.1187(13) 0.5695(11) 0.6548(7)
C8 C -0.2435(14) 0.5081(14) 0.5552(8)
H7 H -0.36340 0.39830 0.55160
C9 C -0.1890(15) 0.6097(14) 0.4631(8)
H8 H -0.26990 0.56900 0.39570
C10 C -0.0136(17) 0.7724(14) 0.4705(8)
H9 H 0.02690 0.84350 0.40840
C11 C 0.1001(14) 0.8279(12) 0.5713(7)
H10 H 0.21760 0.93950 0.57640
N1 N 0.0525(10) 0.7313(8) 0.6624(5)
#END
