
#######################################################################
#
#                 Cambridge Crystallographic Data Centre
#                                CCDC
#
#######################################################################
#
# If this CIF has been generated from an entry in the Cambridge
# Structural Database, then it will include bibliographic, chemical,
# crystal, experimental, refinement or atomic coordinate data resulting
# from the CCDC's data processing and validation procedures.
#
#######################################################################

data_CSD_CIF_YIWPOM
_audit_creation_date 2019-03-16
_audit_creation_method CSD-ConQuest-V1
_database_code_CSD YIWPOM
_database_code_depnum_ccdc_archive 'CCDC 785047'
_chemical_formula_sum 'C10 H24 Cl3 Co1 F1 N5 O1'
_chemical_formula_moiety
;
C10 H22 Cl1 Co1 F1 N5 2+,H2 O1,2(Cl1 1-)
;
_journal_coeditor_code "wm4097"
_journal_coden_Cambridge 1959
_journal_volume 4
_journal_year 2019
_journal_page_first x190327
_journal_name_full 'IUCrData '
loop_
_publ_author_name
"A.SubbiahPandi"
"Y.AaminaNaaz"
"C.M.Mahalakshmi"
"K.Anbalagan"
_chemical_name_systematic
;
chloro-bis(ethane-1,2-diamine)-(4-fluoroaniline)-cobalt(iii) dichloride 
monohydrate
;
_cell_volume    867.572
_exptl_crystal_colour 'dark red'
_exptl_crystal_density_diffrn 1.587
_exptl_crystal_description 'prism'
_diffrn_ambient_temperature 293
_refine_special_details
;
C2 and C2' disordered over two sites with occupancies 0.831:0.168.

;
#These two values have been output from a single CSD field.
_refine_ls_R_factor_gt 0.0193
_refine_ls_wR_factor_gt 0.0193
_symmetry_cell_setting triclinic
_symmetry_space_group_name_H-M 'P -1'
_symmetry_Int_Tables_number 2
loop_
_symmetry_equiv_pos_site_id
_symmetry_equiv_pos_as_xyz
1 x,y,z
2 -x,-y,-z
_cell_length_a 8.1712(6)
_cell_length_b 9.5435(8)
_cell_length_c 11.9771(10)
_cell_angle_alpha 104.231(4)
_cell_angle_beta 99.490(4)
_cell_angle_gamma 100.705(4)
_cell_formula_units_Z 2
loop_
_atom_type_symbol
_atom_type_radius_bond
C 0.68
H 0.23
Cl 0.99
Co 1.26
F 0.64
N 0.68
O 0.68
loop_
_atom_site_label
_atom_site_type_symbol
_atom_site_fract_x
_atom_site_fract_y
_atom_site_fract_z
C1 C 0.8028(3) 0.2984(2) 0.70155(17)
H1 H 0.70690 0.25960 0.73230
H2 H 0.87890 0.23140 0.69940
C2 C 0.7412(5) 0.3087(3) 0.5810(2)
H3 H 0.83630 0.32680 0.54340
H4 H 0.66150 0.21670 0.53310
C3 C 0.8170(2) 0.7410(2) 0.97814(14)
H5 H 0.84000 0.83790 1.03530
H6 H 0.85820 0.67300 1.01770
C4 C 0.6297(2) 0.6855(2) 0.92613(16)
H7 H 0.57010 0.65840 0.98420
H8 H 0.58390 0.76180 0.90030
C5 C 1.07502(19) 0.79981(17) 0.68416(13)
C6 C 1.0343(2) 0.91023(19) 0.63617(15)
H9 H 0.93180 0.89130 0.58160
C7 C 1.1462(2) 1.0489(2) 0.66945(17)
H10 H 1.12070 1.12390 0.63760
C8 C 1.2952(2) 1.0728(2) 0.75043(17)
C9 C 1.3379(2) 0.9665(2) 0.80007(17)
H11 H 1.43950 0.98710 0.85580
C10 C 1.2267(2) 0.82760(19) 0.76570(15)
H12 H 1.25390 0.75300 0.79740
N1 N 0.89406(19) 0.44838(15) 0.77835(13)
N2 N 0.65522(19) 0.43488(16) 0.59361(13)
N3 N 0.90333(18) 0.75159(16) 0.87969(12)
N4 N 0.60849(19) 0.55338(17) 0.82415(13)
N5 N 0.96160(18) 0.65309(15) 0.64670(12)
F1 F 1.40512(17) 1.20859(13) 0.78300(13)
Cl1 Cl 0.63686(5) 0.75092(4) 0.66669(4)
Co1 Co 0.78188(2) 0.59758(2) 0.73432(2)
H13 H 0.907(2) 0.641(2) 0.5793(18)
H14 H 1.027(3) 0.586(2) 0.6397(17)
H15 H 0.658(3) 0.459(2) 0.5306(19)
H16 H 0.907(3) 0.841(2) 0.8705(18)
H17 H 1.004(3) 0.744(2) 0.9011(17)
H18 H 0.510(3) 0.535(2) 0.7820(18)
H19 H 0.622(3) 0.478(2) 0.8502(18)
H20 H 0.544(3) 0.417(2) 0.5982(19)
H21 H 0.891(3) 0.446(2) 0.846(2)
H22 H 0.995(3) 0.465(2) 0.7716(17)
C11? C 0.677(2) 0.2884(16) 0.5948(9)
H23? H 0.71640 0.24430 0.52510
H24? H 0.56880 0.22520 0.59320
O1 O 0.8073(3) 1.0395(2) 0.8821(2)
H25 H 0.747(3) 0.996(3) 0.8157(14)
H26 H 0.778(4) 1.118(2) 0.903(3)
Cl2 Cl 0.77375(5) 0.36339(5) 1.00298(4)
Cl3 Cl 0.77258(5) 0.56575(4) 0.37113(3)
#END
