
#######################################################################
#
#                 Cambridge Crystallographic Data Centre
#                                CCDC
#
#######################################################################
#
# If this CIF has been generated from an entry in the Cambridge
# Structural Database, then it will include bibliographic, chemical,
# crystal, experimental, refinement or atomic coordinate data resulting
# from the CCDC's data processing and validation procedures.
#
#######################################################################

data_CSD_CIF_YOJYUR
_audit_creation_date 1995-12-04
_audit_creation_method CSD-ConQuest-V1
_database_code_CSD YOJYUR
_chemical_formula_sum 'C9 H5 Mn1 O4'
_chemical_formula_moiety
;
C9 H5 Mn1 O4
;
_journal_coden_Cambridge 579
_journal_volume 14
_journal_year 1995
_journal_page_first 1023
_journal_name_full 'Organometallics '
loop_
_publ_author_name
"Si-Geun Lee"
"Jeong-A Kim"
"Young Keun Chung"
"Tae-Sung Yoon"
"Nam-jun Kim"
"Whanchul Shin"
"Jaecheon Kim"
"Kimoon Kim"
_chemical_name_systematic
;
(\h^5^-Oxocyclohexadienyl)-tricarbonyl-manganese
;
_cell_volume    436.497
_exptl_crystal_colour 'yellow'
_exptl_crystal_density_diffrn 1.766
_diffrn_ambient_temperature ?
_diffrn_special_details
;
The study was carried out at room temperature,in the range 283-303K

;
#These two values have been output from a single CSD field.
_refine_ls_R_factor_gt 0.0277
_refine_ls_wR_factor_gt 0.0277
_symmetry_cell_setting monoclinic
_symmetry_space_group_name_H-M 'P 21/m'
_symmetry_Int_Tables_number 11
loop_
_symmetry_equiv_pos_site_id
_symmetry_equiv_pos_as_xyz
1 x,y,z
2 -x,1/2+y,-z
3 -x,-y,-z
4 x,-1/2-y,z
_cell_length_a 6.968
_cell_length_b 9.072
_cell_length_c 7.131
_cell_angle_alpha 90
_cell_angle_beta 104.46
_cell_angle_gamma 90
_cell_formula_units_Z 2
loop_
_atom_type_symbol
_atom_type_radius_bond
C 0.68
H 0.23
Mn 1.35
O 0.68
loop_
_atom_site_label
_atom_site_type_symbol
_atom_site_fract_x
_atom_site_fract_y
_atom_site_fract_z
Mn1 Mn 0.1005(1) 0.25000 0.1951(1)
C1 C -0.0190(5) 0.25000 -0.0625(5)
C2 C -0.0654(4) 0.1128(3) 0.2480(3)
C3 C 0.4198(5) 0.25000 0.0842(5)
C4 C 0.3638(4) 0.1172(3) 0.1715(4)
C5 C 0.3397(4) 0.1179(4) 0.3592(4)
C6 C 0.3298(5) 0.25000 0.4583(6)
O1 O -0.0951(5) 0.25000 -0.2241(4)
O2 O -0.1714(3) 0.0291(3) 0.2872(3)
O3 O 0.4908(4) 0.25000 -0.0587(4)
H1 H 0.373(5) 0.031(4) 0.113(4)
H2 H 0.321(5) 0.032(4) 0.421(4)
H3 H 0.316(8) 0.25000 0.578(8)
C2C C -0.0654(4) 0.3872(3) 0.2480(3)
C4C C 0.3638(4) 0.3828(3) 0.1715(4)
C5C C 0.3397(4) 0.3821(4) 0.3592(4)
O2C O -0.1714(3) 0.4709(3) 0.2872(3)
H1C H 0.373(5) 0.469(4) 0.113(4)
H2C H 0.321(5) 0.468(4) 0.421(4)
#END
