
#######################################################################
#
#                 Cambridge Crystallographic Data Centre
#                                CCDC
#
#######################################################################
#
# If this CIF has been generated from an entry in the Cambridge
# Structural Database, then it will include bibliographic, chemical,
# crystal, experimental, refinement or atomic coordinate data resulting
# from the CCDC's data processing and validation procedures.
#
#######################################################################

data_CSD_CIF_YONXAA
_audit_creation_date 1996-01-03
_audit_creation_method CSD-ConQuest-V1
_database_code_CSD YONXAA
_chemical_formula_sum 'C8 H10 Mn1 O12'
_chemical_formula_moiety
;
C8 H10 Mn1 O12
;
_journal_coden_Cambridge 186
_journal_year 1995
_journal_page_first 727
_journal_name_full 'J.Chem.Soc.,Dalton Trans. '
loop_
_publ_author_name
"O.M.Yaghi"
"Guangming Li"
"T.L.Groy"
_chemical_name_systematic
;
Tetra-aqua-bis(squarato-O)-manganese(ii)
;
_cell_volume    303.515
_exptl_crystal_colour 'pale pink'
_exptl_crystal_density_diffrn 1.932
_diffrn_ambient_temperature ?
_diffrn_special_details
;
The study was carried out at room temperature,in the range 283-303K

;
#These two values have been output from a single CSD field.
_refine_ls_R_factor_gt 0.0223
_refine_ls_wR_factor_gt 0.0223
_symmetry_cell_setting triclinic
_symmetry_space_group_name_H-M 'P -1'
_symmetry_Int_Tables_number 2
loop_
_symmetry_equiv_pos_site_id
_symmetry_equiv_pos_as_xyz
1 x,y,z
2 -x,-y,-z
_cell_length_a 5.1910(4)
_cell_length_b 7.4605(7)
_cell_length_c 8.9088(1)
_cell_angle_alpha 67.07(1)
_cell_angle_beta 77.23(1)
_cell_angle_gamma 74.49(1)
_cell_formula_units_Z 1
loop_
_atom_type_symbol
_atom_type_radius_bond
C 0.68
H 0.23
Mn 1.35
O 0.68
loop_
_atom_site_label
_atom_site_type_symbol
_atom_site_fract_x
_atom_site_fract_y
_atom_site_fract_z
Mn1 Mn 0.50000 0.50000 0.50000
O1 O 0.7741(2) 0.3159(2) 0.6743(1)
O2 O 0.3161(2) 0.2385(2) 0.5640(1)
C1 C 0.8984(3) 0.3202(2) 0.2183(2)
O3 O 0.7644(2) 0.4160(2) 0.3051(1)
C2 C 0.8695(3) 0.3000(2) 0.0673(2)
O4 O 0.6904(2) 0.3741(2) -0.0307(1)
C3 C 1.1293(3) 0.1715(2) 0.0646(2)
O5 O 1.2703(2) 0.0886(2) -0.0352(1)
C4 C 1.1678(3) 0.1863(2) 0.2178(2)
O6 O 1.3486(2) 0.1224(2) 0.3058(1)
H1 H 0.94130 0.27770 0.65140
H2 H 0.74320 0.33590 0.76850
H3 H 0.32700 0.19900 0.48200
H4 H 0.40470 0.13570 0.62610
H5? H 0.50000 0.50000 0.00000
H6? H 1.50000 0.00000 0.00000
O1A O 0.2259(2) 0.6841(2) 0.3257(1)
O2A O 0.6839(2) 0.7615(2) 0.4360(1)
O3A O 0.2356(2) 0.5840(2) 0.6949(1)
H1A H 0.05870 0.72230 0.34860
H2A H 0.25680 0.66410 0.23150
H3A H 0.67300 0.80100 0.51800
H4A H 0.59530 0.86430 0.37390
C1A C 0.1016(3) 0.6798(2) 0.7817(2)
C2A C 0.1305(3) 0.7000(2) 0.9327(2)
C4A C -0.1678(3) 0.8137(2) 0.7822(2)
O4A O 0.3096(2) 0.6259(2) 1.0307(1)
C3A C -0.1293(3) 0.8285(2) 0.9354(2)
O6A O -0.3486(2) 0.8776(2) 0.6942(1)
O5A O -0.2703(2) 0.9114(2) 1.0352(1)
#END
