
#######################################################################
#
#                 Cambridge Crystallographic Data Centre
#                                CCDC
#
#######################################################################
#
# If this CIF has been generated from an entry in the Cambridge
# Structural Database, then it will include bibliographic, chemical,
# crystal, experimental, refinement or atomic coordinate data resulting
# from the CCDC's data processing and validation procedures.
#
#######################################################################

data_CSD_CIF_YOVRIK
_audit_creation_date 1996-01-30
_audit_creation_method CSD-ConQuest-V1
_database_code_CSD YOVRIK
_chemical_formula_sum 'C10 H20 Fe1 N2 O11'
_chemical_formula_moiety
;
C10 H16 Fe1 N2 O9,2(H2 O1)
;
_journal_coden_Cambridge 155
_journal_volume 230
_journal_year 1995
_journal_page_first 119
_journal_name_full 'Inorg.Chim.Acta '
loop_
_publ_author_name
"T.Mizuta"
"J.Wang"
"K.Miyoshi"
_chemical_name_systematic
;
Aqua-(ethylenediamine-N,N,N',N'-tetra-acetato)-iron(ii) dihydrate
;
_cell_volume   1563.371
_exptl_crystal_colour 'pale pink'
_exptl_crystal_density_diffrn 1.7
_diffrn_ambient_temperature ?
_diffrn_special_details
;
The study was carried out at room temperature,in the range 283-303K

;
#These two values have been output from a single CSD field.
_refine_ls_R_factor_gt 0.025
_refine_ls_wR_factor_gt 0.025
_symmetry_cell_setting monoclinic
_symmetry_space_group_name_H-M 'C 2/c'
_symmetry_Int_Tables_number 15
loop_
_symmetry_equiv_pos_site_id
_symmetry_equiv_pos_as_xyz
1 x,y,z
2 -x,y,1/2-z
3 1/2+x,1/2+y,z
4 1/2-x,1/2+y,1/2-z
5 -x,-y,-z
6 x,-y,-1/2+z
7 -1/2-x,-1/2-y,-z
8 -1/2+x,-1/2-y,-1/2+z
_cell_length_a 11.074(2)
_cell_length_b 9.856(1)
_cell_length_c 14.399(2)
_cell_angle_alpha 90
_cell_angle_beta 95.86(1)
_cell_angle_gamma 90
_cell_formula_units_Z 4
loop_
_atom_type_symbol
_atom_type_radius_bond
C 0.68
H 0.23
Fe 1.34
N 0.68
O 0.68
loop_
_atom_site_label
_atom_site_type_symbol
_atom_site_fract_x
_atom_site_fract_y
_atom_site_fract_z
Fe1 Fe 0.00000 0.19060(3) 0.25000
O1 O 0.00000 -0.0186(2) 0.25000
O2 O 0.1057(2) 0.1239(1) 0.1252(1)
O3 O 0.1189(1) 0.1718(2) -0.0241(1)
O4 O 0.1629(1) 0.2286(1) 0.3315(1)
O5 O 0.3470(1) 0.3185(1) 0.3396(1)
O6 O 0.2003(2) -0.0711(2) -0.0145(1)
N1 N 0.0780(1) 0.3781(1) 0.1759(1)
C1 C 0.0989(2) 0.2043(2) 0.0611(1)
C2 C 0.0648(2) 0.3500(2) 0.0751(1)
C3 C 0.2425(1) 0.3052(2) 0.3013(1)
C4 C 0.2075(2) 0.3869(2) 0.2126(1)
C5 C 0.0094(2) 0.5008(2) 0.1986(1)
H1 H 0.136(2) 0.075(3) -0.025(2)
H2 H -0.042(2) -0.061(3) 0.284(2)
H3 H 0.174(3) -0.113(3) 0.032(2)
H4 H 0.191(3) -0.134(3) -0.056(2)
H5 H 0.115(2) 0.410(3) 0.040(2)
H6 H -0.019(2) 0.361(3) 0.053(2)
H7 H 0.262(2) 0.348(3) 0.168(2)
H8 H 0.229(2) 0.481(3) 0.224(2)
H9 H 0.054(2) 0.582(3) 0.183(2)
H10 H -0.071(2) 0.499(2) 0.161(2)
O2A O -0.1057(2) 0.1239(1) 0.3748(1)
O4A O -0.1629(1) 0.2286(1) 0.1685(1)
N1A N -0.0780(1) 0.3781(1) 0.3241(1)
H2A H 0.042(2) -0.061(3) 0.216(2)
C5A C -0.0094(2) 0.5008(2) 0.3014(1)
C1A C -0.0989(2) 0.2043(2) 0.4389(1)
C3A C -0.2425(1) 0.3052(2) 0.1987(1)
C2A C -0.0648(2) 0.3500(2) 0.4249(1)
C4A C -0.2075(2) 0.3869(2) 0.2874(1)
H9A H -0.054(2) 0.582(3) 0.317(2)
H10A H 0.071(2) 0.499(2) 0.339(2)
O3A O -0.1189(1) 0.1718(2) 0.5241(1)
O5A O -0.3470(1) 0.3185(1) 0.1604(1)
H5A H -0.115(2) 0.410(3) 0.460(2)
H6A H 0.019(2) 0.361(3) 0.447(2)
H7A H -0.262(2) 0.348(3) 0.332(2)
H8A H -0.229(2) 0.481(3) 0.276(2)
H1A H -0.136(2) 0.075(3) 0.525(2)
#END
