
#######################################################################
#
#                 Cambridge Crystallographic Data Centre
#                                CCDC
#
#######################################################################
#
# If this CIF has been generated from an entry in the Cambridge
# Structural Database, then it will include bibliographic, chemical,
# crystal, experimental, refinement or atomic coordinate data resulting
# from the CCDC's data processing and validation procedures.
#
#######################################################################

data_CSD_CIF_YOWZER
_audit_creation_date 2015-02-19
_audit_creation_method CSD-ConQuest-V1
_database_code_CSD YOWZER
_database_code_depnum_ccdc_archive 'CCDC 1050530'
_chemical_formula_sum 'C14 H10 Br2 Co1 N2 S2'
_chemical_formula_moiety
;
C14 H10 Br2 Co1 N2 S2
;
_journal_coden_Cambridge 9
_journal_volume 53
_journal_year 2014
_journal_page_first 10276
_journal_name_full 'Inorg.Chem. '
loop_
_publ_author_name
"R.Rajasekharan-Nair"
"D.Moore"
"A.R.Kennedy"
"J.Reglinski"
"M.D.Spicer"
_chemical_name_systematic
;
bis(1,3-Benzothiazole)-dibromo-cobalt(ii)
;
_cell_volume    775.159
_exptl_crystal_colour 'blue'
_exptl_crystal_density_diffrn 2.096
_exptl_special_details
;
Study temperature given as 293 K and 123 K in the CIF

;
_exptl_crystal_description 'prism'
_diffrn_ambient_temperature 123
#These two values have been output from a single CSD field.
_refine_ls_R_factor_gt 0.0293
_refine_ls_wR_factor_gt 0.0293
_symmetry_cell_setting monoclinic
_symmetry_space_group_name_H-M 'P 2/n'
_symmetry_Int_Tables_number 13
loop_
_symmetry_equiv_pos_site_id
_symmetry_equiv_pos_as_xyz
1 x,y,z
2 1/2-x,y,1/2-z
3 -x,-y,-z
4 -1/2+x,-y,-1/2+z
_cell_length_a 7.765(5)
_cell_length_b 6.937(5)
_cell_length_c 14.448(5)
_cell_angle_alpha 90
_cell_angle_beta 95.111(5)
_cell_angle_gamma 90
_cell_formula_units_Z 2
loop_
_atom_type_symbol
_atom_type_radius_bond
C 0.68
H 0.23
Br 1.21
Co 1.26
N 0.68
S 1.02
loop_
_atom_site_label
_atom_site_type_symbol
_atom_site_fract_x
_atom_site_fract_y
_atom_site_fract_z
Br1 Br 0.50099(4) 0.09161(5) 0.72658(2)
Co1 Co 0.75000 0.29086(9) 0.75000
S1 S 0.84612(11) 0.75922(13) 0.97002(6)
C1 C 0.7277(4) 0.4145(5) 0.9506(2)
C2 C 0.7242(4) 0.5225(5) 1.1098(2)
H1 H 0.74110 0.61780 1.15500
C3 C 0.7616(4) 0.5552(5) 1.0183(2)
C4 C 0.8307(4) 0.6451(5) 0.8653(2)
N1 N 0.7678(3) 0.4710(4) 0.86179(18)
C5 C 0.6372(4) 0.1998(5) 1.0639(2)
H2 H 0.59970 0.07870 1.08100
C6 C 0.6618(4) 0.3445(5) 1.1304(2)
H3 H 0.63500 0.31950 1.19070
C7 C 0.6676(4) 0.2336(5) 0.9732(2)
H4 H 0.64860 0.13820 0.92820
H5 H 0.865(3) 0.706(4) 0.8167(19)
Br1A Br 0.99901(4) 0.09161(5) 0.77342(2)
S1A S 0.65388(11) 0.75922(13) 0.52998(6)
C1A C 0.7723(4) 0.4145(5) 0.5494(2)
C2A C 0.7758(4) 0.5225(5) 0.3902(2)
H1A H 0.75890 0.61780 0.34500
C3A C 0.7384(4) 0.5552(5) 0.4817(2)
C4A C 0.6693(4) 0.6451(5) 0.6347(2)
N1A N 0.7322(3) 0.4710(4) 0.63821(18)
C5A C 0.8628(4) 0.1998(5) 0.4361(2)
H2A H 0.90030 0.07870 0.41900
C6A C 0.8382(4) 0.3445(5) 0.3696(2)
H3A H 0.86500 0.31950 0.30930
C7A C 0.8324(4) 0.2336(5) 0.5268(2)
H4A H 0.85140 0.13820 0.57180
H5A H 0.635(3) 0.706(4) 0.6833(19)
#END
