
#######################################################################
#
#                 Cambridge Crystallographic Data Centre
#                                CCDC
#
#######################################################################
#
# If this CIF has been generated from an entry in the Cambridge
# Structural Database, then it will include bibliographic, chemical,
# crystal, experimental, refinement or atomic coordinate data resulting
# from the CCDC's data processing and validation procedures.
#
#######################################################################

data_CSD_CIF_YUBCOQ
_audit_creation_date 2019-11-22
_audit_creation_method CSD-ConQuest-V1
_database_code_CSD YUBCOQ
_database_code_depnum_ccdc_archive 'CCDC 1866428'
_chemical_formula_sum 'C19 H14 Fe1 O4'
_chemical_formula_moiety
;
C19 H14 Fe1 O4
;
_journal_coden_Cambridge 1490
_journal_volume 10
_journal_year 2019
_journal_page_first 1675
_journal_name_full 'Nat.Commun. '
loop_
_publ_author_name
"Yingguo Liu"
"Qiao Chen"
"Chengli Mou"
"Lutai Pan"
"Xiaoyong Duan"
"Xingkuan Chen"
"Hongzhong Chen"
"Yanli Zhao"
"Yunpeng Lu"
"Zhichao Jin"
"Yonggui Robin Chi"
_chemical_name_systematic
;
(((3-oxo-1,3-dihydro-2-benzofuran-1-yl)oxy)carbonyl)ferrocene
;
_cell_volume    773.122
_exptl_crystal_colour 'orange'
_exptl_crystal_density_diffrn 1.556
_exptl_special_details
;
Absolute configuration

;
_exptl_crystal_description 'needle'
_diffrn_ambient_temperature 100
#These two values have been output from a single CSD field.
_refine_ls_R_factor_gt 0.0605
_refine_ls_wR_factor_gt 0.0605
_symmetry_cell_setting monoclinic
_symmetry_space_group_name_H-M 'P 21'
_symmetry_Int_Tables_number 4
loop_
_symmetry_equiv_pos_site_id
_symmetry_equiv_pos_as_xyz
1 x,y,z
2 -x,1/2+y,-z
_cell_length_a 9.7860(9)
_cell_length_b 7.6741(6)
_cell_length_c 11.0882(10)
_cell_angle_alpha 90
_cell_angle_beta 111.807(3)
_cell_angle_gamma 90
_cell_formula_units_Z 2
loop_
_atom_type_symbol
_atom_type_radius_bond
C 0.68
H 0.23
Fe 1.52
O 0.68
loop_
_atom_site_label
_atom_site_type_symbol
_atom_site_fract_x
_atom_site_fract_y
_atom_site_fract_z
C1 C 0.4682(7) 0.5399(8) 0.2168(6)
H1 H 0.51156 0.54244 0.31387
C2 C 0.3445(8) 0.6357(9) 0.1369(8)
H2 H 0.28555 0.71909 0.16727
C3 C 0.3185(8) 0.5922(10) 0.0050(7)
H3 H 0.23876 0.64057 -0.07353
C4 C 0.4275(8) 0.4702(11) 0.0055(7)
H4 H 0.43720 0.41598 -0.07289
C5 C 0.5184(8) 0.4368(9) 0.1354(6)
H5 H 0.60369 0.35452 0.16521
C6 C 0.1184(6) 0.3237(7) 0.1360(6)
H6 H 0.05754 0.40998 0.16171
C7 C 0.0979(7) 0.2734(9) 0.0073(6)
H7 H 0.02220 0.32156 -0.07383
C8 C 0.2077(8) 0.1495(8) 0.0134(6)
H8 H 0.22240 0.09503 -0.06285
C9 C 0.2958(8) 0.1182(9) 0.1467(7)
H9 H 0.38144 0.03677 0.18015
C10 C 0.2408(7) 0.2249(8) 0.2234(6)
C11 C 0.3092(7) 0.2439(8) 0.3647(6)
C12 C 0.3107(6) 0.4140(7) 0.5426(5)
H10 H 0.42068 0.41635 0.57618
C13 C 0.1655(6) 0.3665(11) 0.6630(5)
C14 C 0.1627(6) 0.5538(7) 0.6359(6)
C15 C 0.2492(6) 0.5846(8) 0.5650(6)
C16 C 0.2641(7) 0.7498(8) 0.5222(6)
H11 H 0.32224 0.77083 0.47159
C17 C 0.1901(6) 0.8843(11) 0.5567(5)
H12 H 0.19917 1.00018 0.53049
C18 C 0.1022(6) 0.8514(9) 0.6295(5)
H13 H 0.05284 0.94536 0.65177
C19 C 0.0868(6) 0.6879(8) 0.6686(6)
H14 H 0.02626 0.66530 0.71681
Fe1 Fe 0.30469(8) 0.37550(11) 0.10471(7)
O1 O 0.4063(5) 0.1510(5) 0.4367(4)
O2 O 0.2502(4) 0.3802(8) 0.4072(3)
O3 O 0.2581(5) 0.2886(5) 0.6100(4)
O4 O 0.1047(5) 0.2816(6) 0.7188(4)
#END
