
#######################################################################
#
#                 Cambridge Crystallographic Data Centre
#                                CCDC
#
#######################################################################
#
# If this CIF has been generated from an entry in the Cambridge
# Structural Database, then it will include bibliographic, chemical,
# crystal, experimental, refinement or atomic coordinate data resulting
# from the CCDC's data processing and validation procedures.
#
#######################################################################

data_CSD_CIF_YUNVAE
_audit_creation_date 1996-02-22
_audit_creation_method CSD-ConQuest-V1
_database_code_CSD YUNVAE
_chemical_formula_sum 'C12 H10 Cl3 Mn1 N2 O1'
_chemical_formula_moiety
;
C12 H10 Cl3 Mn1 N2 O1
;
_journal_coden_Cambridge 369
_journal_volume 19
_journal_year 1994
_journal_page_first 506
_journal_name_full 'Transition Met.Chem. '
loop_
_publ_author_name
"G.Swarnabala"
"K.R.Reddy"
"J.Tirunagar"
"M.V.Rajasekharan"
_chemical_name_systematic
;
Aqua-trichloro-(1,10-phenanthroline)-manganese(iii)
;
_cell_volume    666.879
_exptl_crystal_colour 'dark red'
_exptl_crystal_density_diffrn 1.79
_exptl_special_details
;
x(Cl2) is -0.1822, not 0.1822

;
_diffrn_ambient_temperature ?
_diffrn_special_details
;
The study was carried out at room temperature,in the range 283-303K

;
#These two values have been output from a single CSD field.
_refine_ls_R_factor_gt 0.0268
_refine_ls_wR_factor_gt 0.0268
_symmetry_cell_setting triclinic
_symmetry_space_group_name_H-M 'P -1'
_symmetry_Int_Tables_number 2
loop_
_symmetry_equiv_pos_site_id
_symmetry_equiv_pos_as_xyz
1 x,y,z
2 -x,-y,-z
_cell_length_a 6.722(1)
_cell_length_b 10.201(1)
_cell_length_c 10.510(1)
_cell_angle_alpha 80.69(1)
_cell_angle_beta 79.59(1)
_cell_angle_gamma 71.21(1)
_cell_formula_units_Z 2
loop_
_atom_type_symbol
_atom_type_radius_bond
C 0.68
H 0.23
Cl 0.99
Mn 1.35
N 0.68
O 0.68
loop_
_atom_site_label
_atom_site_type_symbol
_atom_site_fract_x
_atom_site_fract_y
_atom_site_fract_z
Mn1 Mn 0.21244(6) 0.19698(4) 0.15818(3)
Cl1 Cl 0.1909(1) -0.0155(1) 0.1476(1)
Cl2 Cl -0.1822(1) 0.3038(1) 0.2194(1)
Cl3 Cl 0.2296(1) 0.2548(1) -0.0560(1)
N1 N 0.2340(3) 0.1576(2) 0.3559(2)
N2 N 0.2507(3) 0.3814(2) 0.1905(2)
O1 O 0.5772(3) 0.1127(2) 0.1421(2)
C1 C 0.2281(4) 0.0428(3) 0.4357(3)
C2 C 0.2294(4) 0.0340(3) 0.5696(3)
C3 C 0.2385(4) 0.1453(3) 0.6216(3)
C4 C 0.2477(4) 0.2686(3) 0.5400(2)
C5 C 0.2552(4) 0.3919(3) 0.5849(3)
C6 C 0.2639(4) 0.5061(3) 0.5003(3)
C7 C 0.2693(4) 0.5065(3) 0.3635(3)
C8 C 0.2825(4) 0.6201(3) 0.2693(3)
C9 C 0.2775(4) 0.6123(3) 0.1435(3)
C10 C 0.2591(4) 0.4920(3) 0.1049(3)
C11 C 0.2475(3) 0.2686(2) 0.4066(2)
C12 C 0.2567(3) 0.3884(2) 0.3180(2)
H1 H 0.644(7) 0.075(5) 0.061(3)
H2 H 0.678(6) 0.164(5) 0.111(5)
H3 H 0.252(4) 0.489(3) 0.004(3)
H4 H 0.222(4) -0.047(3) 0.396(3)
H5 H 0.277(4) 0.598(3) 0.537(3)
H6 H 0.297(4) 0.713(3) 0.298(3)
H7 H 0.239(4) 0.140(3) 0.725(3)
H8 H 0.223(4) -0.061(3) 0.631(3)
H9 H 0.288(4) 0.699(3) 0.072(3)
H10 H 0.234(4) 0.394(30) 0.688(3)
#END
