
#######################################################################
#
#                 Cambridge Crystallographic Data Centre
#                                CCDC
#
#######################################################################
#
# If this CIF has been generated from an entry in the Cambridge
# Structural Database, then it will include bibliographic, chemical,
# crystal, experimental, refinement or atomic coordinate data resulting
# from the CCDC's data processing and validation procedures.
#
#######################################################################

data_CSD_CIF_YUPGUM
_audit_creation_date 2010-02-16
_audit_creation_method CSD-ConQuest-V1
_database_code_CSD YUPGUM
_database_code_depnum_ccdc_archive 'CCDC 714406'
_chemical_formula_sum 'C14 H24 Fe1 N2 O12'
_chemical_formula_moiety
;
(C10 H16 Fe1 N2 O4 2+)n,n(C4 O4 2-),4n(H2 O1)
;
_journal_coden_Cambridge 29
_journal_volume 635
_journal_year 2009
_journal_page_first 914
_journal_name_full 'Z.Anorg.Allg.Chem. '
loop_
_publ_author_name
"I.Stein"
"U.Ruschewitz"
_chemical_name_systematic
;
catena-[(\m~2~-4,4'-Bipyridine-N,N')-tetra-aqua-iron(ii) 
acetylenedicarboxylate tetrahydrate]
;
_cell_volume    517.056
_exptl_crystal_colour 'brown'
_exptl_crystal_density_diffrn 1.504
_exptl_special_details
;
Isotypic with the Co(ii) and Mn(ii) analogues

;
_exptl_crystal_description 'platelet'
_diffrn_ambient_temperature 293
#These two values have been output from a single CSD field.
_refine_ls_R_factor_gt 0.059
_refine_ls_wR_factor_gt 0.059
_symmetry_cell_setting triclinic
_symmetry_space_group_name_H-M 'P -1'
_symmetry_Int_Tables_number 2
loop_
_symmetry_equiv_pos_site_id
_symmetry_equiv_pos_as_xyz
1 x,y,z
2 -x,-y,-z
_cell_length_a 6.9826(13)
_cell_length_b 8.1024(16)
_cell_length_c 9.7342(17)
_cell_angle_alpha 79.299(22)
_cell_angle_beta 86.215(21)
_cell_angle_gamma 72.854(22)
_cell_formula_units_Z 1
loop_
_atom_type_symbol
_atom_type_radius_bond
C 0.68
H 0.23
Fe 1.52
N 0.68
O 0.68
loop_
_atom_site_label
_atom_site_type_symbol
_atom_site_fract_x
_atom_site_fract_y
_atom_site_fract_z
Fe1 Fe 0.00000 1.00000 0.00000
O1 O 0.3821(6) 0.8231(4) 0.5870(3)
O2 O 0.3574(6) 0.6115(4) 0.7630(3)
C1 C 0.3977(6) 0.6692(6) 0.6372(4)
C2 C 0.4669(6) 0.5398(7) 0.5441(4)
N1 N 0.0234(4) 0.8075(4) 0.1916(3)
C3 C -0.0346(7) 0.8581(5) 0.3141(4)
H1 H -0.06840 0.97710 0.31790
C4 C -0.0473(6) 0.7430(5) 0.4358(4)
H2 H -0.09070 0.78530 0.51840
C5 C 0.0047(5) 0.5649(4) 0.4348(3)
C6 C 0.0673(6) 0.5115(5) 0.3074(4)
H3 H 0.10340 0.39300 0.30130
C7 C 0.0761(7) 0.6334(5) 0.1909(4)
H4 H 0.12040 0.59430 0.10720
O3 O -0.2733(4) 1.1528(4) 0.0689(3)
H5 H -0.374(6) 1.208(7) 0.000(4)
H6 H -0.286(15) 1.202(12) 0.151(6)
O4 O 0.1674(4) 1.1406(4) 0.0899(3)
H7 H 0.243(7) 1.097(7) 0.172(3)
H8 H 0.247(8) 1.194(7) 0.025(5)
O5 O 0.4178(5) 0.2654(4) 0.8842(3)
H9 H 0.405(9) 0.378(4) 0.828(5)
H10 H 0.463(8) 0.205(7) 0.807(4)
O6 O 0.5709(5) 0.0331(5) 0.6907(3)
H11 H 0.593(7) 0.084(5) 0.597(3)
H12 H 0.475(8) -0.027(9) 0.682(7)
Fe1* Fe 0.00000 0.00000 1.00000
O1A O 0.6179(6) 0.1769(4) 0.4130(3)
O2A O 0.6426(6) 0.3885(4) 0.2370(3)
C1A C 0.6023(6) 0.3308(6) 0.3628(4)
C2A C 0.5331(6) 0.4602(7) 0.4559(4)
N1A N -0.0234(4) 0.1925(4) 0.8084(3)
N1A* N -0.0234(4) 1.1925(4) -0.1916(3)
C3A C 0.0346(7) 0.1419(5) 0.6859(4)
H1A H 0.06840 0.02290 0.68210
C4A C 0.0473(6) 0.2570(5) 0.5642(4)
H2A H 0.09070 0.21470 0.48160
C5A C -0.0047(5) 0.4351(4) 0.5652(3)
C6A C -0.0673(6) 0.4885(5) 0.6926(4)
H3A H -0.10340 0.60700 0.69870
C7A C -0.0761(7) 0.3666(5) 0.8091(4)
H4A H -0.12040 0.40570 0.89280
O3A O 0.2733(4) 0.8472(4) -0.0689(3)
H5A H 0.374(6) 0.792(7) 0.000(4)
H6A H 0.286(15) 0.798(12) -0.151(6)
O4A O -0.1674(4) 0.8594(4) -0.0899(3)
H7A H -0.243(7) 0.903(7) -0.172(3)
H8A H -0.247(8) 0.806(7) -0.025(5)
#END
