
#######################################################################
#
#                 Cambridge Crystallographic Data Centre
#                                CCDC
#
#######################################################################
#
# If this CIF has been generated from an entry in the Cambridge
# Structural Database, then it will include bibliographic, chemical,
# crystal, experimental, refinement or atomic coordinate data resulting
# from the CCDC's data processing and validation procedures.
#
#######################################################################

data_CSD_CIF_YUWXOE
_audit_creation_date 2010-12-02
_audit_creation_method CSD-ConQuest-V1
_database_code_CSD YUWXOE
_database_code_depnum_ccdc_archive 'CCDC 785753'
_chemical_formula_sum 'C38 H48 Br2 Co1 N2 O4'
_chemical_formula_moiety
;
C38 H48 Br2 Co1 N2 O4
;
_journal_coden_Cambridge 4
_journal_volume 132
_journal_year 2010
_journal_page_first 6261
_journal_name_full 'J.Am.Chem.Soc. '
loop_
_publ_author_name
"R.D.Schmidt"
"D.A.Shultz"
"J.D.Martin"
"P.D.Boyle"
_chemical_name_systematic
;
(3,5-di-t-butylcatecholato)-(3,5-di-t-butyl-o-semiquinonato)-bis(4-bromopyridi
ne)-cobalt(iii)
;
_cell_volume    933.626
_exptl_crystal_colour 'blue'
_exptl_crystal_density_diffrn 1.451
_exptl_crystal_description 'plate'
_diffrn_ambient_temperature 110
#These two values have been output from a single CSD field.
_refine_ls_R_factor_gt 0.0518
_refine_ls_wR_factor_gt 0.0518
_symmetry_cell_setting triclinic
_symmetry_space_group_name_H-M 'P -1'
_symmetry_Int_Tables_number 2
loop_
_symmetry_equiv_pos_site_id
_symmetry_equiv_pos_as_xyz
1 x,y,z
2 -x,-y,-z
_cell_length_a 6.6135(2)
_cell_length_b 9.6729(3)
_cell_length_c 14.9230(5)
_cell_angle_alpha 85.1702(17)
_cell_angle_beta 82.1886(18)
_cell_angle_gamma 81.5996(17)
_cell_formula_units_Z 1
loop_
_atom_type_symbol
_atom_type_radius_bond
C 0.68
H 0.23
Br 1.21
Co 1.26
N 0.68
O 0.68
loop_
_atom_site_label
_atom_site_type_symbol
_atom_site_fract_x
_atom_site_fract_y
_atom_site_fract_z
Co1 Co 0.00000 1.00000 0.00000
O1 O -0.0970(5) 0.8745(4) -0.0755(3)
O2 O 0.1797(5) 1.0449(3) -0.1121(2)
N1 N 0.2169(7) 0.8330(5) 0.0332(3)
C1 C 0.0086(8) 0.8733(5) -0.1558(4)
C2 C 0.1549(8) 0.9690(5) -0.1780(3)
C3 C 0.2617(8) 0.9821(6) -0.2682(4)
C4 C 0.2248(9) 0.8877(6) -0.3273(4)
H1 H 0.29640 0.89220 -0.38700
C5 C 0.0911(10) 0.7864(6) -0.3066(4)
C6 C -0.0176(9) 0.7795(6) -0.2212(4)
H2 H -0.11010 0.71240 -0.20570
C7 C 0.4078(9) 1.0920(6) -0.2950(3)
C8 C 0.5896(9) 1.0673(6) -0.2394(4)
H3 H 0.68040 1.13880 -0.25830
H4 H 0.66670 0.97430 -0.24960
H5 H 0.53800 1.07300 -0.17490
C9 C 0.2869(9) 1.2390(6) -0.2814(4)
H6 H 0.18030 1.25740 -0.32210
H7 H 0.38140 1.30930 -0.29490
H8 H 0.22220 1.24370 -0.21840
C10 C 0.4959(9) 1.0917(6) -0.3956(3)
H9 H 0.38430 1.12070 -0.43290
H10 H 0.56190 0.99720 -0.40950
H11 H 0.59790 1.15710 -0.40850
C11 C 0.0718(10) 0.6885(6) -0.3790(4)
C12 C 0.284(1) 0.6131(6) -0.4123(4)
H12 H 0.37590 0.68220 -0.43570
H13 H 0.27220 0.55340 -0.46070
H14 H 0.34030 0.55520 -0.36200
C13 C -0.0699(11) 0.5797(7) -0.3433(5)
H15 H -0.08050 0.52030 -0.39210
H16 H -0.20700 0.62730 -0.32190
H17 H -0.01340 0.52160 -0.29310
C14 C -0.0192(12) 0.7775(7) -0.4593(4)
H18 H 0.06930 0.84870 -0.48250
H19 H -0.15780 0.82340 -0.43840
H20 H -0.02670 0.71660 -0.50770
C15 C 0.4194(8) 0.8247(7) 0.0062(4)
H21 H 0.46760 0.89860 -0.03310
C16 C 0.5624(8) 0.7156(7) 0.0322(4)
H22 H 0.70470 0.71410 0.01100
C17 C 0.4940(9) 0.6096(6) 0.0890(4)
C18 C 0.2882(8) 0.6120(6) 0.1141(4)
H23 H 0.23710 0.53690 0.15120
C19 C 0.1551(8) 0.7242(6) 0.0853(4)
H24 H 0.01170 0.72450 0.10340
Br1 Br 0.68459(9) 0.46081(7) 0.13141(4)
O1A O 0.0970(5) 1.1255(4) 0.0755(3)
O2A O -0.1797(5) 0.9551(3) 0.1121(2)
N1A N -0.2169(7) 1.1670(5) -0.0332(3)
C1A C -0.0086(8) 1.1267(5) 0.1558(4)
C2A C -0.1549(8) 1.0310(5) 0.1780(3)
C3A C -0.2617(8) 1.0179(6) 0.2682(4)
C4A C -0.2248(9) 1.1123(6) 0.3273(4)
H1A H -0.29640 1.10780 0.38700
C5A C -0.0911(10) 1.2136(6) 0.3066(4)
C6A C 0.0176(9) 1.2205(6) 0.2212(4)
H2A H 0.11010 1.28760 0.20570
C7A C -0.4078(9) 0.9080(6) 0.2950(3)
C8A C -0.5896(9) 0.9327(6) 0.2394(4)
H3A H -0.68040 0.86120 0.25830
H4A H -0.66670 1.02570 0.24960
H5A H -0.53800 0.92700 0.17490
C9A C -0.2869(9) 0.7610(6) 0.2814(4)
H6A H -0.18030 0.74260 0.32210
H7A H -0.38140 0.69070 0.29490
H8A H -0.22220 0.75630 0.21840
C10A C -0.4959(9) 0.9083(6) 0.3956(3)
H9A H -0.38430 0.87930 0.43290
H10A H -0.56190 1.00280 0.40950
H11A H -0.59790 0.84290 0.40850
C11A C -0.0718(10) 1.3115(6) 0.3790(4)
C12A C -0.284(1) 1.3869(6) 0.4123(4)
H12A H -0.37590 1.31780 0.43570
H13A H -0.27220 1.44660 0.46070
H14A H -0.34030 1.44480 0.36200
C13A C 0.0699(11) 1.4203(7) 0.3433(5)
H15A H 0.08050 1.47970 0.39210
H16A H 0.20700 1.37270 0.32190
H17A H 0.01340 1.47840 0.29310
C14A C 0.0192(12) 1.2225(7) 0.4593(4)
H18A H -0.06930 1.15130 0.48250
H19A H 0.15780 1.17660 0.43840
H20A H 0.02670 1.28340 0.50770
C15A C -0.4194(8) 1.1753(7) -0.0062(4)
H21A H -0.46760 1.10140 0.03310
C16A C -0.5624(8) 1.2844(7) -0.0322(4)
H22A H -0.70470 1.28590 -0.01100
C17A C -0.4940(9) 1.3904(6) -0.0890(4)
C18A C -0.2882(8) 1.3880(6) -0.1141(4)
H23A H -0.23710 1.46310 -0.15120
C19A C -0.1551(8) 1.2758(6) -0.0853(4)
H24A H -0.01170 1.27550 -0.10340
Br1A Br -0.68459(9) 1.53919(7) -0.13141(4)
#END
