
#######################################################################
#
#                 Cambridge Crystallographic Data Centre
#                                CCDC
#
#######################################################################
#
# If this CIF has been generated from an entry in the Cambridge
# Structural Database, then it will include bibliographic, chemical,
# crystal, experimental, refinement or atomic coordinate data resulting
# from the CCDC's data processing and validation procedures.
#
#######################################################################

data_CSD_CIF_YUYTOD
_audit_creation_date 2015-11-10
_audit_creation_method CSD-ConQuest-V1
_database_code_CSD YUYTOD
_database_code_depnum_ccdc_archive 'CCDC 1402030'
_chemical_formula_sum 'C15 H22 Br1 Mn1 N2 O5'
_chemical_formula_moiety
;
C15 H22 Br1 Mn1 N2 O5
;
_journal_coden_Cambridge 1290
_journal_year 2015
_journal_page_first 5628
_journal_name_full 'Eur.J.Inorg.Chem. '
loop_
_publ_author_name
"E.Kottelat"
"V.Chabert"
"A.Crochet"
"K.M.Fromm"
"F.Zobi"
_chemical_name_systematic
;
bromo-tricarbonyl-bis(2-methoxy-2-methylpropyl isocyanido)-manganese
;
_cell_volume    987.153
_exptl_crystal_colour 'yellow'
_exptl_crystal_density_diffrn 1.498
_exptl_crystal_description 'needle'
_diffrn_ambient_temperature 200
#These two values have been output from a single CSD field.
_refine_ls_R_factor_gt 0.0991
_refine_ls_wR_factor_gt 0.0991
_symmetry_cell_setting triclinic
_symmetry_space_group_name_H-M 'P -1'
_symmetry_Int_Tables_number 2
loop_
_symmetry_equiv_pos_site_id
_symmetry_equiv_pos_as_xyz
1 x,y,z
2 -x,-y,-z
_cell_length_a 5.7667(6)
_cell_length_b 11.2375(11)
_cell_length_c 15.4435(15)
_cell_angle_alpha 89.783(8)
_cell_angle_beta 81.639(8)
_cell_angle_gamma 85.560(8)
_cell_formula_units_Z 2
loop_
_atom_type_symbol
_atom_type_radius_bond
C 0.68
H 0.23
Br 1.21
Mn 1.61
N 0.68
O 0.68
loop_
_atom_site_label
_atom_site_type_symbol
_atom_site_fract_x
_atom_site_fract_y
_atom_site_fract_z
C1 C 0.7985(11) -0.2097(5) 0.2237(4)
C2 C 0.8120(11) -0.0334(5) 0.1092(4)
C3 C 1.1972(12) -0.1672(5) 0.1274(4)
C4 C 1.1526(10) 0.0611(5) 0.1793(3)
C5 C 1.3903(12) 0.2451(6) 0.1470(5)
H1 H 1.47680 0.23980 0.08670
H2 H 1.50740 0.24550 0.18790
C6 C 1.2333(15) 0.3613(6) 0.1576(5)
C7 C 1.086(2) 0.3727(8) 0.2464(6)
H3 H 0.98720 0.44810 0.25000
H4 H 1.18860 0.37150 0.29170
H5 H 0.98550 0.30590 0.25530
C8 C 1.384(2) 0.4656(8) 0.1390(9)
H6 H 1.47710 0.45570 0.08080
H7 H 1.49000 0.46840 0.18310
H8 H 1.28310 0.54000 0.14120
C9 C 1.114(2) 0.3433(9) 0.0146(6)
H9 H 1.22460 0.40200 -0.00800
H10 H 0.97480 0.35280 -0.01490
H11 H 1.19020 0.26260 0.00370
C10 C 1.1338(10) -0.1193(5) 0.3003(4)
C11 C 1.3237(10) -0.1900(5) 0.4348(3)
H12 H 1.30480 -0.12700 0.48040
H13 H 1.49400 -0.21110 0.41740
C12 C 1.2039(11) -0.3007(5) 0.4721(4)
C13 C 1.3204(12) -0.3421(5) 0.5505(4)
H14 H 1.30430 -0.27710 0.59360
H15 H 1.48750 -0.36470 0.53130
H16 H 1.24430 -0.41110 0.57710
C14 C 1.2297(14) -0.3992(5) 0.4023(4)
H17 H 1.16940 -0.47220 0.42880
H18 H 1.39600 -0.41500 0.37820
H19 H 1.14030 -0.37350 0.35530
C15 C 0.8832(12) -0.1717(7) 0.5492(5)
H20 H 0.95770 -0.17820 0.60230
H21 H 0.71190 -0.16640 0.56520
H22 H 0.92980 -0.09990 0.51710
Mn1 Mn 0.97451(15) -0.07974(7) 0.19976(5)
N1 N 1.2579(10) 0.1430(4) 0.1636(3)
N2 N 1.2225(9) -0.1458(4) 0.3602(3)
O1 O 0.6956(10) -0.2907(4) 0.2376(4)
O2 O 0.7164(9) -0.0040(5) 0.0528(3)
O3 O 1.3343(9) -0.2215(4) 0.0825(4)
O4 O 1.0489(12) 0.3608(5) 0.1031(4)
O5 O 0.9561(7) -0.2744(4) 0.4951(3)
Br1 Br 0.67957(11) 0.04554(5) 0.30600(4)
#END
