
#######################################################################
#
#                 Cambridge Crystallographic Data Centre
#                                CCDC
#
#######################################################################
#
# If this CIF has been generated from an entry in the Cambridge
# Structural Database, then it will include bibliographic, chemical,
# crystal, experimental, refinement or atomic coordinate data resulting
# from the CCDC's data processing and validation procedures.
#
#######################################################################

data_CSD_CIF_YUYTIX
_audit_creation_date 2015-11-10
_audit_creation_method CSD-ConQuest-V1
_database_code_CSD YUYTIX
_database_code_depnum_ccdc_archive 'CCDC 1402029'
_chemical_formula_sum 'C17 H22 Br1 Mn1 N2 O3'
_chemical_formula_moiety
;
C17 H22 Br1 Mn1 N2 O3
;
_journal_coden_Cambridge 1290
_journal_year 2015
_journal_page_first 5628
_journal_name_full 'Eur.J.Inorg.Chem. '
loop_
_publ_author_name
"E.Kottelat"
"V.Chabert"
"A.Crochet"
"K.M.Fromm"
"F.Zobi"
_chemical_name_systematic
;
bromo-tricarbonyl-bis(cyclohexyl isocyanido)-manganese
;
_cell_volume    977.719
_exptl_crystal_colour 'yellow'
_exptl_crystal_density_diffrn 1.485
_exptl_crystal_description 'rectangle'
_diffrn_ambient_temperature 200
#These two values have been output from a single CSD field.
_refine_ls_R_factor_gt 0.0384
_refine_ls_wR_factor_gt 0.0384
_symmetry_cell_setting triclinic
_symmetry_space_group_name_H-M 'P -1'
_symmetry_Int_Tables_number 2
loop_
_symmetry_equiv_pos_site_id
_symmetry_equiv_pos_as_xyz
1 x,y,z
2 -x,-y,-z
_cell_length_a 6.2131(8)
_cell_length_b 10.6591(14)
_cell_length_c 15.317(2)
_cell_angle_alpha 97.228(11)
_cell_angle_beta 99.344(11)
_cell_angle_gamma 98.655(11)
_cell_formula_units_Z 2
loop_
_atom_type_symbol
_atom_type_radius_bond
C 0.68
H 0.23
Br 1.21
Mn 1.61
N 0.68
O 0.68
loop_
_atom_site_label
_atom_site_type_symbol
_atom_site_fract_x
_atom_site_fract_y
_atom_site_fract_z
C1 C 0.2179(8) 0.7017(5) 0.1996(3)
C2 C 0.3236(9) 0.8400(5) 0.3565(4)
C3 C 0.6225(10) 0.7348(6) 0.2879(3)
C4 C 0.5390(7) 0.8442(4) 0.1399(3)
C5 C 0.6479(6) 0.8539(4) -0.0160(3)
H1 H 0.70080 0.94560 -0.02080
C6 C 0.8326(7) 0.7779(4) -0.0281(3)
H2 H 0.88900 0.79640 -0.08280
H3 H 0.95630 0.80640 0.02350
C7 C 0.7560(8) 0.6351(5) -0.0357(3)
H4 H 0.72060 0.61480 0.02220
H5 H 0.87720 0.58950 -0.04910
C8 C 0.5535(8) 0.5881(5) -0.1086(3)
H6 H 0.59230 0.60100 -0.16740
H7 H 0.50340 0.49510 -0.11010
C9 C 0.3683(7) 0.6597(4) -0.0923(3)
H8 H 0.32180 0.64140 -0.03570
H9 H 0.23930 0.62930 -0.14150
C10 C 0.4399(7) 0.8027(4) -0.0866(3)
H10 H 0.31850 0.84710 -0.07190
H11 H 0.46890 0.82190 -0.14570
C11 C 0.6445(8) 0.9909(6) 0.3069(3)
C12 C 0.9109(9) 1.2035(6) 0.3767(5)
H12 H 0.84390 1.24350 0.42600
C13 C 1.1284(8) 1.1791(5) 0.4226(3)
H13 H 1.18980 1.12180 0.38070
H14 H 1.10640 1.13540 0.47460
C14 C 1.2899(10) 1.3034(7) 0.4538(5)
H15 H 1.25430 1.34600 0.50960
H16 H 1.44060 1.28310 0.46860
C15 C 1.2920(15) 1.3884(10) 0.3934(7)
H17 H 1.36590 1.35500 0.34500
H18 H 1.38470 1.47070 0.42420
C16 C 1.0730(13) 1.4158(7) 0.3512(5)
H19 H 1.09180 1.46380 0.30080
H20 H 1.01270 1.46930 0.39570
C17 C 0.9135(11) 1.2900(7) 0.3171(5)
H21 H 0.76220 1.30910 0.30140
H22 H 0.95310 1.24930 0.26150
Br1 Br 0.16674(8) 0.97938(5) 0.19897(3)
Mn1 Mn 0.43348(10) 0.83644(7) 0.25281(4)
N1 N 0.5922(6) 0.8476(4) 0.0715(2)
N2 N 0.7615(7) 1.0840(5) 0.3407(3)
O1 O 0.0787(7) 0.6180(4) 0.1660(3)
O2 O 0.2555(8) 0.8432(5) 0.4212(3)
O3 O 0.7404(8) 0.6688(6) 0.3095(3)
#END
