
#######################################################################
#
#                 Cambridge Crystallographic Data Centre
#                                CCDC
#
#######################################################################
#
# If this CIF has been generated from an entry in the Cambridge
# Structural Database, then it will include bibliographic, chemical,
# crystal, experimental, refinement or atomic coordinate data resulting
# from the CCDC's data processing and validation procedures.
#
#######################################################################

data_CSD_CIF_YUZKEK
_audit_creation_date 2010-12-02
_audit_creation_method CSD-ConQuest-V1
_database_code_CSD YUZKEK
_database_code_depnum_ccdc_archive 'CCDC 738931'
_chemical_formula_sum 'C32 H42 Co1 N4 O6'
_chemical_formula_moiety
;
C32 H42 Co1 N4 O6
;
_journal_coden_Cambridge 1295
_journal_volume 13
_journal_year 2010
_journal_page_first 573
_journal_name_full 'Inorg.Chem.Commun. '
loop_
_publ_author_name
"Jia-Min Li"
"Jin-Zhou Li"
"Heng-Qiang Zhang"
"Li-Ying Xu"
_chemical_name_systematic
;
Diaqua-bis(4-hexanoxyl-3-methyl-1-phenyl-1H-pyrazole-5-one)-cobalt(ii)
;
_cell_volume   1633.155
_exptl_crystal_density_diffrn 1.297
_exptl_crystal_description 'prism'
_diffrn_ambient_temperature 295
#These two values have been output from a single CSD field.
_refine_ls_R_factor_gt 0.0345
_refine_ls_wR_factor_gt 0.0345
_symmetry_cell_setting monoclinic
_symmetry_space_group_name_H-M 'C 2/m'
_symmetry_Int_Tables_number 12
loop_
_symmetry_equiv_pos_site_id
_symmetry_equiv_pos_as_xyz
1 x,y,z
2 -x,y,-z
3 1/2+x,1/2+y,z
4 1/2-x,1/2+y,-z
5 -x,-y,-z
6 x,-y,z
7 -1/2-x,-1/2-y,-z
8 -1/2+x,-1/2-y,z
_cell_length_a 15.2439(12)
_cell_length_b 7.4101(6)
_cell_length_c 15.7381(18)
_cell_angle_alpha 90
_cell_angle_beta 113.269(1)
_cell_angle_gamma 90
_cell_formula_units_Z 2
loop_
_atom_type_symbol
_atom_type_radius_bond
C 0.68
H 0.23
Co 1.26
N 0.68
O 0.68
loop_
_atom_site_label
_atom_site_type_symbol
_atom_site_fract_x
_atom_site_fract_y
_atom_site_fract_z
Co1 Co 0.50000 0.00000 0.00000
O1 O 0.35556(11) 0.00000 -0.06211(11)
O2 O 0.48866(11) 0.00000 0.12543(11)
O3 O 0.50000 0.2829(2) 0.00000
H1 H 0.45900 0.33590 -0.00320
N1 N 0.20345(12) 0.00000 -0.06217(12)
N2 N 0.16107(12) 0.00000 0.00196(13)
C1 C 0.30163(14) 0.00000 -0.01843(15)
C2 C 0.14589(15) 0.00000 -0.15821(15)
C3 C 0.18565(19) 0.00000 -0.22382(18)
H2 H 0.25160 0.00000 -0.20520
C4 C 0.1269(2) 0.00000 -0.3169(2)
H3 H 0.15410 0.00000 -0.36040
C5 C 0.0292(2) 0.00000 -0.3465(2)
H4 H -0.00970 0.00000 -0.40930
C6 C -0.00940(19) 0.00000 -0.2820(2)
H5 H -0.07550 0.00000 -0.30130
C7 C 0.04756(17) 0.00000 -0.18795(18)
H6 H 0.01960 0.00000 -0.14500
C8 C 0.23216(15) 0.00000 0.08438(16)
C9 C 0.32251(14) 0.00000 0.07793(15)
C10 C 0.41857(14) 0.00000 0.14757(15)
C11 C 0.43875(16) 0.00000 0.24885(15)
H7 H 0.41160 -0.09990 0.26120
C12 C 0.54499(18) 0.00000 0.30984(17)
H8 H 0.57370 0.10470 0.29550
C13 C 0.5656(2) 0.00000 0.41211(19)
H9 H 0.53710 -0.10470 0.42660
C14 C 0.6708(3) 0.00000 0.4716(3)
H10 H 0.69890 -0.10450 0.45650
C15 C 0.6940(3) 0.00000 0.5738(3)
H11 H 0.76220 0.00000 0.60660
H12 H 0.66770 0.10580 0.59010
C16 C 0.20825(18) 0.00000 0.16800(18)
H13 H 0.14010 0.00000 0.14890
H14 H 0.23460 -0.10580 0.20440
O1A O 0.64444(11) 0.00000 0.06211(11)
O2A O 0.51134(11) 0.00000 -0.12543(11)
O3D O 0.50000 -0.2829(2) 0.00000
H1A H 0.54100 0.33590 0.00320
H1D H 0.54100 -0.33590 0.00320
H1E H 0.45900 -0.33590 -0.00320
N1A N 0.79655(12) 0.00000 0.06217(12)
N2A N 0.83893(12) 0.00000 -0.00196(13)
C1A C 0.69837(14) 0.00000 0.01843(15)
C2A C 0.85411(15) 0.00000 0.15821(15)
C3A C 0.81435(19) 0.00000 0.22382(18)
H2A H 0.74840 0.00000 0.20520
C4A C 0.8731(2) 0.00000 0.3169(2)
H3A H 0.84590 0.00000 0.36040
C5A C 0.9708(2) 0.00000 0.3465(2)
H4A H 1.00970 0.00000 0.40930
C6A C 1.00940(19) 0.00000 0.2820(2)
H5A H 1.07550 0.00000 0.30130
C7A C 0.95244(17) 0.00000 0.18795(18)
H6A H 0.98040 0.00000 0.14500
C8A C 0.76784(15) 0.00000 -0.08438(16)
C9A C 0.67749(14) 0.00000 -0.07793(15)
C10A C 0.58143(14) 0.00000 -0.14757(15)
C11A C 0.56125(16) 0.00000 -0.24885(15)
H7E H 0.41160 0.09990 0.26120
H7A H 0.58840 -0.09990 -0.26120
H7D H 0.58840 0.09990 -0.26120
C12A C 0.45501(18) 0.00000 -0.30984(17)
H8E H 0.57370 -0.10470 0.29550
H8A H 0.42630 0.10470 -0.29550
H8D H 0.42630 -0.10470 -0.29550
C13A C 0.4344(2) 0.00000 -0.41211(19)
H9E H 0.53710 0.10470 0.42660
H9A H 0.46290 -0.10470 -0.42660
H9D H 0.46290 0.10470 -0.42660
C14A C 0.3292(3) 0.00000 -0.4716(3)
H10E H 0.69890 0.10450 0.45650
H10A H 0.30110 -0.10450 -0.45650
H10D H 0.30110 0.10450 -0.45650
C15A C 0.3060(3) 0.00000 -0.5738(3)
H11A H 0.23780 0.00000 -0.60660
H12E H 0.66770 -0.10580 0.59010
H12A H 0.33230 0.10580 -0.59010
H12D H 0.33230 -0.10580 -0.59010
C16A C 0.79175(18) 0.00000 -0.16800(18)
H13A H 0.85990 0.00000 -0.14890
H14E H 0.23460 0.10580 0.20440
H14A H 0.76540 -0.10580 -0.20440
H14D H 0.76540 0.10580 -0.20440
#END
