
#######################################################################
#
#                 Cambridge Crystallographic Data Centre
#                                CCDC
#
#######################################################################
#
# If this CIF has been generated from an entry in the Cambridge
# Structural Database, then it will include bibliographic, chemical,
# crystal, experimental, refinement or atomic coordinate data resulting
# from the CCDC's data processing and validation procedures.
#
#######################################################################

data_CSD_CIF_ZAFSOR
_audit_creation_date 2016-01-06
_audit_creation_method CSD-ConQuest-V1
_database_code_CSD ZAFSOR
_database_code_depnum_ccdc_archive 'CCDC 1408570'
_chemical_formula_sum 'C6 H18 Cl2 Mn1 N18 O4'
_chemical_formula_moiety
;
C6 H18 Mn1 N18 2+,Cl1 O4 1-,Cl1 1-
;
_journal_coden_Cambridge 9
_journal_volume 55
_journal_year 2016
_journal_page_first 322
_journal_name_full 'Inorg.Chem. '
loop_
_publ_author_name
"Caixia Xu"
"Jianguo Zhang"
"Xin Yin"
"Zhenxuan Cheng"
_chemical_name_systematic
;
tris(3-(hydrazino)-4H-1,2,4-triazol-4-amine)-manganese(ii) chloride 
perchlorate
;
_cell_volume    482.860
_exptl_crystal_density_diffrn 1.83
_diffrn_ambient_temperature 296
#These two values have been output from a single CSD field.
_refine_ls_R_factor_gt 0.0174
_refine_ls_wR_factor_gt 0.0174
_symmetry_cell_setting hexagonal
_symmetry_space_group_name_H-M 'P 3'
_symmetry_Int_Tables_number 143
loop_
_symmetry_equiv_pos_site_id
_symmetry_equiv_pos_as_xyz
1 x,y,z
2 -y,x-y,z
3 -x+y,-x,z
_cell_length_a 9.5156(2)
_cell_length_b 9.5156(2)
_cell_length_c 6.1577(3)
_cell_angle_alpha 90
_cell_angle_beta 90
_cell_angle_gamma 120
_cell_formula_units_Z 1
loop_
_atom_type_symbol
_atom_type_radius_bond
C 0.68
H 0.23
Cl 0.99
Mn 1.61
N 0.68
O 0.68
loop_
_atom_site_label
_atom_site_type_symbol
_atom_site_fract_x
_atom_site_fract_y
_atom_site_fract_z
C1 C 0.98875(15) 0.36207(14) 0.2477(2)
C2 C 1.00114(18) 0.26653(25) -0.0663(3)
H1 H 1.047(2) 0.247(3) -0.183(3)
H2 H 0.947(3) 0.564(3) 0.521(4)
H3 H 0.884(3) 0.414(3) 0.671(4)
H4 H 1.121(4) 0.489(4) 0.475(5)
H5 H 1.271(3) 0.316(3) 0.146(4)
H6 H 1.307(3) 0.459(3) 0.041(4)
Mn1 Mn 0.66670 0.33330 0.32769(5)
N1 N 1.09173(13) 0.34652(14) 0.1124(2)
N2 N 1.25632(15) 0.40332(18) 0.1546(3)
N3 N 1.02471(15) 0.42690(15) 0.4494(2)
N4 N 0.90766(16) 0.46309(17) 0.5366(2)
N5 N 0.85279(16) 0.23734(23) -0.0467(2)
N6 N 0.84479(14) 0.29878(20) 0.15695(19)
Cl1 Cl 0.00000 0.00000 0.44638(9)
O1 O 0.14696(13) 0.13619(14) 0.5253(2)
O2 O 0.00000 0.00000 0.2135(4)
Cl2 Cl 0.33330 0.66670 0.74378(9)
C1A C 0.63793(15) 0.62668(14) 0.2477(2)
C2A C 0.73347(18) 0.73461(25) -0.0663(3)
H1A H 0.753(2) 0.800(3) -0.183(3)
H2A H 0.436(3) 0.383(3) 0.521(4)
H3A H 0.586(3) 0.470(3) 0.671(4)
H4A H 0.511(4) 0.632(4) 0.475(5)
H5A H 0.684(3) 0.955(3) 0.146(4)
H6A H 0.541(3) 0.848(3) 0.041(4)
N1A N 0.65348(13) 0.74521(14) 0.1124(2)
N2A N 0.59668(15) 0.85300(18) 0.1546(3)
N3A N 0.57310(15) 0.59781(15) 0.4494(2)
N4A N 0.53691(16) 0.44457(17) 0.5366(2)
N5A N 0.76266(16) 0.61545(23) -0.0467(2)
N6A N 0.70122(14) 0.54601(20) 0.15695(19)
C1B C 0.37332(15) 0.01125(14) 0.2477(2)
C2B C 0.26539(18) -0.00114(25) -0.0663(3)
H1B H 0.200(2) -0.047(3) -0.183(3)
H2B H 0.617(3) 0.053(3) 0.521(4)
H3B H 0.530(3) 0.116(3) 0.671(4)
H4B H 0.368(4) -0.121(4) 0.475(5)
H5B H 0.045(3) -0.271(3) 0.146(4)
H6B H 0.152(3) -0.307(3) 0.041(4)
N1B N 0.25479(13) -0.09173(14) 0.1124(2)
N2B N 0.14700(15) -0.25632(18) 0.1546(3)
N3B N 0.40219(15) -0.02471(15) 0.4494(2)
N4B N 0.55543(16) 0.09234(17) 0.5366(2)
N5B N 0.38455(16) 0.14721(23) -0.0467(2)
N6B N 0.45399(14) 0.15521(20) 0.15695(19)
O1A O -0.13619(13) 0.01077(14) 0.5253(2)
O1B O -0.01077(13) -0.14696(14) 0.5253(2)
#END
