
#######################################################################
#
#                 Cambridge Crystallographic Data Centre
#                                CCDC
#
#######################################################################
#
# If this CIF has been generated from an entry in the Cambridge
# Structural Database, then it will include bibliographic, chemical,
# crystal, experimental, refinement or atomic coordinate data resulting
# from the CCDC's data processing and validation procedures.
#
#######################################################################

data_CSD_CIF_ZAPYUN
_audit_creation_date 2017-02-15
_audit_creation_method CSD-ConQuest-V1
_database_code_CSD ZAPYUN
_database_code_depnum_ccdc_archive 'CCDC 1521056'
_chemical_formula_sum 'C10 H16 Cl5 Fe1 N4 O1'
_chemical_formula_moiety
;
C10 H16 Cl5 Fe1 N4 O1
;
_journal_coden_Cambridge 440
_journal_volume 41
_journal_year 2017
_journal_page_first 2220
_journal_name_full 'New J.Chem. '
loop_
_publ_author_name
"E.V.Govor"
"Y.Sanakis"
"R.G.Raptis"
_chemical_name_systematic
;
aqua-trichloro-bis(4-chloro-3,5-dimethyl-1H-pyrazole)-iron(iii)
;
_cell_volume   1717.340
_exptl_crystal_colour 'lustrous intense red'
_exptl_crystal_density_diffrn 1.707
_exptl_crystal_description 'Polygon'
_diffrn_ambient_temperature 298
_diffrn_special_details
;
twin

;
#These two values have been output from a single CSD field.
_refine_ls_R_factor_gt 0.0428
_refine_ls_wR_factor_gt 0.0428
_symmetry_cell_setting monoclinic
_symmetry_space_group_name_H-M 'C 2/c'
_symmetry_Int_Tables_number 15
loop_
_symmetry_equiv_pos_site_id
_symmetry_equiv_pos_as_xyz
1 x,y,z
2 -x,y,1/2-z
3 1/2+x,1/2+y,z
4 1/2-x,1/2+y,1/2-z
5 -x,-y,-z
6 x,-y,-1/2+z
7 -1/2-x,-1/2-y,-z
8 -1/2+x,-1/2-y,-1/2+z
_cell_length_a 24.487(3)
_cell_length_b 8.7651(10)
_cell_length_c 8.5302(10)
_cell_angle_alpha 90
_cell_angle_beta 110.281(3)
_cell_angle_gamma 90
_cell_formula_units_Z 4
loop_
_atom_type_symbol
_atom_type_radius_bond
C 0.68
H 0.23
Cl 0.99
Fe 1.52
N 0.68
O 0.68
loop_
_atom_site_label
_atom_site_type_symbol
_atom_site_fract_x
_atom_site_fract_y
_atom_site_fract_z
Fe1 Fe 0.00000 0.22113(8) 0.75000
H1 H -0.010(3) -0.069(7) 0.842(7)
Cl1 Cl 0.00000 0.48459(13) 0.75000
Cl2 Cl 0.05246(4) 0.21605(12) 1.03837(11)
H2 H 0.050(2) 0.368(5) 0.513(6)
Cl3 Cl 0.24280(4) 0.20467(16) 0.74126(17)
O1 O 0.00000 -0.0148(4) 0.75000
N1 N 0.07895(13) 0.2184(4) 0.6914(4)
N2 N 0.08257(13) 0.3228(4) 0.5764(4)
C1 C 0.13321(16) 0.1633(4) 0.7631(5)
C2 C 0.16950(15) 0.2366(4) 0.6907(5)
C3 C 0.13661(16) 0.3366(4) 0.5728(5)
C4 C 0.14903(18) 0.0399(5) 0.8912(6)
H3 H 0.16070 0.08430 1.00070
H4 H 0.18060 -0.01900 0.88030
H5 H 0.11600 -0.02520 0.87490
C5 C 0.15196(18) 0.4416(5) 0.4581(6)
H6 H 0.19350 0.45010 0.49220
H7 H 0.13550 0.54040 0.46170
H8 H 0.13680 0.40230 0.34630
H1A H 0.010(3) -0.069(7) 0.658(7)
Cl2A Cl -0.05246(4) 0.21605(12) 0.46163(11)
H2A H -0.050(2) 0.368(5) 0.987(6)
Cl3A Cl -0.24280(4) 0.20467(16) 0.75874(17)
N1A N -0.07895(13) 0.2184(4) 0.8086(4)
N2A N -0.08257(13) 0.3228(4) 0.9236(4)
C1A C -0.13321(16) 0.1633(4) 0.7369(5)
C2A C -0.16950(15) 0.2366(4) 0.8093(5)
C3A C -0.13661(16) 0.3366(4) 0.9272(5)
C4A C -0.14903(18) 0.0399(5) 0.6088(6)
H3A H -0.16070 0.08430 0.49930
H4A H -0.18060 -0.01900 0.61970
H5A H -0.11600 -0.02520 0.62510
C5A C -0.15196(18) 0.4416(5) 1.0419(6)
H6A H -0.19350 0.45010 1.00780
H7A H -0.13550 0.54040 1.03830
H8A H -0.13680 0.40230 1.15370
#END
