
#######################################################################
#
#                 Cambridge Crystallographic Data Centre
#                                CCDC
#
#######################################################################
#
# If this CIF has been generated from an entry in the Cambridge
# Structural Database, then it will include bibliographic, chemical,
# crystal, experimental, refinement or atomic coordinate data resulting
# from the CCDC's data processing and validation procedures.
#
#######################################################################

data_CSD_CIF_ZEBSAA
_audit_creation_date 1996-04-17
_audit_creation_method CSD-ConQuest-V1
_database_code_CSD ZEBSAA
_database_code_depnum_ccdc_archive 'CCDC 1310079'
_chemical_formula_sum 'C12 H32 Fe1 N6 P4'
_chemical_formula_moiety
;
C12 H32 Fe1 N6 P4
;
_journal_coden_Cambridge 580
_journal_volume 14
_journal_year 1995
_journal_page_first 3133
_journal_name_full 'Polyhedron '
loop_
_publ_author_name
"L.D.Field"
"A.V.George"
"S.R.Pike"
"I.E.Buys"
"T.W.Hambley"
_chemical_name_systematic
;
trans-bis(1,2-bis(Dimethylphosphino)ethane)-bis(azido)-iron(ii)
;
_chemical_melting_point 443.15
_cell_volume   1039.383
_exptl_crystal_colour 'blue'
_exptl_crystal_density_diffrn 1.405
_exptl_special_details
;
Melts with decomposition.

;
_diffrn_ambient_temperature ?
_diffrn_special_details
;
The study was carried out at room temperature,in the range 283-303K

;
#These two values have been output from a single CSD field.
_refine_ls_R_factor_gt 0.0221
_refine_ls_wR_factor_gt 0.0221
_symmetry_cell_setting monoclinic
_symmetry_space_group_name_H-M 'P 21'
_symmetry_Int_Tables_number 4
loop_
_symmetry_equiv_pos_site_id
_symmetry_equiv_pos_as_xyz
1 x,y,z
2 -x,1/2+y,-z
_cell_length_a 9.128(1)
_cell_length_b 12.441(3)
_cell_length_c 9.170(2)
_cell_angle_alpha 90
_cell_angle_beta 93.53(1)
_cell_angle_gamma 90
_cell_formula_units_Z 2
loop_
_atom_type_symbol
_atom_type_radius_bond
C 0.68
H 0.23
Fe 1.34
N 0.68
P 1.05
loop_
_atom_site_label
_atom_site_type_symbol
_atom_site_fract_x
_atom_site_fract_y
_atom_site_fract_z
Fe1 Fe 0.7508(1) 0.00000 0.2277(1)
P1 P 0.6004(1) -0.0573(1) 0.0418(1)
P2 P 0.5809(1) -0.0626(1) 0.3716(1)
P3 P 0.9012(1) 0.0580(1) 0.4136(1)
P4 P 0.9214(1) 0.0625(1) 0.0836(1)
N1 N 0.7027(4) 0.3182(3) 0.2800(5)
N2 N 0.6748(3) 0.2296(3) 0.2494(3)
N3 N 0.6414(3) 0.1415(3) 0.2136(3)
N4 N 0.8615(3) -0.1408(3) 0.2320(3)
N5 N 0.8248(3) -0.2302(3) 0.2517(3)
N6 N 0.7955(5) -0.3199(3) 0.2682(5)
C1 C 0.4505(4) -0.1472(4) 0.2599(5)
C2 C 0.4228(4) -0.0934(4) 0.1121(4)
C3 C 1.0418(4) 0.1443(4) 0.3388(4)
C4 C 1.0871(4) 0.0934(4) 0.1992(5)
C5 C 0.4590(4) 0.0343(4) 0.4507(5)
C6 C 0.6290(5) -0.1488(4) 0.5277(4)
C7 C 0.5451(5) 0.0320(4) -0.1100(4)
C8 C 0.6489(4) -0.1800(3) -0.0534(4)
C9 C 0.8360(4) 0.1401(4) 0.5612(4)
C10 C 1.0133(4) -0.0412(4) 0.5148(5)
C11 C 0.8863(5) 0.1891(3) -0.0116(5)
C12 C 0.9919(5) -0.0195(3) -0.0599(4)
H1 H 0.359(1) -0.153(1) 0.308(1)
H2 H 0.492(1) -0.217(1) 0.247(1)
H3 H 0.371(1) -0.142(1) 0.045(1)
H4 H 0.364(1) -0.028(1) 0.123(1)
H5 H 1.126(1) 0.150(1) 0.408(1)
H6 H 1.002(1) 0.215(1) 0.319(1)
H7 H 1.149(1) 0.143(1) 0.149(1)
H8 H 1.141(1) 0.028(1) 0.222(1)
H9 H 0.425(1) 0.086(1) 0.377(1)
H10 H 0.512(1) 0.072(1) 0.531(1)
H11 H 0.375(1) -0.002(1) 0.487(1)
H12 H 0.695(1) -0.204(1) 0.499(1)
H13 H 0.541(1) -0.180(1) 0.562(1)
H14 H 0.677(1) -0.105(1) 0.606(1)
H15 H 0.516(1) 0.101(1) -0.071(1)
H16 H 0.463(1) 0.001(1) -0.166(1)
H17 H 0.627(1) 0.042(1) -0.171(1)
H18 H 0.681(1) -0.233(1) 0.017(1)
H19 H 0.728(1) -0.164(1) -0.116(1)
H20 H 0.564(1) -0.205(1) -0.111(1)
H21 H 0.774(1) 0.197(1) 0.520(1)
H22 H 0.919(1) 0.171(1) 0.617(1)
H23 H 0.780(1) 0.096(1) 0.625(1)
H24 H 1.055(1) -0.090(1) 0.447(1)
H25 H 0.953(1) -0.080(1) 0.580(1)
H26 H 1.092(1) -0.004(1) 0.572(1)
H27 H 0.847(1) 0.241(1) 0.055(1)
H28 H 0.816(1) 0.178(1) -0.093(1)
H29 H 0.977(1) 0.216(1) -0.046(1)
H30 H 1.015(1) -0.090(1) -0.021(1)
H31 H 1.080(1) 0.013(1) -0.093(1)
H32 H 0.918(1) -0.024(1) -0.140(1)
#END
