
#######################################################################
#
#                 Cambridge Crystallographic Data Centre
#                                CCDC
#
#######################################################################
#
# If this CIF has been generated from an entry in the Cambridge
# Structural Database, then it will include bibliographic, chemical,
# crystal, experimental, refinement or atomic coordinate data resulting
# from the CCDC's data processing and validation procedures.
#
#######################################################################

data_CSD_CIF_ZEDGUK
_audit_creation_date 1996-04-12
_audit_creation_method CSD-ConQuest-V1
_database_code_CSD ZEDGUK
_database_code_depnum_ccdc_archive 'CCDC 1310236'
_chemical_formula_sum 'C10 H24 Cl1 Co1 N4 O5'
_chemical_formula_moiety
;
C10 H22 Co1 N4 O4 1+,Cl1 1-,H2 O1
;
_journal_coden_Cambridge 7
_journal_volume 67
_journal_year 1994
_journal_page_first 680
_journal_name_full 'Bull.Chem.Soc.Jpn. '
loop_
_publ_author_name
"N.Sakagami"
"T.Yasui"
"H.Kawaguchi"
"T.Ama"
"S.Kaizaki"
_chemical_name_systematic
;
rac-\b(e-1)-(Ethylenediamine-N,N'-dipropionato)-ethylenediamine-cobalt(iii) 
chloride monohydrate
;
_cell_volume    772.560
_exptl_crystal_density_diffrn 1.611
_diffrn_ambient_temperature ?
_diffrn_special_details
;
The study was carried out at room temperature,in the range 283-303K

;
#These two values have been output from a single CSD field.
_refine_ls_R_factor_gt 0.029
_refine_ls_wR_factor_gt 0.029
_symmetry_cell_setting triclinic
_symmetry_space_group_name_H-M 'P -1'
_symmetry_Int_Tables_number 2
loop_
_symmetry_equiv_pos_site_id
_symmetry_equiv_pos_as_xyz
1 x,y,z
2 -x,-y,-z
_cell_length_a 9.084(2)
_cell_length_b 10.800(2)
_cell_length_c 8.337(1)
_cell_angle_alpha 99.37(1)
_cell_angle_beta 93.14(2)
_cell_angle_gamma 105.73(2)
_cell_formula_units_Z 2
loop_
_atom_type_symbol
_atom_type_radius_bond
C 0.68
H 0.23
Cl 0.99
Co 1.33
N 0.68
O 0.68
loop_
_atom_site_label
_atom_site_type_symbol
_atom_site_fract_x
_atom_site_fract_y
_atom_site_fract_z
Co1 Co 0.17354(2) 0.19385(2) 0.20184(3)
O1 O 0.2436(1) 0.0748(1) 0.0511(1)
O2 O 0.3167(2) -0.1000(1) -0.0276(2)
O3 O 0.0312(1) 0.0449(1) 0.2565(1)
O4 O -0.1643(2) -0.0726(1) 0.3604(2)
N1 N 0.3159(2) 0.1938(1) 0.3846(2)
N2 N 0.1070(2) 0.3197(1) 0.3547(2)
N3 N 0.3135(2) 0.3340(1) 0.1163(2)
N4 N 0.0289(2) 0.1915(1) 0.0195(2)
C1 C 0.4515(2) 0.1494(2) 0.3440(2)
C2 C 0.4040(2) 0.0119(2) 0.2458(2)
C3 C 0.3179(2) -0.0052(2) 0.0794(2)
C4 C -0.0605(2) 0.2845(2) 0.3701(2)
C5 C -0.1224(2) 0.1555(2) 0.4267(3)
C6 C -0.0850(2) 0.0347(2) 0.3412(2)
C7 C 0.3527(2) 0.3236(2) 0.4917(2)
C8 C 0.2000(2) 0.3492(2) 0.5170(2)
C9 C 0.2506(3) 0.3351(2) -0.0518(2)
C10 C 0.0806(3) 0.3108(2) -0.0494(2)
H1 H 0.25700 0.13300 0.43300
H2 H 0.12900 0.39300 0.30600
H3 H 0.31800 0.40100 0.17500
H4 H 0.40800 0.32500 0.10900
H5 H 0.01200 0.12900 -0.03300
H6 H -0.04900 0.19000 0.05300
H7 H 0.51100 0.20900 0.29500
H8 H 0.50500 0.16400 0.42600
H9 H 0.34200 -0.03900 0.29800
H10 H 0.48700 -0.02500 0.23300
H11 H -0.08400 0.34100 0.42900
H12 H -0.10500 0.27700 0.27200
H13 H -0.23600 0.12700 0.40600
H14 H -0.07500 0.15800 0.54900
H15 H 0.42100 0.38600 0.43000
H16 H 0.40400 0.32000 0.59800
H17 H 0.21100 0.43900 0.56700
H18 H 0.14600 0.28900 0.58200
H19 H 0.30400 0.40300 -0.07500
H20 H 0.27900 0.26700 -0.12100
H21 H 0.05500 0.37000 0.01100
H22 H 0.04200 0.30100 -0.14200
Cl1 Cl 0.25648(7) 0.60725(5) 0.29251(7)
O5 O 0.6208(2) 0.3299(2) 0.0433(3)
#END
