
#######################################################################
#
#                 Cambridge Crystallographic Data Centre
#                                CCDC
#
#######################################################################
#
# If this CIF has been generated from an entry in the Cambridge
# Structural Database, then it will include bibliographic, chemical,
# crystal, experimental, refinement or atomic coordinate data resulting
# from the CCDC's data processing and validation procedures.
#
#######################################################################

data_CSD_CIF_ZEDMIH
_audit_creation_date 2017-07-07
_audit_creation_method CSD-ConQuest-V1
_database_code_CSD ZEDMIH
_database_code_depnum_ccdc_archive 'CCDC 1480563'
_chemical_formula_sum 'C16 H14 Fe1 N2 O4 S1'
_chemical_formula_moiety
;
C16 H14 Fe1 N2 O4 S1
;
_journal_coden_Cambridge 580
_journal_volume 134
_journal_year 2017
_journal_page_first 166
_journal_name_full 'Polyhedron '
loop_
_publ_author_name
"C.Quintana"
"G.Silva"
"A.Hugo Klahn"
"V.Artigas"
"M.Fuentealba"
"C.Biot"
"I.Halloum"
"L.Kremer"
"N.Novoa"
"R.Arancibia"
_chemical_name_systematic
;
1-((4-nitrobenzene-1-sulfonyl)amino)ferrocene
;
_cell_volume    786.690
_exptl_crystal_colour 'light orange'
_exptl_crystal_density_diffrn 1.63
_exptl_crystal_description 'block'
_diffrn_ambient_temperature 296.1
#These two values have been output from a single CSD field.
_refine_ls_R_factor_gt 0.0326
_refine_ls_wR_factor_gt 0.0326
_symmetry_cell_setting monoclinic
_symmetry_space_group_name_H-M 'P 21'
_symmetry_Int_Tables_number 4
loop_
_symmetry_equiv_pos_site_id
_symmetry_equiv_pos_as_xyz
1 x,y,z
2 -x,1/2+y,-z
_cell_length_a 11.3272(6)
_cell_length_b 6.2171(4)
_cell_length_c 12.0463(7)
_cell_angle_alpha 90
_cell_angle_beta 111.976(1)
_cell_angle_gamma 90
_cell_formula_units_Z 2
loop_
_atom_type_symbol
_atom_type_radius_bond
C 0.68
H 0.23
Fe 1.52
N 0.68
O 0.68
S 1.02
loop_
_atom_site_label
_atom_site_type_symbol
_atom_site_fract_x
_atom_site_fract_y
_atom_site_fract_z
Fe1 Fe 0.26807(4) 0.45726(7) 0.73591(3)
S1 S 0.32396(7) 0.12231(12) 0.42023(7)
O1 O 0.22500(19) -0.0302(4) 0.40359(18)
C1 C 0.2583(3) 0.3187(5) 0.5807(3)
C2 C 0.3421(3) 0.4605(7) 0.2838(3)
H1 H 0.42910 0.43220 0.31380
O2 O 0.4423(2) 0.0577(4) 0.4145(2)
C3 C 0.0894(3) 0.3459(7) 0.6389(3)
H2 H 0.02600 0.31220 0.66770
C4 C 0.1654(3) 0.6732(5) 0.1701(3)
C5 C 0.1821(3) 0.2024(6) 0.6308(3)
H3 H 0.19170 0.05870 0.65380
C6 C 0.2112(3) 0.5307(5) 0.5586(3)
H4 H 0.24260 0.64040 0.52480
C7 C 0.0828(3) 0.5434(5) 0.1975(3)
H5 H -0.00390 0.57310 0.16780
C8 C 0.2603(3) 0.3302(5) 0.3143(3)
C9 C 0.1310(3) 0.3670(5) 0.2703(3)
H6 H 0.07690 0.27440 0.28930
N1 N 0.1152(4) 0.8700(5) 0.0989(3)
C10 C 0.1082(3) 0.5472(7) 0.5966(3)
H7 H 0.06090 0.67060 0.59400
C11 C 0.2939(3) 0.6323(6) 0.2086(3)
H8 H 0.34690 0.71880 0.18440
C12 C 0.3079(6) 0.4238(16) 0.9138(3)
H9 H 0.26310 0.33770 0.94760
N2 N 0.3599(2) 0.2302(4) 0.5528(2)
H10 H 0.421(2) 0.320(4) 0.567(3)
O3 O 0.0075(3) 0.9242(6) 0.0830(2)
C13 C 0.4499(4) 0.5367(7) 0.8389(4)
H11 H 0.51770 0.53960 0.81300
C14 C 0.4141(5) 0.3643(8) 0.8874(3)
H12 H 0.45300 0.22990 0.90080
C15 C 0.3718(5) 0.7041(8) 0.8339(5)
H13 H 0.37730 0.84060 0.80470
C16 C 0.2833(5) 0.6390(15) 0.8790(5)
H14 H 0.21820 0.72310 0.88540
O4 O 0.1862(3) 0.9691(7) 0.0625(3)
#END
