
#######################################################################
#
#                 Cambridge Crystallographic Data Centre
#                                CCDC
#
#######################################################################
#
# If this CIF has been generated from an entry in the Cambridge
# Structural Database, then it will include bibliographic, chemical,
# crystal, experimental, refinement or atomic coordinate data resulting
# from the CCDC's data processing and validation procedures.
#
#######################################################################

data_CSD_CIF_ZEGSOT01
_audit_creation_date 2010-04-08
_audit_creation_method CSD-ConQuest-V1
_database_code_CSD ZEGSOT01
_database_code_depnum_ccdc_archive 'CCDC 719806'
_chemical_formula_sum 'C8 H6 Cr1 O3'
_chemical_formula_moiety
;
C8 H6 Cr1 O3
;
_journal_coden_Cambridge 222
_journal_year 2009
_journal_page_first 5851
_journal_name_full 'Dalton Trans. '
loop_
_publ_author_name
"R.P.L.Burchell"
"P.Sirsch"
"A.Decken"
"G.S.McGrady"
_chemical_name_systematic
;
Tricarbonyl-(\h^5^-cyclopentadienyl)-hydrido-chromium(ii)
;
_cell_volume    821.336
_exptl_crystal_colour 'yellow'
_exptl_crystal_density_diffrn 1.635
_exptl_crystal_description 'hexagonal'
_exptl_crystal_preparation 'sublimation'
_diffrn_ambient_temperature 198
#These two values have been output from a single CSD field.
_refine_ls_R_factor_gt 0.036
_refine_ls_wR_factor_gt 0.036
_symmetry_cell_setting monoclinic
_symmetry_space_group_name_H-M 'P 21/n'
_symmetry_Int_Tables_number 14
loop_
_symmetry_equiv_pos_site_id
_symmetry_equiv_pos_as_xyz
1 x,y,z
2 1/2-x,1/2+y,1/2-z
3 -x,-y,-z
4 -1/2+x,-1/2-y,-1/2+z
_cell_length_a 10.8820(16)
_cell_length_b 7.2619(11)
_cell_length_c 11.6420(17)
_cell_angle_alpha 90
_cell_angle_beta 116.778(2)
_cell_angle_gamma 90
_cell_formula_units_Z 4
loop_
_atom_type_symbol
_atom_type_radius_bond
C 0.68
H 0.23
Cr 1.39
O 0.68
loop_
_atom_site_label
_atom_site_type_symbol
_atom_site_fract_x
_atom_site_fract_y
_atom_site_fract_z
Cr1 Cr 0.01601(4) -0.00786(5) 0.28257(4)
C1 C 0.1613(4) 0.1959(5) 0.4063(4)
H1 H 0.181(4) 0.203(6) 0.483(4)
C2 C 0.0525(3) 0.2864(4) 0.3039(4)
H2 H -0.007(4) 0.352(5) 0.310(4)
C3 C 0.0538(3) 0.2321(5) 0.1917(4)
H3 H 0.005(4) 0.268(6) 0.122(4)
C4 C 0.1610(3) 0.1095(4) 0.2205(4)
H4 H 0.172(4) 0.050(6) 0.156(4)
C5 C 0.2275(3) 0.0860(4) 0.3522(3)
H5 H 0.300(5) 0.013(5) 0.399(5)
C6 C -0.1542(3) 0.0174(4) 0.2745(3)
C7 C -0.0269(3) -0.1952(4) 0.1650(3)
C8 C 0.0671(4) -0.1997(4) 0.3988(3)
O1 O -0.2606(3) 0.0363(4) 0.2691(4)
O2 O -0.0521(3) -0.3125(3) 0.0920(2)
O3 O 0.0993(4) -0.3187(3) 0.4709(2)
H6 H -0.016(6) -0.009(6) 0.378(6)
#END
