
#######################################################################
#
#                 Cambridge Crystallographic Data Centre
#                                CCDC
#
#######################################################################
#
# If this CIF has been generated from an entry in the Cambridge
# Structural Database, then it will include bibliographic, chemical,
# crystal, experimental, refinement or atomic coordinate data resulting
# from the CCDC's data processing and validation procedures.
#
#######################################################################

data_CSD_CIF_ZEHPIL
_audit_creation_date 1996-05-02
_audit_creation_method CSD-ConQuest-V1
_database_code_CSD ZEHPIL
_chemical_formula_sum 'C19 H19 Fe1 N1 O2'
_chemical_formula_moiety
;
C19 H19 Fe1 N1 O2
;
_journal_coden_Cambridge 155
_journal_volume 231
_journal_year 1995
_journal_page_first 45
_journal_name_full 'Inorg.Chim.Acta '
loop_
_publ_author_name
"J.Cano"
"A.Benito"
"R.Martinez-Manez"
"J.Soto"
"J.Paya"
"F.Lloret"
"M.Julve"
"M.D.Marcos"
"E.Sinn"
_chemical_name_systematic
;
2-Ferrocenylmethylamino-5-methyl-benzoic acid
;
_cell_volume    787.576
_exptl_crystal_colour 'yellow'
_exptl_crystal_density_diffrn 1.47
_exptl_special_details
;
Intramolecular hydrogen bonding between the amino group and carboxyl oxygen 
atom
;
_diffrn_ambient_temperature ?
_diffrn_special_details
;
The study was carried out at room temperature,in the range 283-303K

;
#These two values have been output from a single CSD field.
_refine_ls_R_factor_gt 0.039
_refine_ls_wR_factor_gt 0.039
_symmetry_cell_setting triclinic
_symmetry_space_group_name_H-M 'P -1'
_symmetry_Int_Tables_number 2
loop_
_symmetry_equiv_pos_site_id
_symmetry_equiv_pos_as_xyz
1 x,y,z
2 -x,-y,-z
_cell_length_a 6.1747(7)
_cell_length_b 9.539(1)
_cell_length_c 13.511(4)
_cell_angle_alpha 88.99(1)
_cell_angle_beta 87.00(1)
_cell_angle_gamma 82.34(1)
_cell_formula_units_Z 2
loop_
_atom_type_symbol
_atom_type_radius_bond
C 0.68
H 0.23
Fe 1.34
N 0.68
O 0.68
loop_
_atom_site_label
_atom_site_type_symbol
_atom_site_fract_x
_atom_site_fract_y
_atom_site_fract_z
Fe1 Fe 0.2236(1) 0.1829(1) 0.1373(1)
O1 O 0.1591(5) 0.4768(3) 0.3962(2)
O2 O 0.1825(5) 0.6272(3) 0.5183(2)
N1 N 0.4324(6) 0.4889(4) 0.2339(3)
C1 C 0.3941(6) 0.3442(4) 0.0900(3)
C2 C 0.4644(7) 0.2191(4) 0.0350(3)
C3 C 0.2833(8) 0.1809(5) -0.0130(3)
C4 C 0.0994(7) 0.2795(4) 0.0128(3)
C5 C 0.1664(6) 0.3807(4) 0.0766(3)
C6 C 0.276(1) 0.1443(6) 0.2830(3)
C7 C 0.3408(9) 0.0200(6) 0.2279(4)
C8 C 0.156(1) -0.0136(5) 0.1802(4)
C9 C -0.0202(8) 0.0885(5) 0.2072(3)
C10 C 0.0541(9) 0.1869(5) 0.2708(3)
C11 C 0.5378(7) 0.4266(4) 0.1436(3)
C12 C 0.5213(6) 0.5852(4) 0.2878(3)
C13 C 0.7106(6) 0.6407(4) 0.2516(3)
C14 C 0.7974(7) 0.7405(4) 0.3016(3)
C15 C 0.7064(7) 0.7935(4) 0.3923(3)
C16 C 0.5250(6) 0.7368(4) 0.4311(3)
C17 C 0.4323(6) 0.6325(4) 0.3818(3)
C18 C 0.2476(6) 0.5720(4) 0.4308(3)
C19 C 0.804(1) 0.9062(5) 0.4441(4)
H1 H 0.092(8) 0.592(5) 0.538(4)
H2 H 0.339(7) 0.453(4) 0.258(3)
H3 H 0.6284(7) 0.1629(4) 0.0306(3)
H4 H 0.2856(8) 0.0915(5) -0.0611(3)
H5 H -0.0641(7) 0.2783(4) -0.0116(3)
H6 H 0.0626(6) 0.4699(4) 0.1092(3)
H7 H 0.380(1) 0.1973(6) 0.3271(3)
H8 H 0.5029(9) -0.0390(6) 0.2229(4)
H9 H 0.151(1) -0.1021(5) 0.1318(4)
H10 H -0.1853(8) 0.0921(5) 0.1836(3)
H11 H -0.0436(9) 0.2782(5) 0.3038(3)
H12 H 0.678(6) 0.368(4) 0.153(3)
H13 H 0.575(7) 0.495(4) 0.093(3)
H14 H 0.7892(6) 0.6029(4) 0.1820(3)
H15 H 0.9419(7) 0.7803(4) 0.2700(3)
H16 H 0.4519(6) 0.7739(4) 0.5019(3)
H17 H 0.70(1) 0.95(2) 0.484(5)
H18 H 0.79(1) 0.987(5) 0.409(5)
H19 H 0.87(1) 0.878(8) 0.499(4)
#END
