
#######################################################################
#
#                 Cambridge Crystallographic Data Centre
#                                CCDC
#
#######################################################################
#
# If this CIF has been generated from an entry in the Cambridge
# Structural Database, then it will include bibliographic, chemical,
# crystal, experimental, refinement or atomic coordinate data resulting
# from the CCDC's data processing and validation procedures.
#
#######################################################################

data_CSD_CIF_ZESJIS
_audit_creation_date 2013-05-20
_audit_creation_method CSD-ConQuest-V1
_database_code_CSD ZESJIS
_database_code_depnum_ccdc_archive 'CCDC 899557'
_chemical_formula_sum 'C18 H16 Mn1 N10 S2'
_chemical_formula_moiety
;
C18 H16 Mn1 N10 S2
;
_journal_coden_Cambridge 29
_journal_volume 638
_journal_year 2012
_journal_page_first 2265
_journal_name_full 'Z.Anorg.Allg.Chem. '
loop_
_publ_author_name
"S.Wohlert"
"C.Nather"
_chemical_name_systematic
;
trans-tetrakis(Pyridazine)-bis(thiocyanato)-manganese(ii)
;
_cell_volume    556.369
_exptl_crystal_colour 'yellow'
_exptl_crystal_density_diffrn 1.467
_exptl_crystal_description 'block'
_diffrn_ambient_temperature 170
#These two values have been output from a single CSD field.
_refine_ls_R_factor_gt 0.0283
_refine_ls_wR_factor_gt 0.0283
_symmetry_cell_setting triclinic
_symmetry_space_group_name_H-M 'P -1'
_symmetry_Int_Tables_number 2
loop_
_symmetry_equiv_pos_site_id
_symmetry_equiv_pos_as_xyz
1 x,y,z
2 -x,-y,-z
_cell_length_a 8.1766(8)
_cell_length_b 8.5650(8)
_cell_length_c 8.8540(8)
_cell_angle_alpha 84.728(10)
_cell_angle_beta 68.037(11)
_cell_angle_gamma 75.350(11)
_cell_formula_units_Z 1
loop_
_atom_type_symbol
_atom_type_radius_bond
C 0.68
H 0.23
Mn 1.61
N 0.68
S 1.02
loop_
_atom_site_label
_atom_site_type_symbol
_atom_site_fract_x
_atom_site_fract_y
_atom_site_fract_z
Mn1 Mn 0.50000 0.50000 0.50000
N1 N 0.60478(18) 0.40611(15) 0.71074(16)
N2 N 0.5127(2) 0.30583(18) 0.81209(18)
C1 C 0.5515(3) 0.2542(2) 0.9433(2)
H1 H 0.48510 0.18300 1.01410
C2 C 0.6816(2) 0.2965(2) 0.9843(2)
H2 H 0.70440 0.25690 1.08010
C3 C 0.7757(2) 0.3984(2) 0.8801(2)
H3 H 0.86720 0.43290 0.90050
C4 C 0.7326(2) 0.4495(2) 0.7433(2)
H4 H 0.79820 0.51940 0.66920
N3 N 0.62203(18) 0.71998(15) 0.48508(16)
N4 N 0.5659(2) 0.80492(15) 0.62393(17)
C5 C 0.6392(3) 0.92688(19) 0.6219(2)
H5 H 0.60050 0.98540 0.72020
C6 C 0.7698(3) 0.9746(2) 0.4844(2)
H6 H 0.81840 1.06310 0.48830
C7 C 0.8249(2) 0.8893(2) 0.3442(2)
H7 H 0.91300 0.91620 0.24630
C8 C 0.7460(2) 0.76055(19) 0.3508(2)
H8 H 0.78280 0.69920 0.25460
S1 S 1.08903(6) 0.19798(6) 0.11601(6)
C9 C 0.9008(2) 0.30571(18) 0.24303(19)
N5 N 0.7643(2) 0.38113(17) 0.33136(17)
N1A N 0.39522(18) 0.59389(15) 0.28926(16)
N2A N 0.4873(2) 0.69417(18) 0.18791(18)
C1A C 0.4485(3) 0.7458(2) 0.0567(2)
H1A H 0.51490 0.81700 -0.01410
C2A C 0.3184(2) 0.7035(2) 0.0157(2)
H2A H 0.29560 0.74310 -0.08010
C3A C 0.2243(2) 0.6016(2) 0.1199(2)
H3A H 0.13280 0.56710 0.09950
C4A C 0.2674(2) 0.5505(2) 0.2567(2)
H4A H 0.20180 0.48060 0.33080
N3A N 0.37797(18) 0.28002(15) 0.51492(16)
N4A N 0.4341(2) 0.19508(15) 0.37607(17)
C5A C 0.3608(3) 0.07312(19) 0.3781(2)
H5A H 0.39950 0.01460 0.27980
C6A C 0.2302(3) 0.0254(2) 0.5156(2)
H6A H 0.18160 -0.06310 0.51170
C7A C 0.1751(2) 0.1107(2) 0.6558(2)
H7A H 0.08700 0.08380 0.75370
C8A C 0.2540(2) 0.23945(19) 0.6492(2)
H8A H 0.21720 0.30080 0.74540
S1A S -0.08903(6) 0.80202(6) 0.88399(6)
C9A C 0.0992(2) 0.69429(18) 0.75697(19)
N5A N 0.2357(2) 0.61887(17) 0.66864(17)
#END
