
#######################################################################
#
#                 Cambridge Crystallographic Data Centre
#                                CCDC
#
#######################################################################
#
# If this CIF has been generated from an entry in the Cambridge
# Structural Database, then it will include bibliographic, chemical,
# crystal, experimental, refinement or atomic coordinate data resulting
# from the CCDC's data processing and validation procedures.
#
#######################################################################

data_CSD_CIF_ZESWIG
_audit_creation_date 2018-03-22
_audit_creation_method CSD-ConQuest-V1
_database_code_CSD ZESWIG
_database_code_depnum_ccdc_archive 'CCDC 1822542'
_chemical_formula_sum 'C20 H20 Mn1 N2'
_chemical_formula_moiety
;
C20 H20 Mn1 N2
;
_journal_coden_Cambridge 222
_journal_volume 47
_journal_year 2018
_journal_page_first 5171
_journal_name_full 'Dalton Trans. '
loop_
_publ_author_name
"A.F.Cannella"
"Suman Kr Dey"
"S.N.MacMillan"
"D.C.Lacy"
_chemical_name_systematic
;
bis(cyclopentadienyl)-bis(pyridine)-manganese
;
_cell_volume   1743.255
_exptl_crystal_colour 'yellow'
_exptl_crystal_density_diffrn 1.308
_exptl_crystal_description 'Plate'
_diffrn_ambient_temperature 223
#These two values have been output from a single CSD field.
_refine_ls_R_factor_gt 0.0378
_refine_ls_wR_factor_gt 0.0378
_symmetry_cell_setting orthorhombic
_symmetry_space_group_name_H-M 'A b a 2'
_symmetry_Int_Tables_number 41
loop_
_symmetry_equiv_pos_site_id
_symmetry_equiv_pos_as_xyz
1 x,y,z
2 -x,-y,z
3 1/2+x,1/2-y,z
4 1/2-x,1/2+y,z
5 x,1/2+y,1/2+z
6 -x,1/2-y,1/2+z
7 1/2+x,-y,1/2+z
8 1/2-x,y,1/2+z
_cell_length_a 7.8832(7)
_cell_length_b 17.6630(19)
_cell_length_c 12.5197(12)
_cell_angle_alpha 90
_cell_angle_beta 90
_cell_angle_gamma 90
_cell_formula_units_Z 4
loop_
_atom_type_symbol
_atom_type_radius_bond
C 0.68
H 0.23
Mn 1.61
N 0.68
loop_
_atom_site_label
_atom_site_type_symbol
_atom_site_fract_x
_atom_site_fract_y
_atom_site_fract_z
Mn1 Mn 0.50000 0.50000 0.56849(13)
N1 N 0.6064(3) 0.41998(16) 0.4505(2)
C1 C 0.7440(6) 0.5347(3) 0.6604(4)
H1 H 0.77210 0.48620 0.68600
C2 C 0.6251(6) 0.5853(3) 0.7056(4)
H2 H 0.55890 0.57670 0.76690
C3 C 0.6242(6) 0.6493(3) 0.6434(5)
H3 H 0.55620 0.69230 0.65470
C4 C 0.7392(6) 0.6401(2) 0.5620(6)
H4 H 0.76430 0.67590 0.50880
C5 C 0.8110(4) 0.5699(2) 0.5716(5)
H5 H 0.89250 0.54910 0.52530
C6 C 0.7497(5) 0.3816(2) 0.4698(3)
H6 H 0.81280 0.39360 0.53120
C7 C 0.8077(5) 0.3258(2) 0.4038(4)
H7 H 0.90870 0.30000 0.42020
C8 C 0.7189(6) 0.3078(2) 0.3143(5)
H8 H 0.75730 0.26950 0.26800
C9 C 0.5716(5) 0.3467(2) 0.2929(3)
H9 H 0.50780 0.33580 0.23140
C10 C 0.5196(4) 0.4018(2) 0.3630(3)
H10 H 0.41820 0.42780 0.34850
N1A N 0.3936(3) 0.58002(16) 0.4505(2)
C1A C 0.2560(6) 0.4653(3) 0.6604(4)
H1A H 0.22790 0.51380 0.68600
C2A C 0.3749(6) 0.4147(3) 0.7056(4)
H2A H 0.44110 0.42330 0.76690
C3A C 0.3758(6) 0.3507(3) 0.6434(5)
H3A H 0.44380 0.30770 0.65470
C4A C 0.2608(6) 0.3599(2) 0.5620(6)
H4A H 0.23570 0.32410 0.50880
C5A C 0.1890(4) 0.4301(2) 0.5716(5)
H5A H 0.10750 0.45090 0.52530
C6A C 0.2503(5) 0.6184(2) 0.4698(3)
H6A H 0.18720 0.60640 0.53120
C7A C 0.1923(5) 0.6742(2) 0.4038(4)
H7A H 0.09130 0.70000 0.42020
C8A C 0.2811(6) 0.6922(2) 0.3143(5)
H8A H 0.24270 0.73050 0.26800
C9A C 0.4284(5) 0.6533(2) 0.2929(3)
H9A H 0.49220 0.66420 0.23140
C10A C 0.4804(4) 0.5982(2) 0.3630(3)
H10A H 0.58180 0.57220 0.34850
#END
