
#######################################################################
#
#                 Cambridge Crystallographic Data Centre
#                                CCDC
#
#######################################################################
#
# If this CIF has been generated from an entry in the Cambridge
# Structural Database, then it will include bibliographic, chemical,
# crystal, experimental, refinement or atomic coordinate data resulting
# from the CCDC's data processing and validation procedures.
#
#######################################################################

data_CSD_CIF_ZEWVIJ
_audit_creation_date 2018-03-24
_audit_creation_method CSD-ConQuest-V1
_database_code_CSD ZEWVIJ
_database_code_depnum_ccdc_archive 'CCDC 1820479'
_chemical_formula_sum 'C19.5 H23 Bi1 Fe1 N2 O4'
_chemical_formula_moiety
;
C16 H19 Bi1 Fe1 N2 O4,0.5(C7 H8)
;
_journal_coden_Cambridge 36
_journal_volume 863
_journal_year 2018
_journal_page_first 15
_journal_name_full 'J.Organomet.Chem. '
loop_
_publ_author_name
"I.Vranova"
"T.Duskova"
"M.Erben"
"R.Jambor"
"A.Ruzicka"
"L.Dostal"
_chemical_name_systematic
;
tetracarbonyl-(2,6-bis(dimethylaminomethyl)phenyl)-bismuth-iron toluene 
solvate
;
_cell_volume   1043.653
_exptl_crystal_colour 'orange'
_exptl_crystal_density_diffrn 1.955
_exptl_crystal_description 'block'
_diffrn_ambient_temperature 150
_refine_special_details
;
The SQUEEZE/PLATON program was used to model the disordered solvent.

;
#These two values have been output from a single CSD field.
_refine_ls_R_factor_gt 0.0195
_refine_ls_wR_factor_gt 0.0195
_symmetry_cell_setting triclinic
_symmetry_space_group_name_H-M 'P -1'
_symmetry_Int_Tables_number 2
loop_
_symmetry_equiv_pos_site_id
_symmetry_equiv_pos_as_xyz
1 x,y,z
2 -x,-y,-z
_cell_length_a 9.3811(6)
_cell_length_b 10.4770(3)
_cell_length_c 11.9150(7)
_cell_angle_alpha 106.084(4)
_cell_angle_beta 103.228(5)
_cell_angle_gamma 102.747(3)
_cell_formula_units_Z 2
loop_
_atom_type_symbol
_atom_type_radius_bond
C 0.68
H 0.23
Bi 1.48
Fe 1.52
N 0.68
O 0.68
loop_
_atom_site_label
_atom_site_type_symbol
_atom_site_fract_x
_atom_site_fract_y
_atom_site_fract_z
Bi1 Bi 0.44366(2) 0.37109(2) 0.61192(2)
Fe1 Fe 0.26270(5) 0.49977(4) 0.70714(4)
N1 N 0.2359(3) 0.1904(3) 0.4163(2)
O1 O 0.1704(3) 0.5450(3) 0.4728(2)
C1 C 0.4542(4) 0.1569(3) 0.7528(3)
C2 C 0.2850(4) -0.0840(3) 0.5513(3)
H1 H 0.22820 -0.16450 0.48450
O2 O 0.1258(4) 0.2458(3) 0.7518(3)
C3 C 0.3961(3) 0.1659(3) 0.6375(3)
C4 C 0.4223(4) 0.6424(3) 0.8114(3)
C5 C 0.7134(5) 0.5245(4) 0.9139(3)
H2 H 0.77850 0.51380 0.98340
H3 H 0.63620 0.56240 0.93780
H4 H 0.77420 0.58660 0.88470
C6 C 0.2524(4) 0.2305(4) 0.3096(3)
H5 H 0.35900 0.25800 0.31490
H6 H 0.21220 0.30720 0.30950
H7 H 0.19640 0.15300 0.23510
C7 C 0.1286(4) 0.5722(3) 0.7627(3)
N2 N 0.6402(3) 0.3885(3) 0.8153(2)
C8 C 0.7594(4) 0.3353(4) 0.7758(3)
H8 H 0.82020 0.40170 0.75040
H9 H 0.71170 0.24870 0.70820
H10 H 0.82410 0.32030 0.84280
C9 C 0.0758(4) 0.1683(4) 0.4188(3)
H11 H 0.00760 0.09510 0.34510
H12 H 0.04920 0.25280 0.42470
H13 H 0.06660 0.14250 0.48880
C10 C 0.1846(4) 0.3437(4) 0.7330(3)
C11 C 0.2067(4) 0.5239(3) 0.5631(3)
C12 C 0.3157(3) 0.0463(3) 0.5354(3)
C13 C 0.3386(4) -0.0918(4) 0.6659(4)
H14 H 0.31680 -0.17820 0.67610
C14 C 0.5465(4) 0.2902(4) 0.8577(3)
H15 H 0.47850 0.33250 0.89450
H16 H 0.61470 0.26960 0.92010
O3 O 0.5159(3) 0.7432(3) 0.8792(2)
O4 O 0.0416(3) 0.6191(3) 0.7987(3)
C15 C 0.2756(4) 0.0606(3) 0.4107(3)
H17 H 0.36220 0.06030 0.37910
H18 H 0.18910 -0.01860 0.35450
C16 C 0.4250(4) 0.0269(4) 0.7663(4)
H19 H 0.46410 0.01980 0.84260
#END
