
#######################################################################
#
#                 Cambridge Crystallographic Data Centre
#                                CCDC
#
#######################################################################
#
# If this CIF has been generated from an entry in the Cambridge
# Structural Database, then it will include bibliographic, chemical,
# crystal, experimental, refinement or atomic coordinate data resulting
# from the CCDC's data processing and validation procedures.
#
#######################################################################

data_CSD_CIF_ZIXPUU
_audit_creation_date 2018-12-29
_audit_creation_method CSD-ConQuest-V1
_database_code_CSD ZIXPUU
_database_code_depnum_ccdc_archive 'CCDC 1872618'
_chemical_formula_sum 'C8 H18 Cl1 Cr1 N4 O8'
_chemical_formula_moiety
;
C8 H18 Cr1 N4 O4 1+,Cl1 O4 1-
;
_journal_coden_Cambridge 580
_journal_volume 161
_journal_year 2019
_journal_page_first 111
_journal_name_full 'Polyhedron '
loop_
_publ_author_name
"Yumie Yano"
"R.Nakayama"
"T.Yonemura"
_chemical_name_systematic
;
(ethane-1,2-diamine)-{2,2'-[ethane-1,2-diylbis(imino)]diacetato}-chromium(iii)
 perchlorate
;
_cell_volume    745.784
_exptl_crystal_colour 'orange red'
_exptl_crystal_density_diffrn 1.717
_exptl_crystal_description 'block'
_diffrn_ambient_temperature 296.1
#These two values have been output from a single CSD field.
_refine_ls_R_factor_gt 0.0413
_refine_ls_wR_factor_gt 0.0413
_symmetry_cell_setting monoclinic
_symmetry_space_group_name_H-M 'P c'
_symmetry_Int_Tables_number 7
loop_
_symmetry_equiv_pos_site_id
_symmetry_equiv_pos_as_xyz
1 x,y,z
2 x,-y,1/2+z
_cell_length_a 9.2950(16)
_cell_length_b 8.0223(15)
_cell_length_c 10.916(2)
_cell_angle_alpha 90
_cell_angle_beta 113.620(14)
_cell_angle_gamma 90
_cell_formula_units_Z 2
loop_
_atom_type_symbol
_atom_type_radius_bond
C 0.68
H 0.23
Cl 0.99
Cr 1.39
N 0.68
O 0.68
loop_
_atom_site_label
_atom_site_type_symbol
_atom_site_fract_x
_atom_site_fract_y
_atom_site_fract_z
Cr1 Cr 0.46573(7) 0.31268(7) 0.25066(6)
O1 O 0.4322(5) 0.3005(4) 0.4165(3)
O2 O 0.2663(6) 0.3472(5) 0.5125(4)
O3 O 0.4795(5) 0.3174(3) 0.0772(4)
O4 O 0.4395(5) 0.1766(4) -0.1089(4)
N1 N 0.2358(4) 0.3973(5) 0.1746(4)
N2 N 0.3656(5) 0.0799(4) 0.1838(3)
N3 N 0.5701(5) 0.5429(5) 0.2959(4)
N4 N 0.6941(5) 0.2296(6) 0.3504(5)
C1 C 0.3030(7) 0.3583(5) 0.4162(5)
C2 C 0.1965(6) 0.4449(8) 0.2893(6)
C3 C 0.1352(6) 0.2586(8) 0.0920(6)
C4 C 0.1972(6) 0.0948(6) 0.1572(5)
C5 C 0.3934(7) 0.0351(6) 0.0629(5)
C6 C 0.4408(6) 0.1864(5) 0.0033(5)
C7 C 0.7289(7) 0.5198(9) 0.4024(7)
C8 C 0.8011(8) 0.3712(11) 0.3700(9)
H1 H 0.08820 0.41530 0.26940
H2 H 0.20690 0.56470 0.30210
H3 H 0.22660 0.48800 0.12190
H4 H 0.02800 0.27320 0.08320
H5 H 0.13540 0.26080 0.00310
H6 H 0.18350 0.08640 0.24050
H7 H 0.13920 0.00470 0.09920
H8 H 0.41130 0.00250 0.24880
H9 H 0.29850 -0.01310 -0.00350
H10 H 0.47570 -0.04820 0.08650
H11 H 0.57680 0.58840 0.22300
H12 H 0.51310 0.61130 0.32440
H13 H 0.79290 0.61740 0.40820
H14 H 0.72190 0.50460 0.48800
H15 H 0.81840 0.39080 0.28930
H16 H 0.90150 0.34760 0.44240
H17 H 0.70660 0.18620 0.43010
H18 H 0.71540 0.14970 0.30230
Cl1 Cl 0.86697(18) 0.1148(2) 0.72184(15)
O5 O 0.7558(17) 0.1230(12) 0.7764(16)
O6 O 0.8207(10) 0.0079(11) 0.6111(7)
O7 O 0.918(3) 0.2500(19) 0.7047(15)
O8 O 0.9867(13) 0.041(2) 0.8236(8)
#END
