
#######################################################################
#
#                 Cambridge Crystallographic Data Centre
#                                CCDC
#
#######################################################################
#
# If this CIF has been generated from an entry in the Cambridge
# Structural Database, then it will include bibliographic, chemical,
# crystal, experimental, refinement or atomic coordinate data resulting
# from the CCDC's data processing and validation procedures.
#
#######################################################################

data_CSD_CIF_ZOCDON
_audit_creation_date 2019-05-08
_audit_creation_method CSD-ConQuest-V1
_database_code_CSD ZOCDON
_database_code_depnum_ccdc_archive 'CCDC 1901244'
_chemical_formula_sum 'C16 H9 Mn1 N2 O4'
_chemical_formula_moiety
;
C16 H9 Mn1 N2 O4
;
_journal_coden_Cambridge 580
_journal_volume 169
_journal_year 2019
_journal_page_first 253
_journal_name_full 'Polyhedron '
loop_
_publ_author_name
"S.S.Shapovalov"
"O.G.Tikhonova"
"A.V.Kolos"
"I.V.Skabitsky"
"S.G.Sakharov"
"V.A.Grinberg"
_chemical_name_systematic
;
tricarbonyl-(\h^5^-1-(4-oxo-phthalazin-1-yl)cyclopentadienyl)-manganese
;
_cell_volume    702.477
_exptl_crystal_colour 'yellow'
_exptl_crystal_density_diffrn 1.646
_exptl_crystal_description 'block'
_exptl_crystal_preparation 'propan-2-ol'
_diffrn_ambient_temperature 150
#These two values have been output from a single CSD field.
_refine_ls_R_factor_gt 0.0287
_refine_ls_wR_factor_gt 0.0287
_symmetry_cell_setting triclinic
_symmetry_space_group_name_H-M 'P -1'
_symmetry_Int_Tables_number 2
loop_
_symmetry_equiv_pos_site_id
_symmetry_equiv_pos_as_xyz
1 x,y,z
2 -x,-y,-z
_cell_length_a 6.8627(2)
_cell_length_b 7.4687(2)
_cell_length_c 14.7430(4)
_cell_angle_alpha 85.945(1)
_cell_angle_beta 78.8932(10)
_cell_angle_gamma 71.3360(9)
_cell_formula_units_Z 2
loop_
_atom_type_symbol
_atom_type_radius_bond
C 0.68
H 0.23
Mn 1.61
N 0.68
O 0.68
loop_
_atom_site_label
_atom_site_type_symbol
_atom_site_fract_x
_atom_site_fract_y
_atom_site_fract_z
Mn1 Mn 0.90485(3) 0.27576(3) 0.36565(2)
O1 O 0.73552(17) -0.20474(15) -0.00519(8)
N1 N 0.6495(2) 0.18025(18) 0.14138(9)
N2 N 0.6269(2) 0.05499(18) 0.08426(9)
C1 C 0.9947(2) -0.0364(2) 0.14787(10)
O2 O 0.8140(2) -0.08432(18) 0.40229(9)
O3 O 0.7627(2) 0.3933(2) 0.56011(9)
C2 C 0.7730(2) -0.1093(2) 0.05124(10)
C3 C 0.8248(2) 0.1387(2) 0.17158(10)
C4 C 1.1828(2) -0.0887(2) 0.18219(10)
H1 H 1.20460 -0.00760 0.22340
C5 C 1.0034(3) 0.3613(2) 0.22703(11)
H2 H 1.14030 0.31130 0.19220
C6 C 0.8200(3) 0.3460(2) 0.48455(12)
C7 C 0.9672(2) -0.1601(2) 0.08709(10)
C8 C 1.1244(2) -0.3307(2) 0.06122(11)
H3 H 1.10510 -0.41260 0.01970
C9 C 1.3359(2) -0.2575(2) 0.15627(11)
H4 H 1.46280 -0.29110 0.17960
C10 C 0.8491(3) 0.0559(2) 0.39004(11)
C11 C 0.8342(2) 0.2893(2) 0.22904(10)
C12 C 1.3068(2) -0.3795(2) 0.09620(11)
H5 H 1.41270 -0.49600 0.07950
C13 C 0.6573(2) 0.4064(2) 0.29016(11)
H6 H 0.52230 0.39140 0.30510
C14 C 0.9331(3) 0.5207(2) 0.28606(11)
H7 H 1.01470 0.59520 0.29770
C15 C 0.7201(3) 0.5485(2) 0.32437(11)
H8 H 0.63360 0.64580 0.36590
O4 O 1.3451(2) 0.1082(3) 0.38531(11)
C16 C 1.1719(3) 0.1733(3) 0.38021(12)
H9 H 0.511(3) 0.098(3) 0.0632(14)
#END
