
#######################################################################
#
#                 Cambridge Crystallographic Data Centre
#                                CCDC
#
#######################################################################
#
# If this CIF has been generated from an entry in the Cambridge
# Structural Database, then it will include bibliographic, chemical,
# crystal, experimental, refinement or atomic coordinate data resulting
# from the CCDC's data processing and validation procedures.
#
#######################################################################

data_CSD_CIF_ZOKWIH
_audit_creation_date 2014-06-18
_audit_creation_method CSD-ConQuest-V1
_database_code_CSD ZOKWIH
_database_code_depnum_ccdc_archive 'CCDC 1008943'
_chemical_formula_sum 'C15 H32 Co1 N2 P3'
_chemical_formula_moiety
;
C15 H32 Co1 N2 P3
;
_journal_coden_Cambridge 1078
_journal_year 2014
_journal_name_full 'CSD Communication(Private Communication) '
loop_
_publ_author_name
"U.Florke"
_chemical_name_systematic
;
(2-(pyrazin-2-yl)vinyl)-tris(trimethylphosphine)-cobalt
;
_cell_volume   1007.022
_exptl_crystal_colour 'brown'
_exptl_crystal_density_diffrn 1.294
_exptl_special_details
;
University of Paderborn

;
_exptl_crystal_description 'block'
_exptl_crystal_preparation 'Re-crystallisation from solvent'
_diffrn_ambient_temperature 293
#These two values have been output from a single CSD field.
_refine_ls_R_factor_gt 0.0372
_refine_ls_wR_factor_gt 0.0372
_symmetry_cell_setting triclinic
_symmetry_space_group_name_H-M 'P -1'
_symmetry_Int_Tables_number 2
loop_
_symmetry_equiv_pos_site_id
_symmetry_equiv_pos_as_xyz
1 x,y,z
2 -x,-y,-z
_cell_length_a 8.869(1)
_cell_length_b 9.878(1)
_cell_length_c 13.083(3)
_cell_angle_alpha 84.52(2)
_cell_angle_beta 76.10(1)
_cell_angle_gamma 64.84(1)
_cell_formula_units_Z 2
loop_
_atom_type_symbol
_atom_type_radius_bond
C 0.68
H 0.23
Co 1.26
N 0.68
P 1.05
loop_
_atom_site_label
_atom_site_type_symbol
_atom_site_fract_x
_atom_site_fract_y
_atom_site_fract_z
Co1 Co 0.43672(4) 0.18374(4) 0.21890(3)
P1 P 0.33009(10) 0.27470(8) 0.08011(6)
P2 P 0.21310(9) 0.14990(8) 0.31542(6)
P3 P 0.41716(10) 0.35892(8) 0.31741(6)
N1 N 0.6080(3) -0.0138(2) 0.24105(16)
N2 N 0.8996(4) -0.2894(3) 0.2578(3)
C1 C 0.5986(4) -0.1352(3) 0.2977(2)
H1 H 0.49150 -0.12850 0.33360
C2 C 0.7374(4) -0.2651(3) 0.3045(3)
H2 H 0.71890 -0.34220 0.34400
C3 C 0.9118(4) -0.1728(4) 0.2033(3)
H3 H 1.02070 -0.18210 0.16920
C4 C 0.7753(3) -0.0376(3) 0.1927(2)
C5 C 0.7846(4) 0.0877(3) 0.1344(2)
H4 H 0.88770 0.08830 0.09690
C6 C 0.6343(4) 0.2058(3) 0.1368(2)
H5 H 0.62680 0.29330 0.10050
C7 C 0.1456(6) 0.2552(6) 0.0542(3)
H6 H 0.12120 0.30350 -0.01090
H7 H 0.04800 0.30090 0.11060
H8 H 0.17100 0.15110 0.04930
C8 C 0.4735(5) 0.2062(4) -0.0479(2)
H9 H 0.41380 0.25310 -0.10280
H10 H 0.51180 0.09980 -0.05200
H11 H 0.57020 0.22970 -0.05610
C9 C 0.2639(5) 0.4755(3) 0.0610(3)
H12 H 0.21920 0.50500 -0.00140
H13 H 0.36040 0.49900 0.05370
H14 H 0.17720 0.52830 0.12070
C10 C 0.1673(4) -0.0004(4) 0.2766(3)
H15 H 0.06780 -0.00250 0.32460
H16 H 0.26310 -0.09470 0.27820
H17 H 0.14730 0.01750 0.20660
C11 C 0.0010(4) 0.3061(4) 0.3273(3)
H18 H -0.08370 0.27670 0.37090
H19 H -0.02360 0.33220 0.25870
H20 H -0.00040 0.39080 0.35860
C12 C 0.2101(5) 0.1066(4) 0.4560(2)
H21 H 0.10740 0.09470 0.48890
H22 H 0.21380 0.18680 0.48970
H23 H 0.30750 0.01560 0.46240
C13 C 0.4892(6) 0.5039(4) 0.2612(3)
H24 H 0.47070 0.57090 0.31610
H25 H 0.42600 0.55870 0.20940
H26 H 0.60880 0.45810 0.22870
C14 C 0.2211(4) 0.4814(4) 0.4066(3)
H27 H 0.24440 0.54960 0.44100
H28 H 0.18030 0.42190 0.45840
H29 H 0.13580 0.53680 0.36700
C15 C 0.5558(5) 0.2754(4) 0.4105(3)
H30 H 0.54720 0.35260 0.45400
H31 H 0.67190 0.22470 0.37250
H32 H 0.52110 0.20530 0.45410
#END
