
#######################################################################
#
#                 Cambridge Crystallographic Data Centre
#                                CCDC
#
#######################################################################
#
# If this CIF has been generated from an entry in the Cambridge
# Structural Database, then it will include bibliographic, chemical,
# crystal, experimental, refinement or atomic coordinate data resulting
# from the CCDC's data processing and validation procedures.
#
#######################################################################

data_CSD_CIF_ZOKWIH02
_audit_creation_date 2015-05-01
_audit_creation_method CSD-ConQuest-V1
_database_code_CSD ZOKWIH02
_database_code_depnum_ccdc_archive 'CCDC 1031298'
_chemical_formula_sum 'C15 H32 Co1 N2 P3'
_chemical_formula_moiety
;
C15 H32 Co1 N2 P3
;
_journal_coden_Cambridge 1290
_journal_year 2015
_journal_page_first 2543
_journal_name_full 'Eur.J.Inorg.Chem. '
loop_
_publ_author_name
"R.Beck"
"S.Camadanli"
"U.Florke"
"H.-F.Klein"
_chemical_name_systematic
;
(2-(pyrazin-2-yl)vinyl)-tris(trimethylphosphine)-cobalt
;
_cell_volume   1002.269
_exptl_crystal_colour 'red'
_exptl_crystal_density_diffrn 1.3
_exptl_crystal_description 'prism'
_diffrn_ambient_temperature 293
#These two values have been output from a single CSD field.
_refine_ls_R_factor_gt 0.0303
_refine_ls_wR_factor_gt 0.0303
_symmetry_cell_setting triclinic
_symmetry_space_group_name_H-M 'P -1'
_symmetry_Int_Tables_number 2
loop_
_symmetry_equiv_pos_site_id
_symmetry_equiv_pos_as_xyz
1 x,y,z
2 -x,-y,-z
_cell_length_a 8.8552(6)
_cell_length_b 9.8628(7)
_cell_length_c 13.0630(9)
_cell_angle_alpha 84.506(1)
_cell_angle_beta 76.085(1)
_cell_angle_gamma 64.835(1)
_cell_formula_units_Z 2
loop_
_atom_type_symbol
_atom_type_radius_bond
C 0.68
H 0.23
Co 1.26
N 0.68
P 1.05
loop_
_atom_site_label
_atom_site_type_symbol
_atom_site_fract_x
_atom_site_fract_y
_atom_site_fract_z
Co1 Co 0.93687(3) 0.18360(2) 0.218878(17)
P1 P 0.83010(7) 0.27469(6) 0.08000(4)
P2 P 0.71294(6) 0.14992(6) 0.31544(4)
P3 P 0.91719(6) 0.35880(6) 0.31742(4)
N1 N 1.10802(18) -0.01415(16) 0.24110(11)
N2 N 1.3993(3) -0.2893(2) 0.25752(18)
C1 C 1.1344(2) 0.2054(2) 0.13660(15)
H1 H 1.12680 0.29310 0.10030
C2 C 1.2856(2) 0.0867(2) 0.13394(17)
H2 H 1.38890 0.08710 0.09620
C3 C 1.2758(2) -0.0380(2) 0.19261(16)
C4 C 1.4118(3) -0.1733(3) 0.2034(2)
H3 H 1.52100 -0.18270 0.16960
C5 C 1.2368(3) -0.2652(2) 0.30498(18)
H4 H 1.21840 -0.34220 0.34500
C6 C 1.0979(3) -0.1352(2) 0.29797(15)
H5 H 0.99050 -0.12830 0.33370
C7 C 0.6463(4) 0.2552(5) 0.0537(2)
H6 H 0.62940 0.29460 -0.01470
H7 H 0.54580 0.30950 0.10630
H8 H 0.66740 0.15120 0.05580
C8 C 0.9740(4) 0.2061(3) -0.04819(17)
H9 H 0.91720 0.25880 -0.10330
H10 H 1.00520 0.10090 -0.05450
H11 H 1.07500 0.22260 -0.05410
C9 C 0.7644(4) 0.4759(2) 0.06082(19)
H12 H 0.85720 0.50100 0.06280
H13 H 0.66750 0.52930 0.11590
H14 H 0.73390 0.50330 -0.00630
C10 C 0.7093(3) 0.1066(3) 0.45578(17)
H15 H 0.61820 0.07650 0.48550
H16 H 0.69130 0.19400 0.49240
H17 H 0.81650 0.02680 0.46280
C11 C 0.6670(3) -0.0006(3) 0.2770(2)
H18 H 0.76320 -0.09490 0.27810
H19 H 0.64590 0.01760 0.20710
H20 H 0.56780 -0.00300 0.32550
C12 C 0.5004(3) 0.3064(3) 0.3272(2)
H21 H 0.46110 0.31310 0.26370
H22 H 0.50760 0.39820 0.33790
H23 H 0.42150 0.28970 0.38600
C13 C 0.9901(4) 0.5035(3) 0.2611(2)
H24 H 0.91470 0.56920 0.21830
H25 H 1.10400 0.45720 0.21850
H26 H 0.99010 0.56010 0.31700
C14 C 1.0558(3) 0.2752(3) 0.4106(2)
H27 H 1.05520 0.35310 0.44970
H28 H 1.17030 0.21680 0.37270
H29 H 1.01470 0.21190 0.45830
C15 C 0.7213(3) 0.4820(3) 0.4065(2)
H30 H 0.74740 0.54320 0.44610
H31 H 0.67370 0.42250 0.45400
H32 H 0.64000 0.54490 0.36610
#END
