
#######################################################################
#
#                 Cambridge Crystallographic Data Centre
#                                CCDC
#
#######################################################################
#
# If this CIF has been generated from an entry in the Cambridge
# Structural Database, then it will include bibliographic, chemical,
# crystal, experimental, refinement or atomic coordinate data resulting
# from the CCDC's data processing and validation procedures.
#
#######################################################################

data_CSD_CIF_ZOPKOG
_audit_creation_date 2014-11-13
_audit_creation_method CSD-ConQuest-V1
_database_code_CSD ZOPKOG
_database_code_depnum_ccdc_archive 'CCDC 952355'
_chemical_formula_sum 'C16 H11 Mn1 N4 O3'
_chemical_formula_moiety
;
C16 H11 Mn1 N4 O3
;
_journal_coden_Cambridge 579
_journal_volume 33
_journal_year 2014
_journal_page_first 4687
_journal_name_full 'Organometallics '
loop_
_publ_author_name
"D.P.Day"
"T.Dann"
"D.L.Hughes"
"V.S.Oganesyan"
"D.Steverding"
"G.G.Wildgoose"
_chemical_name_systematic
;
tricarbonyl-(1-(4-(3-aminophenyl)-1,2,3-triazol-1-yl)cyclopentadienyl)-mangane
se
;
_cell_volume    731.613
_exptl_crystal_colour 'colorless'
_exptl_crystal_density_diffrn 1.644
_exptl_crystal_description 'shard'
_diffrn_ambient_temperature 140
#These two values have been output from a single CSD field.
_refine_ls_R_factor_gt 0.0484
_refine_ls_wR_factor_gt 0.0484
_symmetry_cell_setting triclinic
_symmetry_space_group_name_H-M 'P -1'
_symmetry_Int_Tables_number 2
loop_
_symmetry_equiv_pos_site_id
_symmetry_equiv_pos_as_xyz
1 x,y,z
2 -x,-y,-z
_cell_length_a 5.8394(3)
_cell_length_b 9.7556(5)
_cell_length_c 13.9033(8)
_cell_angle_alpha 106.742(5)
_cell_angle_beta 94.508(4)
_cell_angle_gamma 102.614(4)
_cell_formula_units_Z 2
loop_
_atom_type_symbol
_atom_type_radius_bond
C 0.68
H 0.23
Mn 1.61
N 0.68
O 0.68
loop_
_atom_site_label
_atom_site_type_symbol
_atom_site_fract_x
_atom_site_fract_y
_atom_site_fract_z
Mn1 Mn 0.23251(8) 0.29527(5) 0.10084(4)
C1 C 0.2445(5) 0.3453(3) 0.2631(2)
C2 C 0.3256(6) 0.2169(3) 0.2248(2)
H1 H 0.47520 0.20460 0.24210
C3 C 0.1341(6) 0.1100(3) 0.1547(2)
H2 H 0.13560 0.01400 0.11830
C4 C -0.0592(6) 0.1748(4) 0.1498(3)
H3 H -0.20610 0.12860 0.10930
C5 C 0.0082(5) 0.3218(4) 0.2170(2)
H4 H -0.08460 0.38950 0.22850
N1 N 0.3751(4) 0.4768(3) 0.33886(19)
N2 N 0.6153(5) 0.5172(3) 0.3535(2)
N3 N 0.6811(5) 0.6436(3) 0.4271(2)
C6 C 0.4845(5) 0.6850(3) 0.4608(2)
C7 C 0.2873(5) 0.5782(3) 0.4042(2)
H5 H 0.12890 0.57590 0.40960
C8 C 0.4953(5) 0.8217(3) 0.5431(2)
C9 C 0.7039(5) 0.9346(3) 0.5752(2)
H6 H 0.83720 0.92370 0.54430
C10 C 0.7140(6) 1.0649(3) 0.6541(2)
N4 N 0.9222(6) 1.1767(3) 0.6874(3)
C11 C 0.5127(6) 1.0779(3) 0.6999(2)
H7 H 0.51730 1.16300 0.75270
C12 C 0.3068(6) 0.9661(4) 0.6678(2)
H8 H 0.17380 0.97730 0.69890
C13 C 0.2944(6) 0.8368(4) 0.5896(2)
H9 H 0.15480 0.76160 0.56860
C14 C 0.4438(6) 0.4684(4) 0.1180(2)
O1 O 0.5795(5) 0.5793(3) 0.1308(2)
C15 C 0.0451(6) 0.3217(4) 0.0019(3)
O2 O -0.0758(5) 0.3360(3) -0.0619(2)
C16 C 0.3848(6) 0.1961(3) 0.0095(2)
O3 O 0.4824(5) 0.1294(3) -0.04827(19)
H10 H 1.007(7) 1.188(4) 0.652(3)
H11 H 0.924(8) 1.256(5) 0.737(4)
#END
