
#######################################################################
#
#                 Cambridge Crystallographic Data Centre
#                                CCDC
#
#######################################################################
#
# If this CIF has been generated from an entry in the Cambridge
# Structural Database, then it will include bibliographic, chemical,
# crystal, experimental, refinement or atomic coordinate data resulting
# from the CCDC's data processing and validation procedures.
#
#######################################################################

data_CSD_CIF_ZOZFIF
_audit_creation_date 2015-03-27
_audit_creation_method CSD-ConQuest-V1
_database_code_CSD ZOZFIF
_database_code_depnum_ccdc_archive 'CCDC 1056666'
_chemical_formula_sum 'C14 H9 Cr1 N1 O5'
_chemical_formula_moiety
;
C14 H9 Cr1 N1 O5
;
_journal_coden_Cambridge 9
_journal_volume 54
_journal_year 2015
_journal_page_first 2936
_journal_name_full 'Inorg.Chem. '
loop_
_publ_author_name
"A.E.Carpenter"
"C.C.Mokhtarzadeh"
"D.S.Ripatti"
"I.Havrylyuk"
"R.Kamezawa"
"C.E.Moore"
"A.L.Rheingold"
"J.S.Figueroa"
_chemical_name_systematic
;
pentacarbonyl-((2,6-dimethylphenyl)isocyanido)-chromium
;
_cell_volume   1406.234
_exptl_crystal_colour 'colorless'
_exptl_crystal_density_diffrn 1.527
_exptl_crystal_description 'block'
_diffrn_ambient_temperature 100
#These two values have been output from a single CSD field.
_refine_ls_R_factor_gt 0.0371
_refine_ls_wR_factor_gt 0.0371
_symmetry_cell_setting orthorhombic
_symmetry_space_group_name_H-M 'I m m a'
_symmetry_Int_Tables_number 74
loop_
_symmetry_equiv_pos_site_id
_symmetry_equiv_pos_as_xyz
1 x,y,z
2 -x,1/2-y,z
3 x,-y,-z
4 -x,1/2+y,-z
5 1/2+x,1/2+y,1/2+z
6 1/2-x,-y,1/2+z
7 1/2+x,1/2-y,1/2-z
8 1/2-x,y,1/2-z
9 -x,-y,-z
10 x,-1/2+y,-z
11 -x,y,z
12 x,-1/2-y,z
13 -1/2-x,-1/2-y,-1/2-z
14 -1/2+x,y,-1/2-z
15 -1/2-x,-1/2+y,-1/2+z
16 -1/2+x,-y,-1/2+z
_cell_length_a 7.3313(3)
_cell_length_b 13.1945(6)
_cell_length_c 14.5373(6)
_cell_angle_alpha 90
_cell_angle_beta 90
_cell_angle_gamma 90
_cell_formula_units_Z 4
loop_
_atom_type_symbol
_atom_type_radius_bond
C 0.68
H 0.23
Cr 1.39
N 0.68
O 0.68
loop_
_atom_site_label
_atom_site_type_symbol
_atom_site_fract_x
_atom_site_fract_y
_atom_site_fract_z
Cr1 Cr 0.00000 0.25000 0.08038(4)
O1 O 0.00000 0.25000 0.2891(2)
O2 O 0.2905(2) 0.41518(12) 0.07969(8)
N1 N 0.00000 0.25000 -0.1360(3)
C1 C 0.00000 0.25000 0.2098(3)
C2 C 0.1832(3) 0.35292(17) 0.07948(10)
C3 C 0.00000 0.25000 -0.0561(3)
C4 C 0.00000 0.25000 -0.2322(3)
C5 C 0.00000 0.34328(18) -0.27728(17)
C6 C 0.00000 0.44065(19) -0.22396(19)
H1 H 0.00000 0.492(3) -0.265(2)
H2 H -0.105(3) 0.4428(19) -0.1849(15)
C7 C 0.00000 0.34145(18) -0.37294(18)
H3 H 0.00000 0.405(3) -0.403(2)
C8 C 0.00000 0.25000 -0.4197(2)
H4 H 0.00000 0.25000 -0.483(3)
C5A C 0.00000 0.15672(18) -0.27728(17)
C6A C 0.00000 0.05935(19) -0.22396(19)
H1A H 0.00000 0.008(3) -0.265(2)
H2A H 0.105(3) 0.0572(19) -0.1849(15)
C7A C 0.00000 0.15855(18) -0.37294(18)
H3A H 0.00000 0.095(3) -0.403(2)
H2J H 0.105(3) 0.4428(19) -0.1849(15)
H2K H -0.105(3) 0.0572(19) -0.1849(15)
O2A O -0.2905(2) 0.08482(12) 0.07969(8)
C2A C -0.1832(3) 0.14708(17) 0.07948(10)
O2J O -0.2905(2) 0.41518(12) 0.07969(8)
C2J C -0.1832(3) 0.35292(17) 0.07948(10)
O2K O 0.2905(2) 0.08482(12) 0.07969(8)
C2K C 0.1832(3) 0.14708(17) 0.07948(10)
#END
