
#######################################################################
#
#                 Cambridge Crystallographic Data Centre
#                                CCDC
#
#######################################################################
#
# If this CIF has been generated from an entry in the Cambridge
# Structural Database, then it will include bibliographic, chemical,
# crystal, experimental, refinement or atomic coordinate data resulting
# from the CCDC's data processing and validation procedures.
#
#######################################################################

data_CSD_CIF_ZOZKUU01
_audit_creation_date 1998-01-27
_audit_creation_method CSD-ConQuest-V1
_database_code_CSD ZOZKUU01
_chemical_formula_sum 'C13 H10 Cr1 O5'
_chemical_formula_moiety
;
C13 H10 Cr1 O5
;
_journal_coden_Cambridge 36
_journal_volume 519
_journal_year 1996
_journal_page_first 87
_journal_name_full 'J.Organomet.Chem. '
loop_
_publ_author_name
"S.Goetgheluck"
"J.Lamiot"
"J.Brocard"
_chemical_name_systematic
;
Tricarbonyl-(\h^6^-3-methyl-2-vinylbenzoic acid)-chromium
;
_chemical_melting_point 425.15
_cell_volume    631.659
_exptl_crystal_colour 'red'
_exptl_crystal_density_diffrn 1.568
_exptl_special_details
;
Melting point range 425.15-426.15K

;
_exptl_crystal_description 'block'
_diffrn_ambient_temperature ?
_diffrn_special_details
;
The study was carried out at room temperature,in the range 283-303K

;
#These two values have been output from a single CSD field.
_refine_ls_R_factor_gt 0.0475
_refine_ls_wR_factor_gt 0.0475
_symmetry_cell_setting triclinic
_symmetry_space_group_name_H-M 'P -1'
_symmetry_Int_Tables_number 2
loop_
_symmetry_equiv_pos_site_id
_symmetry_equiv_pos_as_xyz
1 x,y,z
2 -x,-y,-z
_cell_length_a 6.966(4)
_cell_length_b 8.993(4)
_cell_length_c 10.932(4)
_cell_angle_alpha 96.03
_cell_angle_beta 104.12(16)
_cell_angle_gamma 104.84
_cell_formula_units_Z 2
loop_
_atom_type_symbol
_atom_type_radius_bond
C 0.68
H 0.23
Cr 1.35
O 0.68
loop_
_atom_site_label
_atom_site_type_symbol
_atom_site_fract_x
_atom_site_fract_y
_atom_site_fract_z
Cr1 Cr 0.2091(1) 0.3759(1) 0.2341(1)
C1 C -0.0041(7) 0.4623(4) 0.1832(4)
O1 O -0.1383(5) 0.5146(4) 0.1511(4)
C2 C 0.3916(7) 0.5763(5) 0.2627(5)
O2 O 0.4996(6) 0.6988(4) 0.2772(4)
C3 C 0.1932(7) 0.4077(5) 0.4005(5)
O3 O 0.1831(7) 0.4251(5) 0.5040(4)
C4 C 0.0223(6) 0.1489(4) 0.1190(4)
C5 C 0.1378(6) 0.1198(4) 0.2359(4)
C6 C 0.3582(6) 0.1861(5) 0.2756(4)
C7 C 0.4537(6) 0.2768(5) 0.1988(4)
C8 C 0.3411(7) 0.3011(5) 0.0809(4)
C9 C 0.1259(7) 0.2363(5) 0.0404(4)
C10 C -0.2078(6) 0.0893(4) 0.0722(4)
O4 O -0.3124(4) 0.0116(4) 0.1315(3)
O5 O -0.2865(5) 0.1258(4) -0.0370(3)
C11 C 0.0340(7) 0.0197(5) 0.3156(4)
C12 C 0.0734(8) -0.1113(6) 0.3386(5)
C13 C 0.4924(7) 0.1632(6) 0.3982(5)
H1 H -0.42900 0.06300 -0.06500
H2 H 0.61900 0.33000 0.23100
H3 H 0.42000 0.36900 0.02200
H4 H 0.03800 0.25200 -0.05100
H5 H -0.07700 0.05600 0.35600
H6 H -0.01100 -0.18300 0.38300
H7 H 0.18900 -0.14700 0.30400
H8 H 0.42900 0.19200 0.47600
H9 H 0.50100 0.04400 0.39100
H10 H 0.65000 0.24400 0.41900
#END
