
#######################################################################
#
#                 Cambridge Crystallographic Data Centre
#                                CCDC
#
#######################################################################
#
# If this CIF has been generated from an entry in the Cambridge
# Structural Database, then it will include bibliographic, chemical,
# crystal, experimental, refinement or atomic coordinate data resulting
# from the CCDC's data processing and validation procedures.
#
#######################################################################

data_CSD_CIF_ZOZKUU
_audit_creation_date 1996-06-14
_audit_creation_method CSD-ConQuest-V1
_database_code_CSD ZOZKUU
_database_code_depnum_ccdc_archive 'CCDC 126470'
_chemical_formula_sum 'C13 H10 Cr1 O5'
_chemical_formula_moiety
;
C13 H10 Cr1 O5
;
_journal_coeditor_code "IUCr PA1203"
_journal_coden_Cambridge 591
_journal_volume 52
_journal_year 1996
_journal_page_first 595
_journal_name_full 'Acta Crystallogr.,Sect.C:Cryst.Struct.Commun. '
loop_
_publ_author_name
"J.Lamiot"
"F.Baert"
"J.Brocard"
"S.Goetgheluck"
_chemical_name_systematic
;
Tricarbonyl-(\h^6^-3-methyl-2-vinylbenzoic acid)-chromium
;
_cell_volume    631.659
_exptl_crystal_colour 'yellow'
_exptl_crystal_density_diffrn 1.57
_diffrn_ambient_temperature ?
_diffrn_special_details
;
The study was carried out at room temperature,in the range 283-303K

;
#These two values have been output from a single CSD field.
_refine_ls_R_factor_gt 0.0474
_refine_ls_wR_factor_gt 0.0474
_symmetry_cell_setting triclinic
_symmetry_space_group_name_H-M 'P -1'
_symmetry_Int_Tables_number 2
loop_
_symmetry_equiv_pos_site_id
_symmetry_equiv_pos_as_xyz
1 x,y,z
2 -x,-y,-z
_cell_length_a 6.966(4)
_cell_length_b 8.993(4)
_cell_length_c 10.932(4)
_cell_angle_alpha 96.03(15)
_cell_angle_beta 104.12(16)
_cell_angle_gamma 104.84(16)
_cell_formula_units_Z 2
loop_
_atom_type_symbol
_atom_type_radius_bond
C 0.68
H 0.23
Cr 1.35
O 0.68
loop_
_atom_site_label
_atom_site_type_symbol
_atom_site_fract_x
_atom_site_fract_y
_atom_site_fract_z
Cr1 Cr 0.2091(1) 0.3759(1) 0.2341(1)
C1 C -0.0043(6) 0.4622(4) 0.1831(4)
O1 O -0.1391(5) 0.5141(4) 0.1508(4)
C2 C 0.3914(6) 0.5759(4) 0.2625(4)
O2 O 0.4991(6) 0.6987(4) 0.2770(4)
C3 C 0.1933(7) 0.4080(5) 0.4003(4)
O3 O 0.1830(6) 0.4256(4) 0.5042(3)
C4 C 0.0225(5) 0.1492(4) 0.1190(3)
C5 C 0.1382(5) 0.1200(4) 0.2360(3)
C6 C 0.3577(6) 0.1860(4) 0.2757(4)
C7 C 0.4539(6) 0.2767(5) 0.1990(4)
C8 C 0.3410(6) 0.3010(5) 0.0807(4)
C9 C 0.1260(6) 0.2364(4) 0.0402(4)
C10 C -0.2076(5) 0.0894(4) 0.0723(3)
O4 O -0.3125(4) 0.0118(3) 0.1317(3)
O5 O -0.2868(4) 0.1262(3) -0.0373(3)
C11 C 0.0336(6) 0.0198(5) 0.3159(4)
C12 C 0.0735(7) -0.1113(5) 0.3388(5)
C13 C 0.4923(6) 0.1630(5) 0.3986(4)
H1 H -0.40600 0.09500 -0.06600
H2 H 0.61900 0.33000 0.23100
H3 H 0.42000 0.36900 0.02200
H4 H 0.03800 0.25200 -0.05100
H5 H -0.07700 0.05600 0.35600
H6 H -0.01100 -0.18300 0.39300
H7 H 0.18900 -0.14700 0.30400
H8 H 0.42800 0.18700 0.47600
H9 H 0.49900 0.04400 0.38900
H10 H 0.64600 0.24200 0.41900
#END
