
#######################################################################
#
#                 Cambridge Crystallographic Data Centre
#                                CCDC
#
#######################################################################
#
# If this CIF has been generated from an entry in the Cambridge
# Structural Database, then it will include bibliographic, chemical,
# crystal, experimental, refinement or atomic coordinate data resulting
# from the CCDC's data processing and validation procedures.
#
#######################################################################

data_CSD_CIF_ZUFTOM
_audit_creation_date 2020-01-15
_audit_creation_method CSD-ConQuest-V1
_database_code_CSD ZUFTOM
_database_code_depnum_ccdc_archive 'CCDC 1945860'
_chemical_formula_sum 'C16 H12 Cl2 Co1 N4'
_chemical_formula_moiety
;
C16 H12 Cl2 Co1 N4
;
_journal_coden_Cambridge 920
_journal_volume 15
_journal_year 2020
_journal_page_first 279
_journal_name_full 'Chem.Asian J. '
loop_
_publ_author_name
"Xing-Cai Huang"
"Rui Xu"
"Yong-Zhi Chen"
"Yi-Quan Zhang"
"Dong Shao"
_chemical_name_systematic
;
dichloro-bis(1,8-naphthyridine)-cobalt
;
_cell_volume    791.241
_exptl_crystal_colour 'blue'
_exptl_crystal_density_diffrn 1.637
_exptl_special_details
;
Magnetic properties

;
_exptl_crystal_description 'block'
_diffrn_ambient_temperature 293
#These two values have been output from a single CSD field.
_refine_ls_R_factor_gt 0.0289
_refine_ls_wR_factor_gt 0.0289
_symmetry_cell_setting triclinic
_symmetry_space_group_name_H-M 'P -1'
_symmetry_Int_Tables_number 2
loop_
_symmetry_equiv_pos_site_id
_symmetry_equiv_pos_as_xyz
1 x,y,z
2 -x,-y,-z
_cell_length_a 7.6444(15)
_cell_length_b 8.433(2)
_cell_length_c 12.956(2)
_cell_angle_alpha 79.772(7)
_cell_angle_beta 88.361(7)
_cell_angle_gamma 74.334(10)
_cell_formula_units_Z 2
loop_
_atom_type_symbol
_atom_type_radius_bond
C 0.68
H 0.23
Cl 0.99
Co 1.26
N 0.68
loop_
_atom_site_label
_atom_site_type_symbol
_atom_site_fract_x
_atom_site_fract_y
_atom_site_fract_z
Co1 Co 0.21587(3) 0.31948(3) 0.24565(2)
Cl1 Cl 0.06143(6) 0.59158(5) 0.24527(4)
Cl2 Cl 0.03822(7) 0.14415(7) 0.24026(4)
N1 N 0.33352(18) 0.32984(17) 0.10155(10)
N2 N 0.32364(19) 0.24545(17) 0.39449(11)
N3 N 0.5460(2) 0.37740(19) 0.33987(11)
N4 N 0.55683(19) 0.08910(18) 0.16309(10)
C1 C 0.4853(2) 0.21154(19) 0.08045(11)
C2 C 0.4739(2) 0.28985(19) 0.42026(12)
C3 C 0.5471(3) 0.2452(2) 0.52391(13)
C4 C 0.5605(2) 0.2190(2) -0.02104(12)
C5 C 0.7040(2) -0.0256(2) 0.14449(14)
H1 H 0.75590 -0.10990 0.20020
C6 C 0.7172(2) 0.0920(2) -0.03638(14)
H2 H 0.77050 0.09180 -0.10180
C7 C 0.7885(2) -0.0301(2) 0.04648(16)
H3 H 0.89170 -0.11540 0.03870
C8 C 0.2558(2) 0.4517(2) 0.02355(14)
H4 H 0.15180 0.53150 0.03780
C9 C 0.2442(3) 0.1612(2) 0.46961(15)
H5 H 0.14150 0.13200 0.45190
C10 C 0.4740(3) 0.3528(2) -0.10083(13)
H6 H 0.52120 0.36240 -0.16790
C11 C 0.3213(3) 0.4672(2) -0.07872(14)
H7 H 0.26110 0.55440 -0.13070
C12 C 0.7040(3) 0.2947(3) 0.54332(16)
H8 H 0.75730 0.26790 0.61000
C13 C 0.6920(3) 0.4205(3) 0.36195(15)
H9 H 0.74350 0.48000 0.30780
C14 C 0.4583(3) 0.1548(2) 0.60069(14)
H10 H 0.50320 0.12310 0.66940
C15 C 0.3076(3) 0.1145(3) 0.57402(15)
H11 H 0.24730 0.05670 0.62420
C16 C 0.7754(3) 0.3825(3) 0.46238(18)
H12 H 0.87820 0.41700 0.47320
#END
