
#######################################################################
#
#                 Cambridge Crystallographic Data Centre
#                                CCDC
#
#######################################################################
#
# If this CIF has been generated from an entry in the Cambridge
# Structural Database, then it will include bibliographic, chemical,
# crystal, experimental, refinement or atomic coordinate data resulting
# from the CCDC's data processing and validation procedures.
#
#######################################################################

data_CSD_CIF_ZUGTUQ
_audit_creation_date 1996-06-26
_audit_creation_method CSD-ConQuest-V1
_database_code_CSD ZUGTUQ
_database_code_depnum_ccdc_archive 'CCDC 126534'
_chemical_formula_sum 'C24 H32 Mn1 N2 O10'
_chemical_formula_moiety
;
C20 H16 Mn1 N2 O6,2(C2 H6 O1),2(H2 O1)
;
_journal_coeditor_code "IUCr FG1078"
_journal_coden_Cambridge 591
_journal_volume 52
_journal_year 1996
_journal_page_first 801
_journal_name_full 'Acta Crystallogr.,Sect.C:Cryst.Struct.Commun. '
loop_
_publ_author_name
"H.M.Haendler"
_chemical_name_systematic
;
trans-(Diaqua-bis(2-quinolinecarboxylato)-manganese(ii))-ethanol solvate 
dihydrate
;
_cell_volume    673.084
_exptl_crystal_colour 'pale yellow'
_exptl_crystal_density_diffrn 1.389
_diffrn_ambient_temperature ?
_diffrn_special_details
;
The study was carried out at room temperature,in the range 283-303K

;
#These two values have been output from a single CSD field.
_refine_ls_R_factor_gt 0.045
_refine_ls_wR_factor_gt 0.045
_symmetry_cell_setting triclinic
_symmetry_space_group_name_H-M 'P -1'
_symmetry_Int_Tables_number 2
loop_
_symmetry_equiv_pos_site_id
_symmetry_equiv_pos_as_xyz
1 x,y,z
2 -x,-y,-z
_cell_length_a 7.365(2)
_cell_length_b 9.102(3)
_cell_length_c 11.165(3)
_cell_angle_alpha 77.52(3)
_cell_angle_beta 73.47(2)
_cell_angle_gamma 71.27(3)
_cell_formula_units_Z 1
loop_
_atom_type_symbol
_atom_type_radius_bond
C 0.68
H 0.23
Mn 1.35
N 0.68
O 0.68
loop_
_atom_site_label
_atom_site_type_symbol
_atom_site_fract_x
_atom_site_fract_y
_atom_site_fract_z
Mn1 Mn 0.00000 0.00000 0.00000
O1 O -0.2058(4) 0.0293(3) -0.1095(2)
O2 O -0.4057(4) -0.0704(3) -0.1614(3)
O3 O -0.2371(4) 0.1086(4) 0.1534(3)
O4 O -0.1212(6) -0.0125(5) 0.3724(3)
N1 N -0.1072(4) -0.2247(3) 0.0593(3)
C1 C -0.2903(5) -0.0747(4) -0.0975(3)
C2 C -0.2426(5) -0.2177(4) 0.0007(3)
C3 C -0.3374(6) -0.3364(5) 0.0219(4)
C4 C -0.2849(6) -0.4663(5) 0.1063(4)
C5 C -0.1407(6) -0.4798(4) 0.1706(3)
C6 C -0.0529(5) -0.3545(4) 0.1452(3)
C7 C 0.0925(7) -0.3648(5) 0.2076(4)
C8 C 0.1494(8) -0.4943(5) 0.2929(5)
C9 C 0.0621(8) -0.6184(5) 0.3180(5)
C10 C -0.0769(7) -0.6118(5) 0.2594(4)
O5 O -0.2840(6) 0.0860(5) -0.3916(3)
C11 C -0.3978(11) 0.2442(8) -0.4000(6)
C12 C -0.5628(14) 0.2728(10) -0.4601(9)
H1 H -0.312(7) 0.088(6) 0.146(5)
H2 H -0.192(7) 0.061(6) 0.213(5)
H3 H 0.003(8) -0.050(6) 0.373(5)
H4 H -0.179(8) 0.010(6) 0.439(5)
H5 H -0.307(9) 0.030(7) -0.352(5)
H6 H -0.433(7) -0.322(5) -0.010(4)
H7 H -0.361(7) -0.537(5) 0.129(4)
H8 H 0.143(7) -0.291(6) 0.193(4)
H9 H 0.258(8) -0.505(6) 0.334(5)
H10 H 0.111(7) -0.705(6) 0.369(5)
H11 H -0.143(7) -0.690(6) 0.283(4)
H12 H -0.455(9) 0.277(7) -0.314(6)
H13 H -0.297(10) 0.315(8) -0.467(7)
H14 H -0.660(9) 0.386(8) -0.451(6)
H15 H -0.643(13) 0.209(9) -0.410(8)
H16 H -0.501(9) 0.237(7) -0.554(6)
O1A O 0.2058(4) -0.0293(3) 0.1095(2)
C1A C 0.2903(5) 0.0747(4) 0.0975(3)
O2A O 0.4057(4) 0.0704(3) 0.1614(3)
C2A C 0.2426(5) 0.2177(4) -0.0007(3)
N1A N 0.1072(4) 0.2247(3) -0.0593(3)
O3A O 0.2371(4) -0.1086(4) -0.1534(3)
H1A H 0.312(7) -0.088(6) -0.146(5)
H2A H 0.192(7) -0.061(6) -0.213(5)
C6A C 0.0529(5) 0.3545(4) -0.1452(3)
C5A C 0.1407(6) 0.4798(4) -0.1706(3)
C4A C 0.2849(6) 0.4663(5) -0.1063(4)
C3A C 0.3374(6) 0.3364(5) -0.0219(4)
H6A H 0.433(7) 0.322(5) 0.010(4)
H7A H 0.361(7) 0.537(5) -0.129(4)
C10A C 0.0769(7) 0.6118(5) -0.2594(4)
C9A C -0.0621(8) 0.6184(5) -0.3180(5)
C8A C -0.1494(8) 0.4943(5) -0.2929(5)
C7A C -0.0925(7) 0.3648(5) -0.2076(4)
H8A H -0.143(7) 0.291(6) -0.193(4)
H9A H -0.258(8) 0.505(6) -0.334(5)
H10A H -0.111(7) 0.705(6) -0.369(5)
H11A H 0.143(7) 0.690(6) -0.283(4)
#END
