
#######################################################################
#
#                 Cambridge Crystallographic Data Centre
#                                CCDC
#
#######################################################################
#
# If this CIF has been generated from an entry in the Cambridge
# Structural Database, then it will include bibliographic, chemical,
# crystal, experimental, refinement or atomic coordinate data resulting
# from the CCDC's data processing and validation procedures.
#
#######################################################################

data_CSD_CIF_ZUKSED
_audit_creation_date 1996-10-04
_audit_creation_method CSD-ConQuest-V1
_database_code_CSD ZUKSED
_chemical_formula_sum 'C15 H16 Cr1 O7'
_chemical_formula_moiety
;
C15 H16 Cr1 O7
;
_journal_coden_Cambridge 16
_journal_volume 52
_journal_year 1996
_journal_page_first 1617
_journal_name_full 'Tetrahedron '
loop_
_publ_author_name
"B.Schmidt"
"P.Kocienski"
"G.Reid"
_chemical_name_systematic
;
(5S*,8R*,10S*)-8,10-Dimethyl-1,6-dioxaspiro(4,5)decanylidene-2-(pentacarbonyl-
chromium)
;
_cell_volume    828.483
_exptl_crystal_colour 'orange-yellow'
_exptl_crystal_density_diffrn 1.444
_diffrn_ambient_temperature ?
_diffrn_special_details
;
The study was carried out at room temperature,in the range 283-303K

;
#These two values have been output from a single CSD field.
_refine_ls_R_factor_gt 0.043
_refine_ls_wR_factor_gt 0.043
_symmetry_cell_setting triclinic
_symmetry_space_group_name_H-M 'P -1'
_symmetry_Int_Tables_number 2
loop_
_symmetry_equiv_pos_site_id
_symmetry_equiv_pos_as_xyz
1 x,y,z
2 -x,-y,-z
_cell_length_a 9.929(9)
_cell_length_b 10.837(10)
_cell_length_c 8.763(9)
_cell_angle_alpha 108.21(7)
_cell_angle_beta 97.78(8)
_cell_angle_gamma 67.69(6)
_cell_formula_units_Z 2
loop_
_atom_type_symbol
_atom_type_radius_bond
C 0.68
H 0.23
Cr 1.35
O 0.68
loop_
_atom_site_label
_atom_site_type_symbol
_atom_site_fract_x
_atom_site_fract_y
_atom_site_fract_z
Cr1 Cr 0.15028(6) 0.16553(5) 0.36582(6)
O1 O 0.1285(3) 0.0425(3) 0.6258(3)
O2 O 0.1470(3) 0.4320(3) 0.6207(3)
O3 O -0.1778(3) 0.2754(3) 0.3115(3)
O4 O 0.1387(3) -0.0933(3) 0.1096(3)
O5 O 0.4807(3) 0.0454(3) 0.3543(3)
O6 O 0.2530(2) 0.3252(2) 0.2264(2)
O7 O 0.1647(2) 0.5179(2) 0.1256(3)
C1 C 0.1368(4) 0.0881(3) 0.5270(4)
C2 C 0.1489(4) 0.3321(4) 0.5254(4)
C3 C -0.0545(4) 0.2364(3) 0.3366(4)
C4 C 0.1447(3) 0.0043(4) 0.2059(4)
C5 C 0.3569(4) 0.0908(3) 0.3655(4)
C6 C 0.1703(3) 0.2504(3) 0.2008(4)
C7 C 0.1014(6) 0.2447(6) 0.0364(5)
C8 C 0.1827(4) 0.2985(4) -0.0480(4)
C9 C 0.2551(3) 0.3786(3) 0.0867(4)
C10 C 0.4144(4) 0.3554(4) 0.0672(4)
C11 C 0.4673(4) 0.4564(4) 0.2015(4)
C12 C 0.3625(4) 0.6055(4) 0.2300(4)
C13 C 0.2138(4) 0.6099(4) 0.2581(5)
C14 C 0.5151(5) 0.2057(4) 0.0490(6)
C15 C 0.4116(5) 0.7058(5) 0.3684(5)
H1 H -0.004(6) 0.312(5) 0.056(6)
H2 H 0.116(5) 0.150(5) -0.019(5)
H3 H 0.116(3) 0.359(3) -0.107(4)
H4 H 0.251(4) 0.224(4) -0.114(4)
H5 H 0.411(3) 0.376(3) -0.035(4)
H6 H 0.482(3) 0.428(3) 0.303(4)
H7 H 0.567(4) 0.443(4) 0.179(5)
H8 H 0.357(3) 0.629(3) 0.137(4)
H9 H 0.141(4) 0.698(4) 0.263(4)
H10 H 0.218(4) 0.588(4) 0.364(4)
H11 H 0.521(4) 0.184(4) 0.151(5)
H12 H 0.485(4) 0.143(4) -0.038(5)
H13 H 0.616(5) 0.198(4) 0.036(5)
H14 H 0.514(5) 0.692(4) 0.351(5)
H15 H 0.346(4) 0.800(4) 0.391(5)
H16 H 0.412(4) 0.686(4) 0.466(5)
#END
