
#######################################################################
#
#                 Cambridge Crystallographic Data Centre
#                                CCDC
#
#######################################################################
#
# If this CIF has been generated from an entry in the Cambridge
# Structural Database, then it will include bibliographic, chemical,
# crystal, experimental, refinement or atomic coordinate data resulting
# from the CCDC's data processing and validation procedures.
#
#######################################################################

data_CSD_CIF_ZUNYIQ
_audit_creation_date 1996-10-31
_audit_creation_method CSD-ConQuest-V1
_database_code_CSD ZUNYIQ
_database_code_depnum_ccdc_archive 'CCDC 1316752'
_chemical_formula_sum 'C10 H14 Fe1 N4 O12'
_chemical_formula_moiety
;
C10 H10 Fe1 N4 O10,2(H2 O1)
;
_journal_coden_Cambridge 580
_journal_volume 15
_journal_year 1996
_journal_page_first 1717
_journal_name_full 'Polyhedron '
loop_
_publ_author_name
"E.J.Baran"
"R.C.Mercader"
"F.Hueso-Urena"
"M.N.Moreno-Carretero"
"M.Quiros-Olozabal"
"J.M.Salas-Peregrin"
_chemical_name_systematic
;
Diaqua-bis(iso-orotato)-iron(ii) dihydrate
;
_cell_volume    378.297
_exptl_crystal_colour 'dark orange'
_exptl_crystal_density_diffrn 1.92
_diffrn_ambient_temperature ?
_diffrn_special_details
;
The study was carried out at room temperature,in the range 283-303K

;
#These two values have been output from a single CSD field.
_refine_ls_R_factor_gt 0.078
_refine_ls_wR_factor_gt 0.078
_symmetry_cell_setting triclinic
_symmetry_space_group_name_H-M 'P -1'
_symmetry_Int_Tables_number 2
loop_
_symmetry_equiv_pos_site_id
_symmetry_equiv_pos_as_xyz
1 x,y,z
2 -x,-y,-z
_cell_length_a 5.036(4)
_cell_length_b 9.626(10)
_cell_length_c 8.128(4)
_cell_angle_alpha 74.65(5)
_cell_angle_beta 88.96(4)
_cell_angle_gamma 84.65(9)
_cell_formula_units_Z 1
loop_
_atom_type_symbol
_atom_type_radius_bond
C 0.68
H 0.23
Fe 1.34
N 0.68
O 0.68
loop_
_atom_site_label
_atom_site_type_symbol
_atom_site_fract_x
_atom_site_fract_y
_atom_site_fract_z
Fe1 Fe 0.00000 0.00000 0.00000
N1 N -0.0012(10) -0.5978(5) 0.2961(6)
C1 C -0.2100(11) -0.5641(6) 0.1846(7)
O1 O -0.3492(9) -0.6558(4) 0.1598(6)
N2 N -0.2483(10) -0.4232(5) 0.0952(6)
C2 C -0.1060(11) -0.3122(6) 0.1132(7)
O2 O -0.1638(9) -0.1919(4) 0.0128(6)
C3 C 0.1064(11) -0.3534(6) 0.2391(7)
C4 C 0.2818(12) -0.2481(6) 0.2794(8)
O3 O 0.2507(9) -0.1153(5) 0.1941(6)
O4 O 0.4539(11) -0.2964(5) 0.3923(7)
C5 C 0.1488(12) -0.4945(6) 0.3230(7)
O5 O 0.2934(10) -0.0376(5) -0.1887(6)
H1 H 0.04100 -0.69690 0.35820
H2 H -0.38900 -0.39820 0.01150
H3 H 0.29170 -0.52340 0.40500
H4 H 0.31220 -0.13960 -0.17860
H5 H 0.44570 0.01320 -0.19050
O6 O 0.2028(25) -0.8683(9) 0.4540(11)
H6 H 0.30630 -0.79780 0.47110
H7 H 0.19780 -0.94180 0.55880
O2A O 0.1638(9) 0.1919(4) -0.0128(6)
C2A C 0.1060(11) 0.3122(6) -0.1132(7)
N2A N 0.2483(10) 0.4232(5) -0.0952(6)
C1A C 0.2100(11) 0.5641(6) -0.1846(7)
N1A N 0.0012(10) 0.5978(5) -0.2961(6)
C5A C -0.1488(12) 0.4945(6) -0.3230(7)
C3A C -0.1064(11) 0.3534(6) -0.2391(7)
C4A C -0.2818(12) 0.2481(6) -0.2794(8)
O3A O -0.2507(9) 0.1153(5) -0.1941(6)
O5A O -0.2934(10) 0.0376(5) 0.1887(6)
H4A H -0.31220 0.13960 0.17860
H5A H -0.44570 -0.01320 0.19050
O4A O -0.4539(11) 0.2964(5) -0.3923(7)
H3A H -0.29170 0.52340 -0.40500
H1A H -0.04100 0.69690 -0.35820
O1A O 0.3492(9) 0.6558(4) -0.1598(6)
H2A H 0.38900 0.39820 -0.01150
#END
