
#######################################################################
#
#                 Cambridge Crystallographic Data Centre
#                                CCDC
#
#######################################################################
#
# If this CIF has been generated from an entry in the Cambridge
# Structural Database, then it will include bibliographic, chemical,
# crystal, experimental, refinement or atomic coordinate data resulting
# from the CCDC's data processing and validation procedures.
#
#######################################################################

data_CSD_CIF_ZUXBUP02
_audit_creation_date 2004-07-21
_audit_creation_method CSD-ConQuest-V1
_database_code_CSD ZUXBUP02
_database_code_depnum_ccdc_archive 'CCDC 241449'
_chemical_formula_sum 'C12 H19 Cr1 O4'
_chemical_formula_moiety
;
C12 H12 Cr1 1+,H1 O1 1-,3(H2 O1)
;
_journal_coeditor_code "IUCr BS0022"
_journal_coden_Cambridge 622
_journal_volume 60
_journal_year 2004
_journal_page_first 287
_journal_name_full 'Acta Crystallogr.,Sect.B:Struct.Sci. '
loop_
_publ_author_name
"D.A.Clemente"
"A.Marzotto"
_chemical_name_systematic
;
bis(\h^6^-Benzene)-chromium hydroxide trihydrate
;
_cell_volume   1348.975
_exptl_special_details
;
air-sensitive

;
_diffrn_ambient_temperature ?
_diffrn_special_details
;
The study was carried out at room temperature,in the range 283-303K

;
_refine_special_details
;
Hydroxide ions and water molecules are disordered on the same site.

;
loop_
_citation_database_id_CSD
_citation_special_details
ZUXBUP01 "is reinterpreted by this entry"
ZUXBUP "is reinterpreted by this entry"
_symmetry_cell_setting orthorhombic
_symmetry_space_group_name_H-M 'C m c a'
_symmetry_Int_Tables_number 64
loop_
_symmetry_equiv_pos_site_id
_symmetry_equiv_pos_as_xyz
1 x,y,z
2 x,1/2+y,1/2-z
3 -x,y,z
4 x,1/2-y,1/2+z
5 1/2+x,1/2+y,z
6 1/2+x,y,1/2-z
7 1/2-x,1/2+y,z
8 1/2+x,-y,1/2+z
9 -x,-y,-z
10 -x,-1/2-y,-1/2+z
11 x,-y,-z
12 -x,-1/2+y,-1/2-z
13 -1/2-x,-1/2-y,-z
14 -1/2-x,-y,-1/2+z
15 -1/2+x,-1/2-y,-z
16 -1/2-x,y,-1/2-z
_cell_length_a 16.409(3)
_cell_length_b 10.506(4)
_cell_length_c 7.825(3)
_cell_angle_alpha 90
_cell_angle_beta 90
_cell_angle_gamma 90
_cell_formula_units_Z 4
loop_
_atom_type_symbol
_atom_type_radius_bond
C 0.68
H 0.23
Cr 1.35
O 0.68
loop_
_atom_site_label
_atom_site_type_symbol
_atom_site_fract_x
_atom_site_fract_y
_atom_site_fract_z
Cr1 Cr 0.00000 0.00000 0.00000
C1 C 0.04290 0.01340 0.25795
C2 C 0.08490 0.10055 0.15615
C3 C 0.04300 0.18765 0.05095
O1 O 0.22135 0.37210 0.07305
H1 H 0.07141 -0.04432 0.32537
H2 H 0.14157 0.10118 0.15774
H3 H 0.07169 0.24441 -0.01760
C1B C -0.04290 0.01340 0.25795
C1H C -0.04290 -0.01340 -0.25795
C1J C 0.04290 -0.01340 -0.25795
C2B C -0.08490 0.10055 0.15615
H1B H -0.07141 -0.04432 0.32537
C3B C -0.04300 0.18765 0.05095
C2H C -0.08490 -0.10055 -0.15615
H1H H -0.07141 0.04432 -0.32537
C3H C -0.04300 -0.18765 -0.05095
C2J C 0.08490 -0.10055 -0.15615
H1J H 0.07141 0.04432 -0.32537
C3J C 0.04300 -0.18765 -0.05095
H3H H -0.07169 -0.24441 0.01760
H3J H 0.07169 -0.24441 0.01760
H2J H 0.14157 -0.10118 -0.15774
H2H H -0.14157 -0.10118 -0.15774
H3B H -0.07169 0.24441 -0.01760
H2B H -0.14157 0.10118 0.15774
#END
