
#######################################################################
#
#                 Cambridge Crystallographic Data Centre
#                                CCDC
#
#######################################################################
#
# If this CIF has been generated from an entry in the Cambridge
# Structural Database, then it will include bibliographic, chemical,
# crystal, experimental, refinement or atomic coordinate data resulting
# from the CCDC's data processing and validation procedures.
#
#######################################################################

data_CSD_CIF_ZUXBUP01
_audit_creation_date 1998-03-04
_audit_creation_method CSD-ConQuest-V1
_database_code_CSD ZUXBUP01
_chemical_formula_sum 'C12 H19 Cr1 O4'
_chemical_formula_moiety
;
C12 H12 Cr1 1+,H1 O1 1-,3(H2 O1)
;
_journal_coden_Cambridge 579
_journal_volume 16
_journal_year 1997
_journal_page_first 2070
_journal_name_full 'Organometallics '
loop_
_publ_author_name
"D.Braga"
"A.L.Costa"
"F.Grepioni"
"L.Scaccianoce"
"E.Tagliavini"
_chemical_name_systematic
;
bis(\h^6^-Benzene)-chromium hydroxide trihydrate
;
_cell_volume   1348.975
_exptl_crystal_density_diffrn 1.375
_exptl_special_details
;
Air-sensitive

;
_diffrn_ambient_temperature ?
_diffrn_special_details
;
The study was carried out at room temperature,in the range 283-303K

;
#These two values have been output from a single CSD field.
_refine_ls_R_factor_gt 0.0376
_refine_ls_wR_factor_gt 0.0376
loop_
_citation_database_id_CSD
_citation_special_details
ZUXBUP02 "is a reinterpretation of this cif"
_symmetry_cell_setting orthorhombic
_symmetry_space_group_name_H-M 'A b a 2'
_symmetry_Int_Tables_number 41
loop_
_symmetry_equiv_pos_site_id
_symmetry_equiv_pos_as_xyz
1 x,y,z
2 -x,-y,z
3 1/2-x,1/2+y,z
4 1/2+x,1/2-y,z
5 x,1/2+y,1/2+z
6 -x,1/2-y,1/2+z
7 1/2-x,y,1/2+z
8 1/2+x,-y,1/2+z
_cell_length_a 7.825(3)
_cell_length_b 10.506(4)
_cell_length_c 16.409(5)
_cell_angle_alpha 90
_cell_angle_beta 90
_cell_angle_gamma 90
_cell_formula_units_Z 4
loop_
_atom_type_symbol
_atom_type_radius_bond
C 0.68
H 0.23
Cr 1.35
O 0.68
loop_
_atom_site_label
_atom_site_type_symbol
_atom_site_fract_x
_atom_site_fract_y
_atom_site_fract_z
Cr1 Cr 0.00000 0.50000 0.2896(4)
C1 C 0.2598(16) 0.5155(14) 0.2487(10)
C2 C 0.2556(21) 0.5139(12) 0.3339(9)
C3 C 0.1495(16) 0.6001(14) 0.3757(8)
C4 C 0.0529(18) 0.6890(15) 0.3348(10)
C5 C 0.0524(23) 0.6858(16) 0.2502(11)
C6 C 0.1626(15) 0.6004(11) 0.2062(8)
O1 O -0.4391(17) 0.6260(13) 0.5102(5)
O2 O -0.0804(16) 0.6288(12) 0.5688(6)
H1 H 0.3293(16) 0.4584(14) 0.2209(10)
H2 H 0.3226(21) 0.4563(12) 0.3627(9)
H3 H 0.1446(16) 0.5969(14) 0.4323(9)
H4 H -0.0104(18) 0.7495(15) 0.3631(10)
H5 H -0.0203(23) 0.7396(16) 0.2216(11)
H6 H 0.1674(15) 0.6030(11) 0.1496(8)
C1A C -0.2598(16) 0.4845(14) 0.2487(10)
C2A C -0.2556(21) 0.4861(12) 0.3339(9)
C3A C -0.1495(16) 0.3999(14) 0.3757(8)
H2A H -0.3226(21) 0.5437(12) 0.3627(9)
C4A C -0.0529(18) 0.3110(15) 0.3348(10)
C5A C -0.0524(23) 0.3142(16) 0.2502(11)
H4A H 0.0104(18) 0.2505(15) 0.3631(10)
C6A C -0.1626(15) 0.3996(11) 0.2062(8)
H1A H -0.3293(16) 0.5416(14) 0.2209(10)
H6A H -0.1674(15) 0.3970(11) 0.1496(8)
H5A H 0.0203(23) 0.2604(16) 0.2216(11)
H3A H -0.1446(16) 0.4031(14) 0.4323(9)
#END
