
#######################################################################
#
#                 Cambridge Crystallographic Data Centre
#                                CCDC
#
#######################################################################
#
# If this CIF has been generated from an entry in the Cambridge
# Structural Database, then it will include bibliographic, chemical,
# crystal, experimental, refinement or atomic coordinate data resulting
# from the CCDC's data processing and validation procedures.
#
#######################################################################

data_CSD_CIF_ZUYMAH
_audit_creation_date 1997-01-09
_audit_creation_method CSD-ConQuest-V1
_database_code_CSD ZUYMAH
_chemical_formula_sum 'C31 H38 Fe1 N1 O5 P1'
_chemical_formula_moiety
;
C27 H30 Fe1 N1 O4 P1,C4 H8 O1
;
_journal_coden_Cambridge 579
_journal_volume 15
_journal_year 1996
_journal_page_first 1752
_journal_name_full 'Organometallics '
loop_
_publ_author_name
"J.-J.Brunet"
"R.Chauvin"
"G.Commenges"
"B.Donnadieu"
"P.Leglaye"
_chemical_name_systematic
;
Tricarbonyl-hydrido-diphenyl-N,N-dimethylephosium-iron tetrahydrofuran solvate
;
_cell_volume    747.323
_exptl_crystal_colour 'orange-yellow'
_exptl_crystal_density_diffrn 1.302
_diffrn_ambient_temperature ?
_diffrn_special_details
;
The study was carried out at room temperature,in the range 283-303K

;
#These two values have been output from a single CSD field.
_refine_ls_R_factor_gt 0.0284
_refine_ls_wR_factor_gt 0.0284
_symmetry_cell_setting triclinic
_symmetry_space_group_name_H-M 'P 1'
_symmetry_Int_Tables_number 1
loop_
_symmetry_equiv_pos_site_id
_symmetry_equiv_pos_as_xyz
1 x,y,z
_cell_length_a 9.667(3)
_cell_length_b 9.547(2)
_cell_length_c 10.179(2)
_cell_angle_alpha 94.44(2)
_cell_angle_beta 110.00(2)
_cell_angle_gamma 117.93(2)
_cell_formula_units_Z 1
loop_
_atom_type_symbol
_atom_type_radius_bond
C 0.68
H 0.23
Fe 1.34
N 0.68
O 0.68
P 1.05
loop_
_atom_site_label
_atom_site_type_symbol
_atom_site_fract_x
_atom_site_fract_y
_atom_site_fract_z
Fe1 Fe 0.2283(1) 0.6267(1) 0.46731(9)
P1 P 0.2130(1) 0.4329(1) 0.5670(1)
O1 O 0.3788(5) 0.9386(4) 0.6803(4)
O2 O -0.1341(4) 0.5264(5) 0.3581(4)
O3 O 0.2386(5) 0.6633(5) 0.1893(4)
O4 O 0.1636(3) 0.2530(3) 0.4688(3)
O5 O 0.0755(6) -0.0452(5) 0.9118(4)
N1 N 0.3754(5) 0.2655(5) 0.2747(4)
C1 C 0.3205(6) 0.8116(5) 0.5982(5)
C2 C 0.0091(6) 0.5632(6) 0.4032(5)
C3 C 0.2337(6) 0.6446(6) 0.2997(5)
C4 C 0.1068(5) 0.2154(4) 0.3146(4)
C5 C 0.1972(5) 0.1361(5) 0.2686(4)
C6 C 0.0531(5) 0.3585(5) 0.6441(4)
C7 C -0.1191(6) 0.2411(7) 0.5580(5)
C8 C -0.2411(6) 0.1899(7) 0.6144(6)
C9 C -0.1915(7) 0.2614(7) 0.7567(6)
C10 C -0.0222(7) 0.3821(7) 0.8451(6)
C11 C 0.1017(6) 0.4299(6) 0.7892(5)
C12 C 0.3989(5) 0.4614(5) 0.7240(4)
C13 C 0.5384(6) 0.6194(6) 0.8076(5)
C14 C 0.6736(6) 0.6426(7) 0.9327(5)
C15 C 0.6706(7) 0.5075(8) 0.9737(5)
C16 C 0.5345(7) 0.3509(7) 0.8907(5)
C17 C 0.4002(6) 0.3287(6) 0.7671(5)
C18 C -0.0868(5) 0.0969(5) 0.2353(4)
C19 C -0.1817(6) 0.1137(6) 0.1087(5)
C20 C -0.3608(7) 0.0071(7) 0.0375(6)
C21 C -0.4441(6) -0.1137(6) 0.0948(6)
C22 C -0.3528(6) -0.1322(6) 0.2191(6)
C23 C -0.1759(6) -0.0291(6) 0.2897(5)
C24 C 0.2092(8) 0.0131(7) 0.3500(7)
C25 C 0.0807(8) -0.1865(8) 0.8690(7)
C26 C -0.065(1) -0.2863(8) 0.7216(7)
C27 C -0.092(1) -0.158(1) 0.6625(7)
C28 C -0.0372(9) -0.0281(8) 0.7922(8)
C29 C 0.3498(8) 0.3607(7) 0.1683(7)
C30 C 0.4522(7) 0.1773(7) 0.2265(6)
C31 C 0.4991(6) 0.3828(8) 0.4232(6)
H1 H 0.406(7) 0.660(6) 0.508(6)
H2 H 0.14030 0.32480 0.29660
H3 H 0.11850 0.06870 0.16370
H4 H -0.15800 0.19190 0.45220
H5 H -0.36460 0.10180 0.55210
H6 H -0.27960 0.22470 0.79450
H7 H 0.01290 0.43440 0.95120
H8 H 0.22770 0.51350 0.85350
H9 H 0.53940 0.71660 0.77520
H10 H 0.77620 0.75640 0.99310
H11 H 0.76640 0.52320 1.06220
H12 H 0.53320 0.25320 0.92110
H13 H 0.29960 0.21410 0.70820
H14 H -0.12090 0.20420 0.06920
H15 H -0.42940 0.01840 -0.05540
H16 H -0.57140 -0.18600 0.04680
H17 H -0.41610 -0.22250 0.25870
H18 H 0.09520 -0.06990 0.34360
H19 H 0.28910 0.07190 0.45460
H20 H 0.25470 -0.04560 0.31130
H21 H 0.16350 -0.22080 0.92410
H22 H -0.13050 -0.40810 0.67260
H23 H -0.13060 -0.15710 0.55660
H24 H -0.07470 0.05530 0.78900
H25 H 0.45830 0.44800 0.17080
H26 H 0.29070 0.41790 0.19150
H27 H 0.27230 0.28740 0.06800
H28 H 0.56780 0.25760 0.23180
H29 H 0.46800 0.10760 0.29000
H30 H 0.37660 0.10660 0.12560
H31 H 0.61230 0.46580 0.42380
H32 H 0.52300 0.32550 0.49510
H33 H 0.45380 0.44650 0.45510
#END
