
#######################################################################
#
#                 Cambridge Crystallographic Data Centre
#                                CCDC
#
#######################################################################
#
# If this CIF has been generated from an entry in the Cambridge
# Structural Database, then it will include bibliographic, chemical,
# crystal, experimental, refinement or atomic coordinate data resulting
# from the CCDC's data processing and validation procedures.
#
#######################################################################

data_CSD_CIF_ZZZKBM01
_audit_creation_date 2001-10-04
_audit_creation_method CSD-ConQuest-V1
_database_code_CSD ZZZKBM01
_database_code_depnum_ccdc_archive 'CCDC 167701'
_chemical_formula_sum 'C36 H30 Br2 Mn1 O2 P2'
_chemical_formula_moiety
;
C36 H30 Br2 Mn1 O2 P2
;
_journal_coden_Cambridge 9
_journal_volume 40
_journal_year 2001
_journal_page_first 3576
_journal_name_full 'Inorg.Chem. '
loop_
_publ_author_name
"F.A.Cotton"
"L.M.Daniels"
"P.Huang"
_chemical_name_systematic
;
Dibromo-bis(triphenylphosphine oxide-O)-manganese(ii)
;
_cell_volume    850.177
_exptl_crystal_colour 'pale green'
_exptl_crystal_density_diffrn 1.507
_exptl_special_details
;
triboluminescent
isomorphous with the di-iodo analogue

;
_exptl_crystal_description 'block'
_exptl_crystal_preparation 'ether/ethanol'
_diffrn_ambient_temperature 213
#These two values have been output from a single CSD field.
_refine_ls_R_factor_gt 0.0372
_refine_ls_wR_factor_gt 0.0372
_symmetry_cell_setting triclinic
_symmetry_space_group_name_H-M 'P 1'
_symmetry_Int_Tables_number 1
loop_
_symmetry_equiv_pos_site_id
_symmetry_equiv_pos_as_xyz
1 x,y,z
_cell_length_a 9.9735(12)
_cell_length_b 10.191(3)
_cell_length_c 10.538(2)
_cell_angle_alpha 65.323(11)
_cell_angle_beta 63.493(12)
_cell_angle_gamma 89.44(2)
_cell_formula_units_Z 1
loop_
_atom_type_symbol
_atom_type_radius_bond
C 0.68
H 0.23
Br 1.21
Mn 1.35
O 0.68
P 1.05
loop_
_atom_site_label
_atom_site_type_symbol
_atom_site_fract_x
_atom_site_fract_y
_atom_site_fract_z
Mn1 Mn -0.62082(11) -0.93571(10) -0.19739(11)
Br1 Br -0.67504(9) -0.86811(9) 0.01730(9)
Br2 Br -0.35924(8) -0.97738(7) -0.32588(8)
P1 P -0.9466(2) -1.1765(2) -0.0749(2)
P2 P -0.6700(2) -0.6216(2) -0.4516(2)
O1 O -0.7919(6) -1.1036(5) -0.1193(6)
O2 O -0.6357(6) -0.7725(5) -0.3815(6)
C1 C -0.9529(9) -1.1574(7) -0.2487(9)
C2 C -0.9870(9) -1.3720(8) 0.0563(9)
C3 C -0.8654(10) -1.4407(8) 0.0426(9)
H1 H -0.7653(10) -1.3856(8) -0.0282(9)
C4 C -0.4408(10) -0.5082(9) -0.4287(11)
H2 H -0.400(1) -0.5877(9) -0.4396(11)
C5 C -1.1638(11) -1.6038(9) 0.2545(11)
H3 H -1.2636(11) -1.6593(9) 0.3259(11)
C6 C -1.0968(10) -1.1015(7) 0.0269(9)
C7 C -0.5932(9) -0.5553(9) -0.6622(8)
C8 C -0.5811(9) -0.4921(8) -0.4242(8)
C9 C -0.8750(12) -1.0269(9) -0.3885(11)
H4 H -0.8234(12) -0.9505(9) -0.3897(11)
C10 C -1.1379(9) -1.4552(8) 0.1634(9)
H5 H -1.2202(9) -1.4090(8) 0.1721(9)
C11 C -0.6414(10) -0.3729(9) -0.4045(10)
H6 H -0.7358(10) -0.3607(9) -0.3999(10)
C12 C -0.5729(12) -0.408(1) -0.7633(10)
H7 H -0.5988(12) -0.3402(10) -0.7234(10)
C13 C -0.9542(10) -0.6508(8) -0.2095(9)
H8 H -0.9029(10) -0.6494(8) -0.1548(9)
C14 C -0.5622(12) -0.275(1) -0.3922(11)
H9 H -0.6028(12) -0.196(1) -0.3794(11)
C15 C -1.1120(9) -0.6748(9) -0.1354(10)
H10 H -1.1673(9) -0.6850(9) -0.0325(10)
C16 C -1.0218(12) -1.2513(10) -0.3908(11)
H11 H -1.0718(12) -1.3274(10) -0.3914(11)
C17 C -0.9495(10) -0.6354(8) -0.4449(10)
H12 H -0.8953(10) -0.6226(8) -0.549(1)
C18 C -0.4962(13) -0.6137(15) -0.8816(12)
H13 H -0.4722(13) -0.6819(15) -0.9212(12)
C19 C -1.2235(10) -1.0858(8) 0.0040(11)
H14 H -1.2273(10) -1.1063(8) -0.0726(11)
C20 C -0.8717(9) -0.6287(7) -0.3661(9)
C21 C -1.0416(12) -1.6714(9) 0.2406(11)
H15 H -1.0603(12) -1.7728(9) 0.3041(11)
C22 C -0.5137(13) -0.3629(12) -0.9249(12)
H16 H -0.4982(13) -0.2641(12) -0.9952(12)
C23 C -0.9446(12) -1.1196(12) -0.5292(10)
H17 H -0.9414(12) -1.1066(12) -0.6233(10)
C24 C -1.0905(12) -1.0656(9) 0.1363(10)
H18 H -1.0042(12) -1.0724(9) 0.1497(10)
C25 C -1.2101(13) -1.0194(10) 0.2266(11)
H19 H -1.2047(13) -0.9964(10) 0.3010(11)
C26 C -1.3448(11) -1.0396(9) 0.0943(12)
H20 H -1.4303(11) -1.0304(9) 0.0794(12)
C27 C -0.5515(10) -0.6588(10) -0.7209(10)
H21 H -0.5612(10) -0.7567(10) -0.6522(10)
C28 C -1.0254(10) -1.2705(10) -0.2528(10)
H22 H -1.0769(10) -1.3601(10) -0.1606(10)
C29 C -0.8928(11) -1.5934(8) 0.1355(11)
H23 H -0.8117(11) -1.6413(8) 0.1262(11)
C30 C -1.1881(11) -0.6838(9) -0.2155(11)
H24 H -1.2948(11) -0.7054(9) -0.1633(11)
C31 C -1.1092(10) -0.6614(10) -0.3676(10)
H25 H -1.1615(10) -0.6634(10) -0.4212(10)
C32 C -0.3618(12) -0.4079(10) -0.4172(12)
H26 H -0.2672(12) -0.4187(10) -0.4221(12)
C33 C -0.4225(12) -0.2919(9) -0.3985(10)
H27 H -0.3692(12) -0.2243(9) -0.3901(10)
C34 C -1.3377(13) -1.0074(9) 0.2063(12)
H28 H -1.4192(13) -0.9777(9) 0.2682(12)
C35 C -0.8732(14) -1.0091(12) -0.5259(11)
H29 H -0.8222(14) -0.9196(12) -0.6185(11)
C36 C -0.4769(12) -0.4692(18) -0.9819(12)
H30 H -0.4387(12) -0.4394(18) -1.0902(12)
#END
